*SPEF "ieee 1481-1999"
*DESIGN "my_ip"
*DATE "08:58:04 Wednesday March 04, 2026"
*VENDOR "The OpenROAD Project"
*PROGRAM "OpenROAD"
*VERSION "v2.0-26328-gd6e98657f1"
*DESIGN_FLOW "NAME_SCOPE LOCAL" "PIN_CAP NONE"
*DIVIDER /
*DELIMITER :
*BUS_DELIMITER []
*T_UNIT 1 NS
*C_UNIT 1 PF
*R_UNIT 1 OHM
*L_UNIT 1 HENRY

*NAME_MAP
*1 _000_
*2 _001_
*3 _002_
*4 _003_
*5 _004_
*6 _005_
*7 _006_
*8 _007_
*9 _008_
*10 _009_
*11 _010_
*12 _011_
*13 _012_
*14 _013_
*15 _014_
*16 _015_
*17 _016_
*18 _017_
*19 _018_
*20 _019_
*21 _020_
*22 _021_
*23 _022_
*24 _023_
*25 _024_
*26 _025_
*27 _026_
*28 _027_
*29 _028_
*30 _029_
*31 _030_
*32 _031_
*33 _032_
*34 _033_
*35 _034_
*36 _035_
*37 _036_
*38 _037_
*39 _038_
*40 _039_
*41 _040_
*42 _041_
*43 _042_
*44 _043_
*45 _044_
*46 _045_
*47 _046_
*48 _047_
*49 _048_
*50 _049_
*51 _050_
*52 _051_
*53 _052_
*54 _053_
*55 _054_
*56 _055_
*57 net53
*58 _057_
*59 _058_
*60 _059_
*61 _060_
*62 _061_
*63 _062_
*64 _063_
*65 _064_
*66 net52
*67 _066_
*68 _067_
*69 _068_
*70 _069_
*71 net51
*72 _071_
*73 net50
*74 _073_
*75 _074_
*76 _075_
*77 _076_
*78 _077_
*79 _078_
*80 _079_
*81 _080_
*82 _081_
*83 _082_
*84 _083_
*85 _084_
*86 _085_
*87 _086_
*88 _087_
*89 _088_
*90 _089_
*91 _090_
*92 _091_
*93 _092_
*94 _093_
*95 _094_
*96 _095_
*97 _096_
*98 _097_
*99 _098_
*100 _099_
*101 _100_
*102 _101_
*103 _102_
*104 _103_
*105 _104_
*106 _105_
*107 _106_
*108 _107_
*109 _108_
*110 _109_
*111 _110_
*112 _111_
*113 _112_
*114 _113_
*115 _114_
*116 _115_
*117 _116_
*118 _117_
*119 _118_
*120 _119_
*121 _120_
*122 _121_
*123 _122_
*124 _123_
*125 _124_
*126 _125_
*127 _126_
*128 net49
*129 _128_
*130 net48
*131 net47
*132 _131_
*133 _132_
*134 _133_
*135 _134_
*136 _135_
*137 _136_
*138 _137_
*139 net46
*140 net45
*141 net44
*142 _141_
*143 net43
*144 _143_
*145 _144_
*146 _145_
*147 _146_
*148 _147_
*149 _148_
*150 _149_
*151 _150_
*152 _151_
*153 _152_
*154 _153_
*155 _154_
*156 _155_
*157 _156_
*158 _157_
*159 _158_
*160 _159_
*161 _160_
*162 _161_
*163 _162_
*164 _163_
*165 _164_
*166 _165_
*167 _166_
*168 _167_
*169 _168_
*170 _169_
*171 _170_
*172 _171_
*173 _172_
*174 _173_
*175 _174_
*176 _175_
*177 _176_
*178 _177_
*179 _178_
*180 net42
*181 _180_
*182 _181_
*183 _182_
*184 _183_
*185 _184_
*186 _185_
*187 _186_
*188 _187_
*189 _188_
*190 _189_
*191 _190_
*192 _191_
*193 _192_
*194 _193_
*195 _194_
*196 _195_
*197 _196_
*198 _197_
*199 _198_
*200 _199_
*201 _200_
*202 _201_
*204 clk_i
*205 port_i
*206 net63
*207 reg2hw\[22\]
*208 reg2hw\[23\]
*209 reg2hw\[24\]
*210 reg2hw\[25\]
*211 reg2hw\[26\]
*212 reg2hw\[27\]
*213 reg2hw\[28\]
*214 reg2hw\[29\]
*215 reg2hw\[30\]
*216 reg2hw\[31\]
*217 reg2hw\[32\]
*218 reg2hw\[33\]
*219 reg2hw\[34\]
*220 reg2hw\[35\]
*221 reg2hw\[36\]
*222 reg2hw\[37\]
*223 reg2hw\[38\]
*224 reg2hw\[39\]
*225 rst_ni
*226 tl_i[0]
*227 tl_i[100]
*228 tl_i[101]
*229 tl_i[102]
*230 tl_i[103]
*231 tl_i[104]
*232 tl_i[105]
*233 tl_i[106]
*234 tl_i[107]
*235 tl_i[108]
*236 tl_i[10]
*237 tl_i[11]
*238 tl_i[12]
*239 tl_i[13]
*240 tl_i[14]
*241 tl_i[15]
*242 tl_i[16]
*243 tl_i[17]
*244 tl_i[18]
*245 tl_i[19]
*246 tl_i[1]
*247 tl_i[20]
*248 tl_i[21]
*249 tl_i[22]
*250 tl_i[23]
*251 tl_i[24]
*252 tl_i[25]
*253 tl_i[26]
*254 tl_i[27]
*255 tl_i[28]
*256 tl_i[29]
*257 tl_i[2]
*258 tl_i[30]
*259 tl_i[31]
*260 tl_i[32]
*261 tl_i[33]
*262 tl_i[34]
*263 tl_i[35]
*264 tl_i[36]
*265 tl_i[37]
*266 tl_i[38]
*267 tl_i[39]
*268 tl_i[3]
*269 tl_i[40]
*270 tl_i[41]
*271 tl_i[42]
*272 tl_i[43]
*273 tl_i[44]
*274 tl_i[45]
*275 tl_i[46]
*276 tl_i[47]
*277 tl_i[48]
*278 tl_i[49]
*279 tl_i[4]
*280 tl_i[50]
*281 tl_i[51]
*282 tl_i[52]
*283 tl_i[53]
*284 tl_i[54]
*285 tl_i[55]
*286 tl_i[56]
*287 tl_i[57]
*288 tl_i[58]
*289 tl_i[59]
*290 tl_i[5]
*291 tl_i[60]
*292 tl_i[61]
*293 tl_i[62]
*294 tl_i[63]
*295 tl_i[64]
*296 tl_i[65]
*297 tl_i[66]
*298 tl_i[67]
*299 tl_i[68]
*300 tl_i[69]
*301 tl_i[6]
*302 tl_i[70]
*303 tl_i[71]
*304 tl_i[72]
*305 tl_i[73]
*306 tl_i[74]
*307 tl_i[75]
*308 tl_i[76]
*309 tl_i[77]
*310 tl_i[78]
*311 tl_i[79]
*312 tl_i[7]
*313 tl_i[80]
*314 tl_i[81]
*315 tl_i[82]
*316 tl_i[83]
*317 tl_i[84]
*318 tl_i[85]
*319 tl_i[86]
*320 tl_i[87]
*321 tl_i[88]
*322 tl_i[89]
*323 tl_i[8]
*324 tl_i[90]
*325 tl_i[91]
*326 tl_i[92]
*327 tl_i[93]
*328 tl_i[94]
*329 tl_i[95]
*330 tl_i[96]
*331 tl_i[97]
*332 tl_i[98]
*333 tl_i[99]
*334 tl_i[9]
*335 net64
*336 tl_o[10]
*337 tl_o[11]
*338 tl_o[12]
*339 tl_o[13]
*340 tl_o[14]
*341 tl_o[15]
*342 net65
*343 net66
*346 net69
*350 net73
*352 clknet_2_3__leaf_clk_i
*353 clknet_2_2__leaf_clk_i
*354 clknet_2_1__leaf_clk_i
*355 clknet_2_0__leaf_clk_i
*356 net113
*357 tl_o[2]
*358 clknet_0_clk_i
*359 net81
*360 net82
*361 net83
*362 net84
*363 net85
*364 net86
*365 net87
*366 net88
*367 net89
*368 tl_o[3]
*369 net90
*370 net91
*371 net92
*372 net93
*373 net94
*374 net95
*375 net96
*376 net97
*377 tl_o[48]
*378 net98
*379 tl_o[4]
*380 net99
*381 net100
*382 net101
*383 net102
*384 net103
*385 net104
*386 net105
*387 net106
*388 net107
*389 tl_o[59]
*390 tl_o[5]
*391 tl_o[60]
*392 tl_o[61]
*393 net108
*394 tl_o[63]
*395 tl_o[64]
*396 net109
*397 tl_o[6]
*398 tl_o[7]
*399 tl_o[8]
*400 tl_o[9]
*401 u_my_ip_core\.u_sync_name\.intq
*402 net41
*403 net20
*404 net40
*405 net39
*406 net38
*407 net37
*408 net36
*409 net35
*410 net34
*411 net33
*412 net32
*413 net31
*414 net30
*415 net29
*416 net28
*417 net27
*418 net26
*419 net25
*420 net24
*421 net23
*422 net22
*423 net21
*425 net54
*426 net55
*427 net56
*428 net57
*429 net58
*430 net59
*431 net60
*432 net61
*433 net62
*434 port_o
*435 tl_o[0]
*436 tl_o[16]
*437 tl_o[17]
*438 tl_o[18]
*439 tl_o[19]
*440 tl_o[1]
*441 tl_o[20]
*442 tl_o[21]
*443 tl_o[22]
*444 tl_o[23]
*445 tl_o[24]
*446 tl_o[25]
*447 tl_o[26]
*448 tl_o[27]
*449 tl_o[28]
*450 tl_o[29]
*451 tl_o[30]
*452 tl_o[31]
*453 tl_o[32]
*454 tl_o[33]
*455 tl_o[34]
*456 tl_o[35]
*457 tl_o[36]
*458 tl_o[37]
*459 tl_o[38]
*460 tl_o[39]
*461 tl_o[40]
*462 tl_o[41]
*463 tl_o[42]
*464 tl_o[43]
*465 tl_o[44]
*466 tl_o[45]
*467 tl_o[46]
*468 tl_o[47]
*469 tl_o[49]
*470 tl_o[50]
*471 tl_o[51]
*472 tl_o[52]
*473 tl_o[53]
*474 tl_o[54]
*475 tl_o[55]
*476 tl_o[56]
*477 tl_o[57]
*478 tl_o[58]
*479 tl_o[62]
*480 tl_o[65]
*481 net112
*482 _203_
*483 _204_
*484 _205_
*485 _206_
*486 _207_
*487 input54
*488 _209_
*489 _210_
*490 _211_
*491 _212_
*492 _213_
*493 _214_
*494 _215_
*495 _216_
*496 input53
*497 _218_
*498 _219_
*499 _220_
*500 _221_
*501 input52
*502 _223_
*503 input51
*504 _225_
*505 _226_
*506 _227_
*507 _228_
*508 _229_
*509 _230_
*510 _231_
*511 _232_
*512 _233_
*513 _234_
*514 _235_
*515 _236_
*516 _237_
*517 _238_
*518 _239_
*519 _240_
*520 _241_
*521 _242_
*522 _243_
*523 _244_
*524 _245_
*525 _246_
*526 _247_
*527 _248_
*528 _249_
*529 _250_
*530 _251_
*531 _252_
*532 _253_
*533 _254_
*534 _255_
*535 _256_
*536 _257_
*537 _258_
*538 _259_
*539 _260_
*540 _261_
*541 _262_
*542 _263_
*543 _264_
*544 _265_
*545 _266_
*546 _267_
*547 _268_
*548 _269_
*549 _270_
*550 _271_
*551 _272_
*552 _273_
*553 _274_
*554 _275_
*555 _276_
*556 _277_
*557 _278_
*558 _279_
*559 _280_
*560 _281_
*561 _282_
*562 _283_
*563 _284_
*564 _285_
*565 _286_
*566 _287_
*567 _288_
*568 _289_
*569 _290_
*570 _291_
*571 _292_
*572 _293_
*573 _294_
*574 _295_
*575 _296_
*576 input50
*577 _298_
*578 _299_
*579 _300_
*580 input49
*581 _302_
*582 input48
*583 _304_
*584 _305_
*585 _306_
*586 _307_
*587 _308_
*588 _309_
*589 _310_
*590 _311_
*591 input47
*592 _313_
*593 input46
*594 input45
*595 _316_
*596 input44
*597 _318_
*598 _319_
*599 _320_
*600 _321_
*601 _322_
*602 _323_
*603 _324_
*604 _325_
*605 _326_
*606 _327_
*607 _328_
*608 _329_
*609 _330_
*610 _331_
*611 _332_
*612 _333_
*613 _334_
*614 _335_
*615 _336_
*616 _337_
*617 _338_
*618 _339_
*619 _340_
*620 _341_
*621 _342_
*622 _343_
*623 _344_
*624 _345_
*625 _346_
*626 _347_
*627 _348_
*628 _349_
*629 _350_
*630 _351_
*631 _352_
*632 _353_
*633 _354_
*634 _355_
*635 _356_
*636 _357_
*637 _358_
*638 _359_
*639 _360_
*640 _361_
*641 _362_
*642 _363_
*643 _364_
*644 _365_
*645 _366_
*646 _367_
*647 _368_
*648 _369_
*649 _370_
*650 _371_
*651 input43
*652 _373_
*653 _374_
*654 _375_
*655 _376_
*656 _377_
*657 _378_
*658 _379_
*659 _380_
*660 _381_
*661 _382_
*662 _383_
*663 _384_
*664 _385_
*665 _386_
*666 _387_
*667 _388_
*668 _389_
*669 _390_
*670 _391_
*671 _392_
*672 _393_
*673 _394_
*674 _395_
*675 _396_
*676 _397_
*677 _398_
*678 _399_
*679 _400_
*680 _401_
*681 _402_
*682 _403_
*683 _404_
*684 _405_
*685 TAP_TAPCELL_ROW_0_0
*686 input42
*687 input41
*688 input40
*689 input39
*690 input38
*691 input37
*692 input36
*693 input35
*694 input34
*695 input33
*696 input32
*697 input31
*698 input30
*699 input29
*700 input28
*701 FILLER_0_16
*702 FILLER_0_8
*703 FILLER_0_3
*704 clkload2
*705 clkload1
*706 clkload0
*707 clkbuf_2_3__f_clk_i
*708 clkbuf_2_2__f_clk_i
*709 clkbuf_2_1__f_clk_i
*710 clkbuf_2_0__f_clk_i
*711 place114
*712 clkbuf_0_clk_i
*713 input27
*714 input26
*715 input25
*716 input24
*717 input23
*718 input22
*719 input21
*720 u_my_ip_core\.u_sync_name\.u_sync_1\.q_o\$_DFF_PN0_
*721 u_my_ip_core\.u_sync_name\.u_sync_2\.q_o\$_DFF_PN0_
*722 u_my_ip_reg\.u_ctrl_en\.q\$_DFFE_PN0P_
*723 u_my_ip_reg\.u_ctrl_rst\.q\$_DFFE_PN0P_
*724 u_my_ip_reg\.u_ctrl_setting\.q\[0\]\$_DFFE_PN0P_
*725 u_my_ip_reg\.u_ctrl_setting\.q\[10\]\$_DFFE_PN0P_
*726 u_my_ip_reg\.u_ctrl_setting\.q\[11\]\$_DFFE_PN0P_
*727 u_my_ip_reg\.u_ctrl_setting\.q\[12\]\$_DFFE_PN0P_
*728 u_my_ip_reg\.u_ctrl_setting\.q\[13\]\$_DFFE_PN0P_
*729 u_my_ip_reg\.u_ctrl_setting\.q\[14\]\$_DFFE_PN0P_
*730 u_my_ip_reg\.u_ctrl_setting\.q\[15\]\$_DFFE_PN0P_
*731 u_my_ip_reg\.u_ctrl_setting\.q\[1\]\$_DFFE_PN0P_
*732 u_my_ip_reg\.u_ctrl_setting\.q\[2\]\$_DFFE_PN0P_
*733 u_my_ip_reg\.u_ctrl_setting\.q\[3\]\$_DFFE_PN0P_
*734 u_my_ip_reg\.u_ctrl_setting\.q\[4\]\$_DFFE_PN0P_
*735 u_my_ip_reg\.u_ctrl_setting\.q\[5\]\$_DFFE_PN0P_
*736 u_my_ip_reg\.u_ctrl_setting\.q\[6\]\$_DFFE_PN0P_
*737 u_my_ip_reg\.u_ctrl_setting\.q\[7\]\$_DFFE_PN0P_
*738 u_my_ip_reg\.u_ctrl_setting\.q\[8\]\$_DFFE_PN0P_
*739 u_my_ip_reg\.u_ctrl_setting\.q\[9\]\$_DFFE_PN0P_
*740 u_my_ip_reg\.u_reg_if\.error\$_DFFE_PN0P_
*741 u_my_ip_reg\.u_reg_if\.outstanding_q\$_DFFE_PN0P_
*742 u_my_ip_reg\.u_reg_if\.rdata\[0\]\$_DFFE_PN0P_
*743 u_my_ip_reg\.u_reg_if\.rdata\[15\]\$_DFFE_PN0P_
*744 u_my_ip_reg\.u_reg_if\.rdata\[16\]\$_DFFE_PN0P_
*745 u_my_ip_reg\.u_reg_if\.rdata\[17\]\$_DFFE_PN0P_
*746 u_my_ip_reg\.u_reg_if\.rdata\[18\]\$_DFFE_PN0P_
*747 u_my_ip_reg\.u_reg_if\.rdata\[19\]\$_DFFE_PN0P_
*748 u_my_ip_reg\.u_reg_if\.rdata\[1\]\$_DFFE_PN0P_
*749 u_my_ip_reg\.u_reg_if\.rdata\[20\]\$_DFFE_PN0P_
*750 u_my_ip_reg\.u_reg_if\.rdata\[21\]\$_DFFE_PN0P_
*751 u_my_ip_reg\.u_reg_if\.rdata\[22\]\$_DFFE_PN0P_
*752 u_my_ip_reg\.u_reg_if\.rdata\[23\]\$_DFFE_PN0P_
*753 u_my_ip_reg\.u_reg_if\.rdata\[24\]\$_DFFE_PN0P_
*754 u_my_ip_reg\.u_reg_if\.rdata\[25\]\$_DFFE_PN0P_
*755 u_my_ip_reg\.u_reg_if\.rdata\[26\]\$_DFFE_PN0P_
*756 u_my_ip_reg\.u_reg_if\.rdata\[27\]\$_DFFE_PN0P_
*757 u_my_ip_reg\.u_reg_if\.rdata\[28\]\$_DFFE_PN0P_
*758 u_my_ip_reg\.u_reg_if\.rdata\[29\]\$_DFFE_PN0P_
*759 u_my_ip_reg\.u_reg_if\.rdata\[30\]\$_DFFE_PN0P_
*760 u_my_ip_reg\.u_reg_if\.rdata\[31\]\$_DFFE_PN0P_
*761 u_my_ip_reg\.u_reg_if\.rdata\[7\]\$_DFFE_PN0P_
*762 u_my_ip_reg\.u_reg_if\.reqid_q\[0\]\$_DFFE_PN0P_
*763 u_my_ip_reg\.u_reg_if\.reqid_q\[1\]\$_DFFE_PN0P_
*764 u_my_ip_reg\.u_reg_if\.reqid_q\[2\]\$_DFFE_PN0P_
*765 u_my_ip_reg\.u_reg_if\.reqid_q\[3\]\$_DFFE_PN0P_
*766 u_my_ip_reg\.u_reg_if\.reqid_q\[4\]\$_DFFE_PN0P_
*767 u_my_ip_reg\.u_reg_if\.reqid_q\[5\]\$_DFFE_PN0P_
*768 u_my_ip_reg\.u_reg_if\.reqid_q\[6\]\$_DFFE_PN0P_
*769 u_my_ip_reg\.u_reg_if\.reqid_q\[7\]\$_DFFE_PN0P_
*770 u_my_ip_reg\.u_reg_if\.reqsz_q\[0\]\$_DFFE_PN0P_
*771 u_my_ip_reg\.u_reg_if\.reqsz_q\[1\]\$_DFFE_PN0P_
*772 u_my_ip_reg\.u_reg_if\.rspop_q\[0\]\$_DFFE_PN0P_
*773 _408__1
*774 _409__2
*775 _410__3
*776 _411__4
*777 _412__5
*778 _413__6
*779 _414__7
*780 _415__8
*781 _416__9
*782 _417__10
*783 _418__11
*784 _419__12
*785 _420__13
*786 _421__14
*787 _434__15
*788 _435__16
*789 _436__17
*790 _437__18
*791 _438__19
*792 _439__20
*793 TAP_TAPCELL_ROW_0_1
*794 TAP_TAPCELL_ROW_0_2
*795 TAP_TAPCELL_ROW_0_3
*796 TAP_TAPCELL_ROW_0_4
*797 TAP_TAPCELL_ROW_1_5
*798 TAP_TAPCELL_ROW_1_6
*799 TAP_TAPCELL_ROW_2_7
*800 TAP_TAPCELL_ROW_2_8
*801 TAP_TAPCELL_ROW_2_9
*802 TAP_TAPCELL_ROW_3_10
*803 TAP_TAPCELL_ROW_3_11
*804 TAP_TAPCELL_ROW_4_12
*805 TAP_TAPCELL_ROW_4_13
*806 TAP_TAPCELL_ROW_4_14
*807 TAP_TAPCELL_ROW_5_15
*808 TAP_TAPCELL_ROW_5_16
*809 TAP_TAPCELL_ROW_6_17
*810 TAP_TAPCELL_ROW_6_18
*811 TAP_TAPCELL_ROW_6_19
*812 TAP_TAPCELL_ROW_7_20
*813 TAP_TAPCELL_ROW_7_21
*814 TAP_TAPCELL_ROW_8_22
*815 TAP_TAPCELL_ROW_8_23
*816 TAP_TAPCELL_ROW_8_24
*817 TAP_TAPCELL_ROW_9_25
*818 TAP_TAPCELL_ROW_9_26
*819 TAP_TAPCELL_ROW_10_27
*820 TAP_TAPCELL_ROW_10_28
*821 TAP_TAPCELL_ROW_10_29
*822 TAP_TAPCELL_ROW_11_30
*823 TAP_TAPCELL_ROW_11_31
*824 TAP_TAPCELL_ROW_12_32
*825 TAP_TAPCELL_ROW_12_33
*826 TAP_TAPCELL_ROW_12_34
*827 TAP_TAPCELL_ROW_13_35
*828 TAP_TAPCELL_ROW_13_36
*829 TAP_TAPCELL_ROW_14_37
*830 TAP_TAPCELL_ROW_14_38
*831 TAP_TAPCELL_ROW_14_39
*832 TAP_TAPCELL_ROW_15_40
*833 TAP_TAPCELL_ROW_15_41
*834 TAP_TAPCELL_ROW_16_42
*835 TAP_TAPCELL_ROW_16_43
*836 TAP_TAPCELL_ROW_16_44
*837 TAP_TAPCELL_ROW_17_45
*838 TAP_TAPCELL_ROW_17_46
*839 TAP_TAPCELL_ROW_18_47
*840 TAP_TAPCELL_ROW_18_48
*841 TAP_TAPCELL_ROW_18_49
*842 TAP_TAPCELL_ROW_19_50
*843 TAP_TAPCELL_ROW_19_51
*844 TAP_TAPCELL_ROW_20_52
*845 TAP_TAPCELL_ROW_20_53
*846 TAP_TAPCELL_ROW_20_54
*847 TAP_TAPCELL_ROW_21_55
*848 TAP_TAPCELL_ROW_21_56
*849 TAP_TAPCELL_ROW_22_57
*850 TAP_TAPCELL_ROW_22_58
*851 TAP_TAPCELL_ROW_22_59
*852 TAP_TAPCELL_ROW_23_60
*853 TAP_TAPCELL_ROW_23_61
*854 TAP_TAPCELL_ROW_24_62
*855 TAP_TAPCELL_ROW_24_63
*856 TAP_TAPCELL_ROW_24_64
*857 TAP_TAPCELL_ROW_24_65
*858 TAP_TAPCELL_ROW_24_66
*859 input55
*860 input56
*861 input57
*862 input58
*863 input59
*864 input60
*865 input61
*866 input62
*867 input63
*868 output64
*869 output65
*870 output66
*871 output67
*872 output68
*873 output69
*874 output70
*875 output71
*876 output72
*877 output73
*878 output74
*879 output75
*880 output76
*881 output77
*882 output78
*883 output79
*884 output80
*885 output81
*886 output82
*887 output83
*888 output84
*889 output85
*890 output86
*891 output87
*892 output88
*893 output89
*894 output90
*895 output91
*896 output92
*897 output93
*898 output94
*899 output95
*900 output96
*901 output97
*902 output98
*903 output99
*904 output100
*905 output101
*906 output102
*907 output103
*908 output104
*909 output105
*910 output106
*911 output107
*912 output108
*913 output109
*914 output110
*915 place113
*916 FILLER_0_24
*917 FILLER_0_28
*918 FILLER_0_31
*919 FILLER_0_39
*920 FILLER_0_49
*921 FILLER_0_59
*922 FILLER_0_61
*923 FILLER_0_69
*924 FILLER_0_89
*925 FILLER_0_91
*926 FILLER_0_95
*927 FILLER_0_103
*928 FILLER_0_111
*929 FILLER_0_119
*930 FILLER_0_121
*931 FILLER_0_125
*932 FILLER_0_154
*933 FILLER_1_3
*934 FILLER_1_8
*935 FILLER_1_16
*936 FILLER_1_24
*937 FILLER_1_28
*938 FILLER_1_73
*939 FILLER_1_103
*940 FILLER_1_107
*941 FILLER_1_114
*942 FILLER_1_124
*943 FILLER_2_0
*944 FILLER_2_5
*945 FILLER_2_13
*946 FILLER_2_21
*947 FILLER_2_29
*948 FILLER_2_31
*949 FILLER_2_35
*950 FILLER_2_41
*951 FILLER_2_45
*952 FILLER_2_91
*953 FILLER_2_141
*954 FILLER_2_151
*955 FILLER_3_0
*956 FILLER_3_4
*957 FILLER_3_12
*958 FILLER_3_20
*959 FILLER_3_28
*960 FILLER_3_36
*961 FILLER_3_49
*962 FILLER_3_53
*963 FILLER_3_55
*964 FILLER_3_61
*965 FILLER_3_66
*966 FILLER_3_68
*967 FILLER_3_78
*968 FILLER_3_86
*969 FILLER_3_91
*970 FILLER_3_95
*971 FILLER_3_97
*972 FILLER_3_102
*973 FILLER_3_110
*974 FILLER_3_152
*975 FILLER_3_154
*976 FILLER_4_0
*977 FILLER_4_5
*978 FILLER_4_13
*979 FILLER_4_21
*980 FILLER_4_29
*981 FILLER_4_31
*982 FILLER_4_35
*983 FILLER_4_56
*984 FILLER_4_61
*985 FILLER_4_65
*986 FILLER_4_70
*987 FILLER_4_74
*988 FILLER_4_82
*989 FILLER_4_91
*990 FILLER_4_97
*991 FILLER_4_99
*992 FILLER_4_120
*993 FILLER_4_136
*994 FILLER_4_140
*995 FILLER_4_149
*996 FILLER_4_151
*997 FILLER_5_0
*998 FILLER_5_4
*999 FILLER_5_14
*1000 FILLER_5_19
*1001 FILLER_5_47
*1002 FILLER_5_51
*1003 FILLER_5_56
*1004 FILLER_5_88
*1005 FILLER_5_90
*1006 FILLER_5_114
*1007 FILLER_5_141
*1008 FILLER_5_149
*1009 FILLER_5_154
*1010 FILLER_6_3
*1011 FILLER_6_8
*1012 FILLER_6_16
*1013 FILLER_6_24
*1014 FILLER_6_28
*1015 FILLER_6_31
*1016 FILLER_6_51
*1017 FILLER_6_59
*1018 FILLER_6_67
*1019 FILLER_6_89
*1020 FILLER_6_95
*1021 FILLER_6_97
*1022 FILLER_6_105
*1023 FILLER_6_134
*1024 FILLER_6_151
*1025 FILLER_7_3
*1026 FILLER_7_12
*1027 FILLER_7_16
*1028 FILLER_7_55
*1029 FILLER_7_59
*1030 FILLER_7_61
*1031 FILLER_7_76
*1032 FILLER_7_84
*1033 FILLER_7_89
*1034 FILLER_7_91
*1035 FILLER_7_96
*1036 FILLER_7_118
*1037 FILLER_7_124
*1038 FILLER_7_132
*1039 FILLER_8_3
*1040 FILLER_8_8
*1041 FILLER_8_16
*1042 FILLER_8_24
*1043 FILLER_8_28
*1044 FILLER_8_31
*1045 FILLER_8_35
*1046 FILLER_8_71
*1047 FILLER_8_79
*1048 FILLER_8_111
*1049 FILLER_8_151
*1050 FILLER_9_11
*1051 FILLER_9_19
*1052 FILLER_9_21
*1053 FILLER_9_87
*1054 FILLER_9_95
*1055 FILLER_9_117
*1056 FILLER_9_119
*1057 FILLER_9_121
*1058 FILLER_9_123
*1059 FILLER_9_152
*1060 FILLER_9_154
*1061 FILLER_10_0
*1062 FILLER_10_2
*1063 FILLER_10_23
*1064 FILLER_10_27
*1065 FILLER_10_29
*1066 FILLER_10_31
*1067 FILLER_10_37
*1068 FILLER_10_44
*1069 FILLER_10_46
*1070 FILLER_10_73
*1071 FILLER_10_75
*1072 FILLER_10_82
*1073 FILLER_10_86
*1074 FILLER_10_95
*1075 FILLER_10_100
*1076 FILLER_10_105
*1077 FILLER_10_109
*1078 FILLER_10_113
*1079 FILLER_10_115
*1080 FILLER_10_119
*1081 FILLER_10_129
*1082 FILLER_10_151
*1083 FILLER_11_8
*1084 FILLER_11_10
*1085 FILLER_11_19
*1086 FILLER_11_23
*1087 FILLER_11_30
*1088 FILLER_11_56
*1089 FILLER_11_91
*1090 FILLER_11_99
*1091 FILLER_11_124
*1092 FILLER_11_132
*1093 FILLER_11_144
*1094 FILLER_11_146
*1095 FILLER_12_0
*1096 FILLER_12_2
*1097 FILLER_12_11
*1098 FILLER_12_15
*1099 FILLER_12_38
*1100 FILLER_12_46
*1101 FILLER_12_48
*1102 FILLER_12_88
*1103 FILLER_12_95
*1104 FILLER_12_103
*1105 FILLER_12_111
*1106 FILLER_12_113
*1107 FILLER_12_140
*1108 FILLER_12_151
*1109 FILLER_13_0
*1110 FILLER_13_2
*1111 FILLER_13_25
*1112 FILLER_13_35
*1113 FILLER_13_43
*1114 FILLER_13_50
*1115 FILLER_13_56
*1116 FILLER_13_64
*1117 FILLER_13_66
*1118 FILLER_13_87
*1119 FILLER_13_118
*1120 FILLER_13_121
*1121 FILLER_13_125
*1122 FILLER_13_134
*1123 FILLER_13_142
*1124 FILLER_13_152
*1125 FILLER_13_154
*1126 FILLER_14_0
*1127 FILLER_14_9
*1128 FILLER_14_20
*1129 FILLER_14_28
*1130 FILLER_14_31
*1131 FILLER_14_59
*1132 FILLER_14_75
*1133 FILLER_14_80
*1134 FILLER_14_91
*1135 FILLER_14_99
*1136 FILLER_14_135
*1137 FILLER_14_137
*1138 FILLER_14_141
*1139 FILLER_14_151
*1140 FILLER_15_0
*1141 FILLER_15_2
*1142 FILLER_15_15
*1143 FILLER_15_43
*1144 FILLER_15_47
*1145 FILLER_15_54
*1146 FILLER_15_58
*1147 FILLER_15_64
*1148 FILLER_15_73
*1149 FILLER_15_81
*1150 FILLER_15_121
*1151 FILLER_15_142
*1152 FILLER_15_152
*1153 FILLER_15_154
*1154 FILLER_16_11
*1155 FILLER_16_19
*1156 FILLER_16_27
*1157 FILLER_16_29
*1158 FILLER_16_31
*1159 FILLER_16_42
*1160 FILLER_16_66
*1161 FILLER_16_91
*1162 FILLER_16_99
*1163 FILLER_16_107
*1164 FILLER_16_125
*1165 FILLER_16_140
*1166 FILLER_16_151
*1167 FILLER_17_59
*1168 FILLER_17_61
*1169 FILLER_17_65
*1170 FILLER_17_98
*1171 FILLER_17_106
*1172 FILLER_17_119
*1173 FILLER_18_0
*1174 FILLER_18_2
*1175 FILLER_18_11
*1176 FILLER_18_17
*1177 FILLER_18_22
*1178 FILLER_18_40
*1179 FILLER_18_66
*1180 FILLER_18_74
*1181 FILLER_18_133
*1182 FILLER_18_141
*1183 FILLER_18_151
*1184 FILLER_19_0
*1185 FILLER_19_8
*1186 FILLER_19_13
*1187 FILLER_19_53
*1188 FILLER_19_84
*1189 FILLER_19_86
*1190 FILLER_19_118
*1191 FILLER_19_124
*1192 FILLER_19_143
*1193 FILLER_20_11
*1194 FILLER_20_19
*1195 FILLER_20_45
*1196 FILLER_20_66
*1197 FILLER_20_74
*1198 FILLER_20_84
*1199 FILLER_20_88
*1200 FILLER_20_91
*1201 FILLER_20_95
*1202 FILLER_20_97
*1203 FILLER_20_109
*1204 FILLER_20_118
*1205 FILLER_20_122
*1206 FILLER_20_124
*1207 FILLER_20_148
*1208 FILLER_20_154
*1209 FILLER_21_0
*1210 FILLER_21_8
*1211 FILLER_21_16
*1212 FILLER_21_37
*1213 FILLER_21_41
*1214 FILLER_21_43
*1215 FILLER_21_52
*1216 FILLER_21_56
*1217 FILLER_21_64
*1218 FILLER_21_68
*1219 FILLER_21_77
*1220 FILLER_21_81
*1221 FILLER_21_89
*1222 FILLER_21_97
*1223 FILLER_21_99
*1224 FILLER_21_121
*1225 FILLER_21_125
*1226 FILLER_21_134
*1227 FILLER_21_152
*1228 FILLER_21_154
*1229 FILLER_22_0
*1230 FILLER_22_8
*1231 FILLER_22_31
*1232 FILLER_22_63
*1233 FILLER_22_67
*1234 FILLER_22_69
*1235 FILLER_22_125
*1236 FILLER_22_154
*1237 FILLER_23_0
*1238 FILLER_23_8
*1239 FILLER_23_12
*1240 FILLER_23_14
*1241 FILLER_23_23
*1242 FILLER_23_47
*1243 FILLER_23_56
*1244 FILLER_23_61
*1245 FILLER_23_65
*1246 FILLER_23_67
*1247 FILLER_23_76
*1248 FILLER_23_80
*1249 FILLER_23_88
*1250 FILLER_23_97
*1251 FILLER_23_101
*1252 FILLER_23_116
*1253 FILLER_23_121
*1254 FILLER_23_134
*1255 FILLER_24_0
*1256 FILLER_24_8
*1257 FILLER_24_16
*1258 FILLER_24_24
*1259 FILLER_24_28
*1260 FILLER_24_31
*1261 FILLER_24_39
*1262 FILLER_24_41
*1263 FILLER_24_50
*1264 FILLER_24_58
*1265 FILLER_24_61
*1266 FILLER_24_81
*1267 FILLER_24_91
*1268 FILLER_24_95
*1269 FILLER_24_100
*1270 FILLER_24_102
*1271 FILLER_24_111
*1272 FILLER_24_121
*1273 FILLER_24_123
*1274 FILLER_24_132
*1275 FILLER_24_151

*PORTS
clk_i I
port_i I
port_o O
rst_ni I
tl_i[0] I
tl_i[100] I
tl_i[101] I
tl_i[102] I
tl_i[103] I
tl_i[104] I
tl_i[105] I
tl_i[106] I
tl_i[107] I
tl_i[108] I
tl_i[10] I
tl_i[11] I
tl_i[12] I
tl_i[13] I
tl_i[14] I
tl_i[15] I
tl_i[16] I
tl_i[17] I
tl_i[18] I
tl_i[19] I
tl_i[1] I
tl_i[20] I
tl_i[21] I
tl_i[22] I
tl_i[23] I
tl_i[24] I
tl_i[25] I
tl_i[26] I
tl_i[27] I
tl_i[28] I
tl_i[29] I
tl_i[2] I
tl_i[30] I
tl_i[31] I
tl_i[32] I
tl_i[33] I
tl_i[34] I
tl_i[35] I
tl_i[36] I
tl_i[37] I
tl_i[38] I
tl_i[39] I
tl_i[3] I
tl_i[40] I
tl_i[41] I
tl_i[42] I
tl_i[43] I
tl_i[44] I
tl_i[45] I
tl_i[46] I
tl_i[47] I
tl_i[48] I
tl_i[49] I
tl_i[4] I
tl_i[50] I
tl_i[51] I
tl_i[52] I
tl_i[53] I
tl_i[54] I
tl_i[55] I
tl_i[56] I
tl_i[57] I
tl_i[58] I
tl_i[59] I
tl_i[5] I
tl_i[60] I
tl_i[61] I
tl_i[62] I
tl_i[63] I
tl_i[64] I
tl_i[65] I
tl_i[66] I
tl_i[67] I
tl_i[68] I
tl_i[69] I
tl_i[6] I
tl_i[70] I
tl_i[71] I
tl_i[72] I
tl_i[73] I
tl_i[74] I
tl_i[75] I
tl_i[76] I
tl_i[77] I
tl_i[78] I
tl_i[79] I
tl_i[7] I
tl_i[80] I
tl_i[81] I
tl_i[82] I
tl_i[83] I
tl_i[84] I
tl_i[85] I
tl_i[86] I
tl_i[87] I
tl_i[88] I
tl_i[89] I
tl_i[8] I
tl_i[90] I
tl_i[91] I
tl_i[92] I
tl_i[93] I
tl_i[94] I
tl_i[95] I
tl_i[96] I
tl_i[97] I
tl_i[98] I
tl_i[99] I
tl_i[9] I
tl_o[0] O
tl_o[10] O
tl_o[11] O
tl_o[12] O
tl_o[13] O
tl_o[14] O
tl_o[15] O
tl_o[16] O
tl_o[17] O
tl_o[18] O
tl_o[19] O
tl_o[1] O
tl_o[20] O
tl_o[21] O
tl_o[22] O
tl_o[23] O
tl_o[24] O
tl_o[25] O
tl_o[26] O
tl_o[27] O
tl_o[28] O
tl_o[29] O
tl_o[2] O
tl_o[30] O
tl_o[31] O
tl_o[32] O
tl_o[33] O
tl_o[34] O
tl_o[35] O
tl_o[36] O
tl_o[37] O
tl_o[38] O
tl_o[39] O
tl_o[3] O
tl_o[40] O
tl_o[41] O
tl_o[42] O
tl_o[43] O
tl_o[44] O
tl_o[45] O
tl_o[46] O
tl_o[47] O
tl_o[48] O
tl_o[49] O
tl_o[4] O
tl_o[50] O
tl_o[51] O
tl_o[52] O
tl_o[53] O
tl_o[54] O
tl_o[55] O
tl_o[56] O
tl_o[57] O
tl_o[58] O
tl_o[59] O
tl_o[5] O
tl_o[60] O
tl_o[61] O
tl_o[62] O
tl_o[63] O
tl_o[64] O
tl_o[65] O
tl_o[6] O
tl_o[7] O
tl_o[8] O
tl_o[9] O

*D_NET *1 0.0010714
*CONN
*I *722:D I *D sky130_fd_sc_hd__dfrtp_1
*I *505:Y O *D sky130_fd_sc_hd__nand2_1
*CAP
1 *722:D 0.000226017
2 *505:Y 0.000226017
3 *722:D *504:B 0
4 *722:D *505:B 0.000171273
5 *722:D *508:B 4.19662e-05
6 *722:D *520:B 0
7 *722:D *528:B 0.000321918
8 *722:D *697:A 9.34396e-06
9 *722:D *355:37 7.48633e-05
*RES
1 *505:Y *722:D 35.9051 
*END

*D_NET *2 0.000385557
*CONN
*I *723:D I *D sky130_fd_sc_hd__dfrtp_1
*I *509:Y O *D sky130_fd_sc_hd__nand2_1
*CAP
1 *723:D 9.12349e-05
2 *509:Y 9.12349e-05
3 *723:D *498:A1 3.77804e-05
4 *723:D *498:A2 0.000165307
*RES
1 *509:Y *723:D 30.0537 
*END

*D_NET *3 0.000309025
*CONN
*I *724:D I *D sky130_fd_sc_hd__dfrtp_1
*I *513:Y O *D sky130_fd_sc_hd__nand2_1
*CAP
1 *724:D 6.58106e-05
2 *513:Y 6.58106e-05
3 *724:D *513:A 0.000101148
4 *724:D *724:CLK 3.00829e-05
5 *724:D *72:92 4.61732e-05
*RES
1 *513:Y *724:D 30.0537 
*END

*D_NET *4 0.000279778
*CONN
*I *725:D I *D sky130_fd_sc_hd__dfrtp_1
*I *517:Y O *D sky130_fd_sc_hd__nand2_1
*CAP
1 *725:D 0.000121322
2 *517:Y 0.000121322
3 *725:D *517:A 3.71341e-05
*RES
1 *517:Y *725:D 21.4401 
*END

*D_NET *5 0.00063373
*CONN
*I *726:D I *D sky130_fd_sc_hd__dfrtp_1
*I *521:Y O *D sky130_fd_sc_hd__nand2_1
*CAP
1 *726:D 0.000139997
2 *521:Y 0.000139997
3 *726:D *521:A 0.000282622
4 *726:D *356:73 7.11151e-05
*RES
1 *521:Y *726:D 32.6523 
*END

*D_NET *6 0.000480158
*CONN
*I *727:D I *D sky130_fd_sc_hd__dfrtp_1
*I *525:Y O *D sky130_fd_sc_hd__nand2_1
*CAP
1 *727:D 0.000135069
2 *525:Y 0.000135069
3 *727:D *72:10 0
4 *727:D *72:36 0.000115934
5 *727:D *356:8 9.40857e-05
*RES
1 *525:Y *727:D 30.6083 
*END

*D_NET *7 0.000376768
*CONN
*I *728:D I *D sky130_fd_sc_hd__dfrtp_1
*I *529:Y O *D sky130_fd_sc_hd__nand2_1
*CAP
1 *728:D 0.000117816
2 *529:Y 0.000117816
3 *728:D *521:B 6.46815e-05
4 *728:D *636:A 2.85997e-05
5 *728:D *728:RESET_B 4.78554e-05
*RES
1 *529:Y *728:D 30.4689 
*END

*D_NET *8 0.000382471
*CONN
*I *729:D I *D sky130_fd_sc_hd__dfrtp_1
*I *533:Y O *D sky130_fd_sc_hd__nand2_1
*CAP
1 *729:D 0.000104206
2 *533:Y 0.000104206
3 *729:D *631:A 2.02354e-05
4 *729:D *731:RESET_B 6.08467e-05
5 *729:D *755:RESET_B 1.03594e-05
6 *729:D *356:433 8.26183e-05
*RES
1 *533:Y *729:D 30.0537 
*END

*D_NET *9 0.000290388
*CONN
*I *730:D I *D sky130_fd_sc_hd__dfrtp_1
*I *537:Y O *D sky130_fd_sc_hd__nand2_1
*CAP
1 *730:D 0.000145194
2 *537:Y 0.000145194
*RES
1 *537:Y *730:D 21.4401 
*END

*D_NET *10 0.00110663
*CONN
*I *731:D I *D sky130_fd_sc_hd__dfrtp_1
*I *541:Y O *D sky130_fd_sc_hd__nand2_1
*CAP
1 *731:D 0.000337675
2 *541:Y 0.000337675
3 *731:D *539:B1_N 0
4 *731:D *541:A 1.4091e-06
5 *731:D *632:C 7.63627e-05
6 *731:D *755:D 3.31882e-05
7 *731:D *755:CLK 2.44829e-05
8 *731:D *54:113 0.000206927
9 *731:D *355:10 4.08057e-05
10 *731:D *355:27 1.45944e-05
11 *731:D *355:112 3.35066e-05
*RES
1 *541:Y *731:D 36.5612 
*END

*D_NET *11 0.000969067
*CONN
*I *732:D I *D sky130_fd_sc_hd__dfrtp_1
*I *545:Y O *D sky130_fd_sc_hd__nand2_1
*CAP
1 *732:D 0.000334739
2 *545:Y 0.000334739
3 *732:D *545:A 0.000208606
4 *732:D *354:97 9.0984e-05
*RES
1 *545:Y *732:D 35.4548 
*END

*D_NET *12 0.000937285
*CONN
*I *733:D I *D sky130_fd_sc_hd__dfrtp_1
*I *549:Y O *D sky130_fd_sc_hd__nand2_1
*CAP
1 *733:D 0.000283082
2 *549:Y 0.000283082
3 *733:D *548:A 8.859e-05
4 *733:D *548:C 0.000173111
5 *733:D *549:B 5.03013e-06
6 *733:D *747:CLK 2.58757e-05
7 *733:D *65:48 7.85147e-05
*RES
1 *549:Y *733:D 34.0725 
*END

*D_NET *13 0.000470635
*CONN
*I *734:D I *D sky130_fd_sc_hd__dfrtp_1
*I *553:Y O *D sky130_fd_sc_hd__nand2_1
*CAP
1 *734:D 5.20261e-05
2 *553:Y 5.20261e-05
3 *734:D *620:A 0.00025718
4 *734:D *354:48 4.24488e-05
5 *734:D *354:55 6.69545e-05
*RES
1 *553:Y *734:D 21.4401 
*END

*D_NET *14 0.000205474
*CONN
*I *735:D I *D sky130_fd_sc_hd__dfrtp_1
*I *557:Y O *D sky130_fd_sc_hd__nand2_1
*CAP
1 *735:D 7.41843e-05
2 *557:Y 7.41843e-05
3 *735:D *354:88 5.71059e-05
4 *735:D *356:630 0
*RES
1 *557:Y *735:D 29.7455 
*END

*D_NET *15 0.000315236
*CONN
*I *736:D I *D sky130_fd_sc_hd__dfrtp_1
*I *561:Y O *D sky130_fd_sc_hd__nand2_1
*CAP
1 *736:D 6.2864e-05
2 *561:Y 6.2864e-05
3 *736:D *560:A 1.41976e-05
4 *736:D *70:95 0.000110583
5 *736:D *72:159 6.47268e-05
*RES
1 *561:Y *736:D 21.4401 
*END

*D_NET *16 0.000347705
*CONN
*I *737:D I *D sky130_fd_sc_hd__dfrtp_1
*I *565:Y O *D sky130_fd_sc_hd__nand2_1
*CAP
1 *737:D 0.000119119
2 *565:Y 0.000119119
3 *737:D *737:CLK 4.66889e-05
4 *737:D *356:574 6.27782e-05
*RES
1 *565:Y *737:D 21.4401 
*END

*D_NET *17 0.000302468
*CONN
*I *738:D I *D sky130_fd_sc_hd__dfrtp_1
*I *569:Y O *D sky130_fd_sc_hd__nand2_1
*CAP
1 *738:D 0.000126764
2 *569:Y 0.000126764
3 *738:D *738:CLK 4.89392e-05
*RES
1 *569:Y *738:D 21.4401 
*END

*D_NET *18 0.000927462
*CONN
*I *739:D I *D sky130_fd_sc_hd__dfrtp_1
*I *573:Y O *D sky130_fd_sc_hd__nand2_1
*CAP
1 *739:D 0.000243341
2 *573:Y 0.000243341
3 *739:D *538:A 0.000202719
4 *739:D *739:CLK 6.72397e-05
5 *739:D *53:215 0.00015607
6 *739:D *54:95 1.47498e-05
*RES
1 *573:Y *739:D 24.2915 
*END

*D_NET *19 0.000205574
*CONN
*I *740:D I *D sky130_fd_sc_hd__dfrtp_1
*I *578:Y O *D sky130_fd_sc_hd__o21ai_0
*CAP
1 *740:D 8.46662e-05
2 *578:Y 8.46662e-05
3 *740:D *356:163 3.62414e-05
*RES
1 *578:Y *740:D 29.7455 
*END

*D_NET *20 0.00110813
*CONN
*I *741:D I *D sky130_fd_sc_hd__dfrtp_1
*I *581:Y O *D sky130_fd_sc_hd__o21ai_0
*CAP
1 *741:D 0.000285161
2 *581:Y 0.000285161
3 *741:D *581:B1 0.00011935
4 *741:D *741:RESET_B 0.000105894
5 *741:D *335:12 0.00011935
6 *741:D *396:8 0.00019321
*RES
1 *581:Y *741:D 37.1242 
*END

*D_NET *21 0.000332302
*CONN
*I *742:D I *D sky130_fd_sc_hd__dfrtp_1
*I *589:Y O *D sky130_fd_sc_hd__nor2_1
*CAP
1 *742:D 0.000110166
2 *589:Y 0.000110166
3 *742:D *588:B 4.27003e-05
4 *742:D *648:B1 0
5 *742:D *53:77 6.92705e-05
*RES
1 *589:Y *742:D 30.0537 
*END

*D_NET *22 0.000307547
*CONN
*I *743:D I *D sky130_fd_sc_hd__dfrtp_1
*I *592:Y O *D sky130_fd_sc_hd__nand2_1
*CAP
1 *743:D 0.00011306
2 *592:Y 0.00011306
3 *743:D *592:A 9.75148e-06
4 *743:D *743:CLK 7.16754e-05
*RES
1 *592:Y *743:D 21.4401 
*END

*D_NET *23 0.000427657
*CONN
*I *744:D I *D sky130_fd_sc_hd__dfrtp_1
*I *598:Y O *D sky130_fd_sc_hd__nand3_1
*CAP
1 *744:D 0.000108381
2 *598:Y 0.000108381
3 *744:D *632:C 0.000120544
4 *744:D *745:CLK 2.95039e-05
5 *744:D *125:16 6.08467e-05
*RES
1 *598:Y *744:D 30.4689 
*END

*D_NET *24 0.00032614
*CONN
*I *745:D I *D sky130_fd_sc_hd__dfrtp_1
*I *601:Y O *D sky130_fd_sc_hd__nand3_1
*CAP
1 *745:D 3.22933e-05
2 *601:Y 3.22933e-05
3 *745:D *601:B 0.000130777
4 *745:D *53:203 0.000130777
*RES
1 *601:Y *745:D 29.7455 
*END

*D_NET *25 0.000556774
*CONN
*I *746:D I *D sky130_fd_sc_hd__dfrtp_1
*I *604:Y O *D sky130_fd_sc_hd__nand3_1
*CAP
1 *746:D 0.000199208
2 *604:Y 0.000199208
3 *746:D *548:B 6.14128e-05
4 *746:D *552:B 0
5 *746:D *604:A 7.81453e-05
6 *746:D *604:B 1.41976e-05
7 *746:D *604:C 3.00835e-06
8 *746:D *211:10 1.59362e-06
*RES
1 *604:Y *746:D 32.1299 
*END

*D_NET *26 0.000660662
*CONN
*I *747:D I *D sky130_fd_sc_hd__dfrtp_1
*I *607:Y O *D sky130_fd_sc_hd__nand3_1
*CAP
1 *747:D 0.000208509
2 *607:Y 0.000208509
3 *747:D *486:B 2.52287e-06
4 *747:D *546:A 3.39204e-05
5 *747:D *605:B 4.30017e-06
6 *747:D *607:A 0.000169041
7 *747:D *126:20 1.71317e-05
8 *747:D *126:110 1.67286e-05
*RES
1 *607:Y *747:D 32.1327 
*END

*D_NET *27 0.000334789
*CONN
*I *748:D I *D sky130_fd_sc_hd__dfrtp_1
*I *611:Y O *D sky130_fd_sc_hd__nor2_1
*CAP
1 *748:D 0.000133354
2 *611:Y 0.000133354
3 *748:D *611:A 6.80809e-05
*RES
1 *611:Y *748:D 21.9947 
*END

*D_NET *28 0.000199583
*CONN
*I *749:D I *D sky130_fd_sc_hd__dfrtp_1
*I *614:Y O *D sky130_fd_sc_hd__nand3_1
*CAP
1 *749:D 7.45692e-05
2 *614:Y 7.45692e-05
3 *749:D *620:A 8.36586e-06
4 *749:D *53:195 5.03545e-06
5 *749:D *126:28 3.40414e-05
6 *749:D *126:30 3.00174e-06
*RES
1 *614:Y *749:D 29.3303 
*END

*D_NET *29 0.00068302
*CONN
*I *750:D I *D sky130_fd_sc_hd__dfrtp_1
*I *617:Y O *D sky130_fd_sc_hd__nand3_1
*CAP
1 *750:D 0.000146228
2 *617:Y 0.000146228
3 *750:D *548:B 0.000281378
4 *750:D *617:A 5.20014e-05
5 *750:D *746:RESET_B 0
6 *750:D *750:CLK 5.71849e-05
*RES
1 *617:Y *750:D 32.6523 
*END

*D_NET *30 0.000491285
*CONN
*I *751:D I *D sky130_fd_sc_hd__dfrtp_1
*I *620:Y O *D sky130_fd_sc_hd__nand3_1
*CAP
1 *751:D 0.000160006
2 *620:Y 0.000160006
3 *751:D *56:16 0.000171273
*RES
1 *620:Y *751:D 21.4642 
*END

*D_NET *31 0.000260108
*CONN
*I *752:D I *D sky130_fd_sc_hd__dfrtp_1
*I *623:Y O *D sky130_fd_sc_hd__nand3_1
*CAP
1 *752:D 6.46656e-05
2 *623:Y 6.46656e-05
3 *752:D *126:142 0.000130777
*RES
1 *623:Y *752:D 29.7455 
*END

*D_NET *32 0.000409559
*CONN
*I *753:D I *D sky130_fd_sc_hd__dfrtp_1
*I *626:Y O *D sky130_fd_sc_hd__nand3_1
*CAP
1 *753:D 0.000192032
2 *626:Y 0.000192032
3 *753:D *626:A 1.55025e-05
4 *753:D *626:B 9.99348e-06
*RES
1 *626:Y *753:D 21.4642 
*END

*D_NET *33 0.000316097
*CONN
*I *754:D I *D sky130_fd_sc_hd__dfrtp_1
*I *629:Y O *D sky130_fd_sc_hd__nand3_1
*CAP
1 *754:D 0.000112724
2 *629:Y 0.000112724
3 *754:D *629:B 6.27718e-05
4 *754:D *353:75 2.78772e-05
*RES
1 *629:Y *754:D 30.0537 
*END

*D_NET *34 0.000197096
*CONN
*I *755:D I *D sky130_fd_sc_hd__dfrtp_1
*I *632:Y O *D sky130_fd_sc_hd__nand3_1
*CAP
1 *755:D 5.07712e-05
2 *632:Y 5.07712e-05
3 *755:D *632:C 1.61918e-05
4 *755:D *355:27 4.61732e-05
5 *731:D *755:D 3.31882e-05
*RES
1 *632:Y *755:D 29.3303 
*END

*D_NET *35 0.000497726
*CONN
*I *756:D I *D sky130_fd_sc_hd__dfrtp_1
*I *635:Y O *D sky130_fd_sc_hd__nand3_1
*CAP
1 *756:D 0.000169423
2 *635:Y 0.000169423
3 *756:D *481:52 0.00015888
*RES
1 *635:Y *756:D 21.4642 
*END

*D_NET *36 0.00156298
*CONN
*I *757:D I *D sky130_fd_sc_hd__dfrtp_1
*I *638:Y O *D sky130_fd_sc_hd__nand3_1
*CAP
1 *757:D 0.000312472
2 *638:Y 0.000312472
3 *757:D *635:A 0.000118166
4 *757:D *637:B 9.50523e-05
5 *757:D *638:A 0.000294889
6 *757:D *643:B 5.00956e-05
7 *757:D *644:B 0.000171273
8 *757:D *757:RESET_B 0.000208561
9 *757:D *759:RESET_B 0
10 *757:D *53:94 0
11 *757:D *353:106 0
*RES
1 *638:Y *757:D 38.9484 
*END

*D_NET *37 0.000512767
*CONN
*I *758:D I *D sky130_fd_sc_hd__dfrtp_1
*I *641:Y O *D sky130_fd_sc_hd__nand3_1
*CAP
1 *758:D 0.00021562
2 *641:Y 0.00021562
3 *758:D *641:B 6.08467e-05
4 *758:D *902:A 1.07378e-05
5 *758:D *353:106 9.94284e-06
*RES
1 *641:Y *758:D 22.0188 
*END

*D_NET *38 0.000223206
*CONN
*I *759:D I *D sky130_fd_sc_hd__dfrtp_1
*I *644:Y O *D sky130_fd_sc_hd__nand3_1
*CAP
1 *759:D 4.78099e-05
2 *644:Y 4.78099e-05
3 *759:D *644:A 7.50722e-05
4 *759:D *53:120 1.12605e-05
5 *759:D *126:150 4.12533e-05
*RES
1 *644:Y *759:D 29.3303 
*END

*D_NET *39 0.000258592
*CONN
*I *760:D I *D sky130_fd_sc_hd__dfrtp_1
*I *647:Y O *D sky130_fd_sc_hd__nand3_1
*CAP
1 *760:D 5.97069e-05
2 *647:Y 5.97069e-05
3 *760:D *647:B 7.08532e-05
4 *760:D *53:94 1.67286e-05
5 *760:D *126:158 5.15962e-05
*RES
1 *647:Y *760:D 29.7455 
*END

*D_NET *40 0.00035033
*CONN
*I *761:D I *D sky130_fd_sc_hd__dfrtp_1
*I *649:Y O *D sky130_fd_sc_hd__inv_1
*CAP
1 *761:D 0.000166059
2 *649:Y 0.000166059
3 *761:D *648:A1 1.82126e-05
4 *761:D *761:RESET_B 0
*RES
1 *649:Y *761:D 30.331 
*END

*D_NET *41 0.00134677
*CONN
*I *762:D I *D sky130_fd_sc_hd__dfrtp_1
*I *653:Y O *D sky130_fd_sc_hd__nand2_1
*CAP
1 *762:D 0.000362108
2 *653:Y 0.000362108
3 *762:D tl_o[57] 0
4 *762:D *762:RESET_B 4.54296e-05
5 *762:D *53:476 0.000141654
6 *762:D *352:154 0.00036265
7 *762:D *378:12 7.28157e-05
*RES
1 *653:Y *762:D 39.7578 
*END

*D_NET *42 0.0014221
*CONN
*I *763:D I *D sky130_fd_sc_hd__dfrtp_1
*I *656:Y O *D sky130_fd_sc_hd__nand2_1
*CAP
1 *763:D 0.000552076
2 *656:Y 0.000552076
3 *763:D *763:RESET_B 0.000171273
4 *763:D *763:CLK 7.48633e-05
5 *763:D *352:6 6.9404e-05
6 *763:D *352:92 2.41274e-06
7 *763:D *356:199 0
*RES
1 *656:Y *763:D 37.4323 
*END

*D_NET *43 0.000949594
*CONN
*I *764:D I *D sky130_fd_sc_hd__dfrtp_1
*I *659:Y O *D sky130_fd_sc_hd__nand2_1
*CAP
1 *764:D 0.000301519
2 *659:Y 0.000301519
3 *764:D *658:B 2.85531e-06
4 *764:D *764:CLK 0.000308618
5 *764:D *381:6 3.50813e-05
*RES
1 *659:Y *764:D 24.816 
*END

*D_NET *44 0.000316783
*CONN
*I *765:D I *D sky130_fd_sc_hd__dfrtp_1
*I *662:Y O *D sky130_fd_sc_hd__nand2_1
*CAP
1 *765:D 0.000116952
2 *662:Y 0.000116952
3 *765:D *662:A 7.27851e-05
4 *765:D *127:147 1.00937e-05
*RES
1 *662:Y *765:D 21.4401 
*END

*D_NET *45 0.00132191
*CONN
*I *766:D I *D sky130_fd_sc_hd__dfrtp_1
*I *665:Y O *D sky130_fd_sc_hd__nand2_1
*CAP
1 *766:D 0.00055411
2 *665:Y 0.00055411
3 *766:D tl_o[40] 0.00014713
4 *766:D tl_o[56] 2.48716e-05
5 *766:D *665:A 1.32043e-05
6 *766:D *672:A 2.84892e-05
*RES
1 *665:Y *766:D 37.0412 
*END

*D_NET *46 0.00095889
*CONN
*I *767:D I *D sky130_fd_sc_hd__dfrtp_1
*I *668:Y O *D sky130_fd_sc_hd__nand2_1
*CAP
1 *767:D 0.000426898
2 *668:Y 0.000426898
3 *767:D *665:B 7.50872e-05
4 *767:D *356:374 3.00073e-05
*RES
1 *668:Y *767:D 34.654 
*END

*D_NET *47 0.00140281
*CONN
*I *768:D I *D sky130_fd_sc_hd__dfrtp_1
*I *671:Y O *D sky130_fd_sc_hd__nand2_1
*CAP
1 *768:D 0.000615899
2 *671:Y 0.000615899
3 *768:D *671:A 6.52897e-05
4 *768:D *671:B 2.99287e-05
5 *768:D *352:126 3.00829e-05
6 *768:D *385:8 4.57112e-05
*RES
1 *671:Y *768:D 30.145 
*END

*D_NET *48 0.00155887
*CONN
*I *769:D I *D sky130_fd_sc_hd__dfrtp_1
*I *674:Y O *D sky130_fd_sc_hd__nand2_1
*CAP
1 *769:D 0.000595788
2 *674:Y 0.000595788
3 *769:D *625:A 0.000262495
4 *769:D *674:B 1.78942e-05
5 *769:D *704:A 8.69055e-05
*RES
1 *674:Y *769:D 39.6129 
*END

*D_NET *49 0.00091626
*CONN
*I *770:D I *D sky130_fd_sc_hd__dfrtp_1
*I *677:Y O *D sky130_fd_sc_hd__nand2_1
*CAP
1 *770:D 0.000332635
2 *677:Y 0.000332635
3 *770:D tl_o[36] 6.92705e-05
4 *770:D *486:A 0
5 *770:D *677:B 1.84293e-05
6 *770:D *891:A 2.16355e-05
7 *770:D *53:352 0
8 *770:D *454:14 0.000141654
*RES
1 *677:Y *770:D 35.8756 
*END

*D_NET *50 0.000739142
*CONN
*I *771:D I *D sky130_fd_sc_hd__dfrtp_1
*I *680:Y O *D sky130_fd_sc_hd__nand2_1
*CAP
1 *771:D 0.000297836
2 *680:Y 0.000297836
3 *771:D tl_o[36] 4.27547e-05
4 *771:D *683:A 5.65753e-05
5 *771:D *454:14 4.41394e-05
*RES
1 *680:Y *771:D 33.5179 
*END

*D_NET *51 0.000632334
*CONN
*I *772:D I *D sky130_fd_sc_hd__dfrtp_1
*I *684:Y O *D sky130_fd_sc_hd__nand2_1
*CAP
1 *772:D 0.000188973
2 *684:Y 0.000188973
3 *772:D *681:A 0.000127194
4 *772:D *55:14 0.000127194
*RES
1 *684:Y *772:D 32.6874 
*END

*D_NET *52 0.000543016
*CONN
*I *483:B I *D sky130_fd_sc_hd__nor2_4
*I *482:Y O *D sky130_fd_sc_hd__inv_1
*CAP
1 *483:B 0.000195442
2 *482:Y 0.000195442
3 *483:B *634:B 3.20069e-06
4 *483:B *640:B 0.000148932
5 *483:B *699:A 0
6 *483:B *53:18 0
*RES
1 *482:Y *483:B 31.3008 
*END

*D_NET *53 0.0524635
*CONN
*I *608:B I *D sky130_fd_sc_hd__nor2_1
*I *583:B I *D sky130_fd_sc_hd__nor2_1
*I *624:A I *D sky130_fd_sc_hd__nand3_1
*I *679:A I *D sky130_fd_sc_hd__nand2_1
*I *682:A I *D sky130_fd_sc_hd__nand3_1
*I *661:A I *D sky130_fd_sc_hd__nand2_1
*I *658:A I *D sky130_fd_sc_hd__nand2_1
*I *652:A I *D sky130_fd_sc_hd__nand2_1
*I *667:A I *D sky130_fd_sc_hd__nand2_1
*I *670:A I *D sky130_fd_sc_hd__nand2_1
*I *664:A I *D sky130_fd_sc_hd__nand2_1
*I *655:A I *D sky130_fd_sc_hd__nand2_1
*I *676:A I *D sky130_fd_sc_hd__nand2_1
*I *602:A I *D sky130_fd_sc_hd__nand3_1
*I *615:A I *D sky130_fd_sc_hd__nand3_1
*I *574:A I *D sky130_fd_sc_hd__nand2_1
*I *486:A I *D sky130_fd_sc_hd__nand3_4
*I *605:A I *D sky130_fd_sc_hd__nand3_1
*I *612:A I *D sky130_fd_sc_hd__nand3_1
*I *618:A I *D sky130_fd_sc_hd__nand3_1
*I *599:A I *D sky130_fd_sc_hd__nand3_1
*I *595:A I *D sky130_fd_sc_hd__nand3_1
*I *630:A I *D sky130_fd_sc_hd__nand3_1
*I *636:A I *D sky130_fd_sc_hd__nand3_1
*I *645:A I *D sky130_fd_sc_hd__nand3_1
*I *621:A I *D sky130_fd_sc_hd__nand3_1
*I *627:A I *D sky130_fd_sc_hd__nand3_1
*I *642:A I *D sky130_fd_sc_hd__nand3_1
*I *633:A I *D sky130_fd_sc_hd__nand3_1
*I *639:A I *D sky130_fd_sc_hd__nand3_1
*I *587:C I *D sky130_fd_sc_hd__nand3_1
*I *648:A2 I *D sky130_fd_sc_hd__o21ai_0
*I *673:A I *D sky130_fd_sc_hd__nand2_1
*I *575:A I *D sky130_fd_sc_hd__inv_1
*I *483:Y O *D sky130_fd_sc_hd__nor2_4
*CAP
1 *608:B 0.000180956
2 *583:B 2.06324e-05
3 *624:A 0
4 *679:A 0.000623193
5 *682:A 0
6 *661:A 5.11911e-05
7 *658:A 0
8 *652:A 2.80568e-05
9 *667:A 4.29031e-05
10 *670:A 0.000153835
11 *664:A 0.000101045
12 *655:A 0.000121594
13 *676:A 2.12792e-05
14 *602:A 2.57278e-05
15 *615:A 8.68724e-05
16 *574:A 3.80892e-05
17 *486:A 3.54496e-05
18 *605:A 0.000538549
19 *612:A 3.38258e-05
20 *618:A 0.00130132
21 *599:A 4.72351e-05
22 *595:A 2.8052e-05
23 *630:A 7.34062e-05
24 *636:A 0.000457755
25 *645:A 1.90687e-05
26 *621:A 6.42598e-05
27 *627:A 4.28689e-05
28 *642:A 0.000350232
29 *633:A 1.78528e-05
30 *639:A 0.000304422
31 *587:C 3.77325e-05
32 *648:A2 4.74675e-05
33 *673:A 0.000496461
34 *575:A 1.65723e-05
35 *483:Y 6.8703e-05
36 *53:509 0.000815033
37 *53:491 0.000175067
38 *53:476 0.000619803
39 *53:444 0.000514833
40 *53:429 0.00115811
41 *53:408 0.000961119
42 *53:406 0.000877948
43 *53:395 0.000910302
44 *53:391 0.000824938
45 *53:369 0.00160465
46 *53:363 0.00164493
47 *53:352 0.000242141
48 *53:341 0.000263372
49 *53:320 0.000949021
50 *53:233 0.000858812
51 *53:225 0.000905119
52 *53:215 0.000904374
53 *53:203 0.000770695
54 *53:197 0.00171653
55 *53:195 0.000530154
56 *53:181 0.000696538
57 *53:177 0.0006476
58 *53:152 0.00119099
59 *53:133 0.000760947
60 *53:120 0.000805
61 *53:109 0.000360855
62 *53:94 0.000661617
63 *53:77 0.0008373
64 *53:61 0.000634471
65 *53:48 0.000863316
66 *53:38 0.00145141
67 *53:18 0.00104999
68 *53:10 0.00113579
69 *486:A *126:132 8.52652e-05
70 *486:A *454:14 0
71 *574:A *126:132 2.41274e-06
72 *575:A *915:A 6.19864e-05
73 *575:A *127:27 8.94761e-05
74 *575:A *356:331 0.000141833
75 *583:B *589:A 0
76 *587:C *587:A 9.82609e-05
77 *587:C *610:A 6.92705e-05
78 *587:C *742:CLK 1.87469e-05
79 *587:C *54:12 0
80 *595:A *595:B 3.63169e-05
81 *599:A *744:RESET_B 6.45975e-05
82 *599:A *210:10 1.07248e-05
83 *602:A *617:A 4.61271e-05
84 *602:A *750:CLK 1.50924e-05
85 *605:A *486:B 5.03285e-05
86 *605:A *605:B 0
87 *605:A *606:B 5.46928e-05
88 *605:A *607:A 0.000283009
89 *605:A *607:B 1.43712e-05
90 *605:A *56:16 0.000266461
91 *605:A *126:20 1.87469e-05
92 *605:A *481:198 1.01044e-05
93 *608:B *611:A 0.000174667
94 *608:B *343:8 6.92705e-05
95 *612:A *614:A 0.000110458
96 *612:A *614:C 2.58757e-05
97 *615:A *543:A1 0.000170901
98 *615:A *602:C 6.46815e-05
99 *615:A *615:B 3.13805e-06
100 *615:A *617:A 6.45301e-05
101 *618:A *553:B 3.44412e-06
102 *618:A *597:B 8.08839e-05
103 *618:A *618:B 1.03594e-05
104 *618:A *621:B 4.85034e-05
105 *618:A *737:RESET_B 5.14655e-05
106 *618:A *54:199 5.85768e-05
107 *618:A *216:10 1.44188e-05
108 *618:A *356:574 3.18216e-05
109 *621:A *54:151 0
110 *621:A *126:142 0
111 *627:A *629:A 0.000112361
112 *627:A *629:C 4.89251e-05
113 *630:A *630:B 1.60034e-05
114 *630:A *632:A 5.04829e-06
115 *633:A *635:A 0.000112361
116 *633:A *126:186 0.000112361
117 *636:A *529:A 5.81266e-05
118 *636:A *636:B 6.27782e-05
119 *636:A *636:C 0.000117409
120 *636:A *638:A 1.00971e-05
121 *636:A *728:RESET_B 0.000259225
122 *636:A *176:24 9.3204e-05
123 *636:A *356:73 5.53939e-05
124 *639:A *639:B 9.95922e-06
125 *639:A *647:B 9.44631e-06
126 *642:A *644:A 9.9771e-06
127 *642:A *54:68 8.96314e-06
128 *642:A *223:12 9.9774e-06
129 *645:A *645:B 1.02267e-05
130 *648:A2 *870:A 8.00198e-06
131 *648:A2 *342:8 3.39313e-06
132 *652:A *653:B 1.09057e-05
133 *655:A *654:B 8.36586e-06
134 *655:A *675:A 7.58194e-05
135 *655:A *352:107 1.21985e-05
136 *661:A *657:B 0
137 *661:A *658:B 0.000179253
138 *661:A *659:B 5.90244e-05
139 *664:A *664:B 5.8705e-05
140 *664:A *768:RESET_B 0
141 *664:A *127:96 7.23289e-05
142 *667:A *668:B 2.30636e-05
143 *670:A *670:B 5.03545e-06
144 *670:A *865:A 0
145 *670:A *866:A 1.60695e-05
146 *673:A *743:CLK 0.000183847
147 *673:A *769:RESET_B 0.000380504
148 *673:A *867:A 5.03545e-06
149 *673:A *352:12 7.22413e-05
150 *673:A *352:14 7.57062e-05
151 *673:A *356:331 0.000127194
152 *679:A tl_o[35] 0.000112153
153 *679:A tl_o[37] 0.000121019
154 *679:A *679:B 5.37008e-05
155 *679:A *417:6 0.000259134
156 *53:18 tl_o[1] 7.86825e-06
157 *53:18 tl_o[41] 7.86825e-06
158 *53:18 *483:A 0.000144997
159 *53:18 *579:A 0.000181501
160 *53:18 *717:A 0.000132929
161 *53:18 *741:CLK 0
162 *53:18 *127:27 0.000295625
163 *53:18 *356:331 6.50727e-05
164 *53:38 *634:B 1.16596e-05
165 *53:38 *741:CLK 0
166 *53:38 *756:RESET_B 0.000145029
167 *53:38 *761:RESET_B 2.5386e-05
168 *53:38 *356:255 7.92228e-05
169 *53:38 *356:283 0.000268968
170 *53:38 *372:8 4.09467e-05
171 *53:38 *463:22 6.9709e-05
172 *53:48 *648:B1 6.26091e-05
173 *53:48 *742:RESET_B 0.00010083
174 *53:48 *761:RESET_B 5.53934e-05
175 *53:48 *761:CLK 0
176 *53:48 *342:8 1.81949e-05
177 *53:61 *583:A 0.000220044
178 *53:61 *589:A 2.41483e-05
179 *53:61 *648:B1 0.000166937
180 *53:77 *587:A 0.000213739
181 *53:77 *587:B 0.000336155
182 *53:77 *588:A 7.53873e-05
183 *53:77 *588:B 0.000264583
184 *53:77 *589:A 0.000128091
185 *53:77 *589:B 4.13267e-05
186 *53:77 *742:CLK 1.69932e-05
187 *53:94 *587:A 6.32836e-05
188 *53:94 *637:B 0.000163195
189 *53:94 *647:B 5.43066e-05
190 *53:94 *742:CLK 6.23397e-05
191 *53:94 *126:158 0
192 *53:109 *637:B 4.29019e-05
193 *53:120 *637:B 3.00174e-06
194 *53:120 *644:A 0.000122083
195 *53:120 *759:RESET_B 5.67546e-05
196 *53:120 *126:150 0
197 *53:120 *126:152 0
198 *53:120 *353:16 0.000252327
199 *53:133 *126:148 0
200 *53:133 *126:150 0
201 *53:133 *353:16 0.000145753
202 *53:133 *353:75 0.00017559
203 *53:152 *623:A 9.69294e-06
204 *53:152 *623:B 0.000167076
205 *53:152 *623:C 2.16355e-05
206 *53:152 *54:85 4.15559e-05
207 *53:152 *126:142 1.06618e-05
208 *53:152 *126:146 0
209 *53:152 *353:75 0.000160135
210 *53:152 *356:163 0
211 *53:152 *356:179 0
212 *53:177 *613:B 3.00829e-05
213 *53:177 *614:B 2.17699e-05
214 *53:177 *624:B 5.98993e-05
215 *53:177 *626:A 3.99086e-06
216 *53:177 *626:C 0.000111802
217 *53:177 *753:CLK 3.4067e-05
218 *53:177 *54:151 0
219 *53:177 *126:142 0
220 *53:177 *356:462 0
221 *53:177 *361:14 0.000108019
222 *53:177 *481:166 0.000133878
223 *53:181 *613:B 5.23435e-05
224 *53:181 *356:462 2.1032e-05
225 *53:195 *614:B 0.000354476
226 *53:195 *126:30 4.64038e-06
227 *53:195 *453:10 1.49175e-05
228 *53:197 *126:30 4.37397e-05
229 *53:203 *601:B 0.000148162
230 *53:203 *601:C 0.000131793
231 *53:203 *631:A 3.81741e-05
232 *53:203 *744:RESET_B 2.29201e-05
233 *53:203 *54:95 0
234 *53:203 *126:30 0.000197467
235 *53:215 *538:A 0.000110057
236 *53:215 *539:B1_N 8.75727e-05
237 *53:215 *631:A 0.000127266
238 *53:215 *54:101 9.33614e-05
239 *53:215 *210:10 6.97803e-05
240 *53:225 *510:A 6.08467e-05
241 *53:225 *595:B 0.000159016
242 *53:225 *632:C 0.000316801
243 *53:225 *54:101 1.4106e-05
244 *53:225 *54:113 0.000256392
245 *53:225 *56:65 0.000292515
246 *53:225 *70:180 2.55455e-05
247 *53:225 *355:133 0.000161342
248 *53:233 *523:A1 0.000122992
249 *53:233 *645:B 2.8212e-05
250 *53:233 *645:C 0.000513527
251 *53:233 *54:113 3.31882e-05
252 *53:233 *56:65 0.000186528
253 *53:233 *56:67 6.91855e-05
254 *53:320 *486:B 5.41377e-05
255 *53:320 *486:C 3.89332e-06
256 *53:320 *606:B 2.36813e-05
257 *53:320 *613:B 7.26748e-05
258 *53:320 *747:RESET_B 0
259 *53:320 *126:132 0.000225141
260 *53:320 *356:462 3.75637e-05
261 *53:320 *356:469 8.78055e-05
262 *53:341 *481:198 2.18589e-05
263 *53:352 *126:132 6.17846e-05
264 *53:369 *617:A 3.01368e-06
265 *53:369 *750:CLK 4.62298e-05
266 *53:369 *890:A 7.19887e-05
267 *53:395 *676:B 6.27718e-05
268 *53:395 *716:A 0.000304859
269 *53:406 *655:B 2.78496e-05
270 *53:406 *861:A 6.27718e-05
271 *53:408 *352:107 3.82612e-05
272 *53:429 *654:B 2.16355e-05
273 *53:429 *669:B 0
274 *53:429 *675:A 5.04423e-06
275 *53:429 *768:RESET_B 0
276 *53:429 *127:96 1.95369e-05
277 *53:429 *127:105 0.000352545
278 *53:429 *127:109 0.000503216
279 *53:444 *667:B 6.46815e-05
280 *53:444 *668:B 7.01935e-06
281 *53:444 *669:B 1.41976e-05
282 *53:444 *671:A 2.20471e-05
283 *53:444 *127:105 3.96696e-05
284 *53:476 tl_o[49] 5.74984e-05
285 *53:476 tl_o[57] 0
286 *53:476 *652:B 3.28433e-06
287 *53:476 *653:B 5.10306e-05
288 *53:476 *661:B 0
289 *53:476 *863:A 0
290 *53:476 *204:22 0.00016295
291 *53:476 *352:107 1.59362e-06
292 *53:476 *352:126 0
293 *53:476 *352:154 2.83033e-05
294 *53:491 *653:B 5.04829e-06
295 *53:491 *658:B 5.56942e-05
296 *53:491 *659:B 2.18402e-05
297 *53:509 tl_o[35] 0.000540004
298 *53:509 tl_o[37] 0.00042136
299 *483:B *53:18 0
300 *728:D *636:A 2.85997e-05
301 *739:D *53:215 0.00015607
302 *742:D *53:77 6.92705e-05
303 *745:D *53:203 0.000130777
304 *749:D *53:195 5.03545e-06
305 *757:D *53:94 0
306 *759:D *53:120 1.12605e-05
307 *760:D *53:94 1.67286e-05
308 *762:D *53:476 0.000141654
309 *770:D *486:A 0
310 *770:D *53:352 0
*RES
1 *483:Y *53:10 14.8512 
2 *53:10 *53:18 20.3196 
3 *53:18 *575:A 10.7743 
4 *53:18 *673:A 34.615 
5 *53:10 *53:38 15.7429 
6 *53:38 *53:48 23.0887 
7 *53:48 *648:A2 14.7506 
8 *53:48 *53:61 7.99641 
9 *53:61 *53:77 29.1646 
10 *53:77 *587:C 15.474 
11 *53:77 *53:94 7.71881 
12 *53:94 *639:A 20.0668 
13 *53:94 *53:109 2.24725 
14 *53:109 *633:A 15.0271 
15 *53:109 *53:120 8.06078 
16 *53:120 *642:A 19.1987 
17 *53:120 *53:133 5.98452 
18 *53:133 *627:A 15.6059 
19 *53:133 *53:152 21.3905 
20 *53:152 *621:A 14.7506 
21 *53:152 *53:177 20.2457 
22 *53:177 *53:181 5.50149 
23 *53:181 *53:195 16.2509 
24 *53:195 *53:197 2.6625 
25 *53:197 *53:203 10.8332 
26 *53:203 *53:215 15.8138 
27 *53:215 *53:225 20.1436 
28 *53:225 *53:233 15.3902 
29 *53:233 *645:A 9.82786 
30 *53:233 *636:A 31.6687 
31 *53:225 *630:A 15.63 
32 *53:215 *595:A 10.2378 
33 *53:203 *599:A 15.6911 
34 *53:197 *618:A 44.5707 
35 *53:195 *612:A 15.0271 
36 *53:181 *53:320 15.5408 
37 *53:320 *605:A 29.0406 
38 *53:320 *53:341 6.3326 
39 *53:341 *486:A 15.1659 
40 *53:341 *53:352 2.6625 
41 *53:352 *574:A 14.4725 
42 *53:352 *53:363 2.24725 
43 *53:363 *53:369 26.3224 
44 *53:369 *615:A 13.4931 
45 *53:369 *602:A 11.1059 
46 *53:363 *53:391 1.41674 
47 *53:391 *53:395 17.9793 
48 *53:395 *676:A 9.82786 
49 *53:395 *53:406 11.8786 
50 *53:406 *53:408 2.6625 
51 *53:408 *655:A 17.316 
52 *53:408 *53:429 21.5383 
53 *53:429 *664:A 16.8269 
54 *53:429 *53:444 12.4574 
55 *53:444 *670:A 21.7421 
56 *53:444 *667:A 10.5513 
57 *53:406 *53:476 17.0064 
58 *53:476 *652:A 9.97254 
59 *53:476 *53:491 3.71343 
60 *53:491 *658:A 9.24915 
61 *53:491 *661:A 12.2392 
62 *53:391 *53:509 10.137 
63 *53:509 *682:A 13.7491 
64 *53:509 *679:A 25.8105 
65 *53:177 *624:A 9.24915 
66 *53:61 *583:B 9.82786 
67 *53:38 *608:B 20.2115 
*END

*D_NET *54 0.0283691
*CONN
*I *621:C I *D sky130_fd_sc_hd__nand3_1
*I *624:C I *D sky130_fd_sc_hd__nand3_1
*I *612:C I *D sky130_fd_sc_hd__nand3_1
*I *618:C I *D sky130_fd_sc_hd__nand3_1
*I *602:C I *D sky130_fd_sc_hd__nand3_1
*I *615:C I *D sky130_fd_sc_hd__nand3_1
*I *486:B I *D sky130_fd_sc_hd__nand3_4
*I *605:C I *D sky130_fd_sc_hd__nand3_1
*I *500:A2 I *D sky130_fd_sc_hd__a21oi_4
*I *494:B I *D sky130_fd_sc_hd__nand2_2
*I *599:C I *D sky130_fd_sc_hd__nand3_1
*I *595:C I *D sky130_fd_sc_hd__nand3_1
*I *630:C I *D sky130_fd_sc_hd__nand3_1
*I *645:C I *D sky130_fd_sc_hd__nand3_1
*I *627:C I *D sky130_fd_sc_hd__nand3_1
*I *642:C I *D sky130_fd_sc_hd__nand3_1
*I *633:C I *D sky130_fd_sc_hd__nand3_1
*I *639:C I *D sky130_fd_sc_hd__nand3_1
*I *636:C I *D sky130_fd_sc_hd__nand3_1
*I *484:Y O *D sky130_fd_sc_hd__nor2_8
*CAP
1 *621:C 0
2 *624:C 2.74117e-05
3 *612:C 1.90687e-05
4 *618:C 0
5 *602:C 3.83867e-05
6 *615:C 0
7 *486:B 0.00061161
8 *605:C 2.06324e-05
9 *500:A2 1.47608e-05
10 *494:B 5.86214e-05
11 *599:C 2.92623e-05
12 *595:C 0
13 *630:C 3.58463e-05
14 *645:C 0.000210197
15 *627:C 0
16 *642:C 0
17 *633:C 0.000100862
18 *639:C 2.98119e-05
19 *636:C 0.000649812
20 *484:Y 0.000548726
21 *54:231 0.000238063
22 *54:207 0.00158754
23 *54:203 0.00134282
24 *54:199 0.000309115
25 *54:177 0.0009834
26 *54:161 0.00137339
27 *54:155 0.00049704
28 *54:151 0.000558839
29 *54:113 0.000723239
30 *54:101 0.00082185
31 *54:95 0.000647704
32 *54:89 0.00082622
33 *54:85 0.000476629
34 *54:68 0.000655662
35 *54:53 0.000593265
36 *54:36 0.000510306
37 *54:25 0.000440001
38 *54:12 0.00145664
39 *486:B *486:C 5.22654e-06
40 *486:B *605:B 5.56461e-05
41 *486:B *606:B 7.68538e-06
42 *486:B *607:B 0.000171273
43 *486:B *747:RESET_B 9.99386e-06
44 *486:B *481:198 0.000370815
45 *494:B *492:A 7.56859e-06
46 *494:B *495:B 0.000169093
47 *494:B *500:A1 0.000148159
48 *500:A2 *70:153 6.08467e-05
49 *500:A2 *72:98 6.08467e-05
50 *599:C *538:A 7.18018e-05
51 *602:C *543:A1 0.000211546
52 *602:C *615:B 4.89392e-05
53 *612:C *550:A 1.02267e-05
54 *624:C *614:A 0
55 *624:C *624:B 2.78895e-05
56 *630:C *630:B 2.16355e-05
57 *633:C *633:B 0.000165521
58 *633:C *356:120 0.000162612
59 *636:C *527:A1 0.000161956
60 *636:C *529:A 0.000141801
61 *636:C *636:B 3.32903e-05
62 *636:C *65:103 8.57967e-05
63 *636:C *176:24 8.18016e-05
64 *639:C *639:B 2.58616e-05
65 *645:C *515:B1_N 0
66 *645:C *523:A1 8.72115e-06
67 *645:C *523:A2 6.00124e-05
68 *645:C *645:B 9.28161e-05
69 *645:C *65:177 2.0468e-05
70 *645:C *70:202 0.000191541
71 *54:12 *484:B 1.69371e-05
72 *54:12 *506:A 5.76677e-05
73 *54:12 *587:A 0
74 *54:12 *588:A 0
75 *54:12 *609:A2 0
76 *54:12 *610:A 5.39608e-05
77 *54:12 *742:CLK 0
78 *54:12 *133:10 0
79 *54:12 *133:21 0
80 *54:12 *176:24 0.000131472
81 *54:12 *425:32 5.54078e-05
82 *54:25 *527:B1_N 0
83 *54:25 *641:A 1.86487e-05
84 *54:25 *176:24 0
85 *54:25 *353:32 0
86 *54:36 *641:A 3.0676e-05
87 *54:36 *65:97 0
88 *54:53 *518:A 3.73256e-05
89 *54:53 *519:A1 4.01573e-05
90 *54:53 *530:A 6.3657e-05
91 *54:53 *65:97 0
92 *54:68 *519:A1 0
93 *54:68 *530:A 1.55025e-05
94 *54:68 *642:B 0.000101873
95 *54:68 *644:A 6.53448e-05
96 *54:68 *729:RESET_B 0
97 *54:68 *126:150 0.000118116
98 *54:68 *353:24 0.000178545
99 *54:68 *353:26 5.4704e-05
100 *54:85 *621:B 2.2694e-05
101 *54:85 *623:A 0.000164805
102 *54:85 *729:RESET_B 0
103 *54:85 *126:146 0.000284756
104 *54:85 *126:148 9.17887e-05
105 *54:85 *126:150 9.12416e-06
106 *54:85 *218:10 0.00014013
107 *54:89 *621:B 6.97612e-05
108 *54:95 *538:A 1.65872e-05
109 *54:95 *601:A 0.000111722
110 *54:95 *739:CLK 0.000141193
111 *54:101 *538:A 0.00016021
112 *54:101 *595:B 9.67968e-05
113 *54:113 *539:B1_N 0
114 *54:113 *632:C 0.000426102
115 *54:113 *56:61 0.000107496
116 *54:113 *56:102 9.32983e-05
117 *54:113 *70:180 0.000155504
118 *54:113 *70:202 0.000139532
119 *54:151 *204:22 0
120 *54:151 *356:462 0.000290905
121 *54:151 *453:10 2.02222e-05
122 *54:155 *550:A 9.81288e-06
123 *54:155 *614:A 0.000306791
124 *54:155 *614:B 6.03358e-05
125 *54:155 *624:B 0.000599498
126 *54:161 *550:A 0.00015081
127 *54:161 *551:A1 8.35605e-05
128 *54:161 *551:B1_N 0.000730775
129 *54:161 *553:A 1.04731e-05
130 *54:161 *566:A 3.86483e-05
131 *54:161 *567:B1_N 1.16167e-05
132 *54:161 *624:B 0.000476923
133 *54:161 *56:34 6.30312e-05
134 *54:177 *489:A 0
135 *54:177 *492:A 3.64684e-05
136 *54:177 *495:B 0.000226281
137 *54:177 *567:B1_N 1.51559e-05
138 *54:177 *738:RESET_B 7.83848e-06
139 *54:177 *59:12 0
140 *54:177 *65:14 0
141 *54:199 *618:B 5.03545e-06
142 *54:199 *736:RESET_B 3.1877e-05
143 *54:199 *738:RESET_B 8.23435e-05
144 *54:203 *548:A 4.52324e-05
145 *54:203 *548:C 5.77352e-05
146 *54:203 *558:A 3.90689e-06
147 *54:203 *567:A1 5.00956e-05
148 *54:203 *618:B 3.03823e-05
149 *54:203 *56:239 0.000284063
150 *54:207 *558:A 4.97159e-05
151 *54:207 *605:B 3.14978e-05
152 *54:207 *354:12 9.44554e-05
153 *54:207 *354:16 2.83289e-05
154 *54:231 *548:A 0.000102291
155 *54:231 *555:A1 3.20407e-05
156 *54:231 *56:239 5.2092e-05
157 *54:231 *56:248 0.000318762
158 *587:C *54:12 0
159 *605:A *486:B 5.03285e-05
160 *615:A *602:C 6.46815e-05
161 *618:A *54:199 5.85768e-05
162 *621:A *54:151 0
163 *636:A *636:C 0.000117409
164 *642:A *54:68 8.96314e-06
165 *731:D *54:113 0.000206927
166 *739:D *54:95 1.47498e-05
167 *747:D *486:B 2.52287e-06
168 *53:152 *54:85 4.15559e-05
169 *53:177 *54:151 0
170 *53:203 *54:95 0
171 *53:215 *54:101 9.33614e-05
172 *53:225 *54:101 1.4106e-05
173 *53:225 *54:113 0.000256392
174 *53:233 *645:C 0.000513527
175 *53:233 *54:113 3.31882e-05
176 *53:320 *486:B 5.41377e-05
*RES
1 *484:Y *54:12 31.0521 
2 *54:12 *636:C 20.5341 
3 *54:12 *54:25 9.65401 
4 *54:25 *639:C 14.4725 
5 *54:25 *54:36 3.07775 
6 *54:36 *633:C 17.8243 
7 *54:36 *54:53 11.2079 
8 *54:53 *642:C 9.24915 
9 *54:53 *54:68 14.606 
10 *54:68 *627:C 13.7491 
11 *54:68 *54:85 16.1305 
12 *54:85 *54:89 8.55102 
13 *54:89 *54:95 11.9075 
14 *54:95 *54:101 9.78996 
15 *54:101 *54:113 29.102 
16 *54:113 *645:C 22.9514 
17 *54:113 *630:C 14.4725 
18 *54:101 *595:C 9.24915 
19 *54:95 *599:C 10.5513 
20 *54:89 *54:151 14.637 
21 *54:151 *54:155 7.40275 
22 *54:155 *54:161 15.8906 
23 *54:161 *54:177 22.4623 
24 *54:177 *494:B 16.8269 
25 *54:177 *500:A2 14.4725 
26 *54:161 *54:199 8.40826 
27 *54:199 *54:203 6.71732 
28 *54:203 *54:207 18.5339 
29 *54:207 *605:C 9.82786 
30 *54:207 *486:B 29.4023 
31 *54:203 *54:231 11.7303 
32 *54:231 *615:C 9.24915 
33 *54:231 *602:C 11.6364 
34 *54:199 *618:C 13.7491 
35 *54:155 *612:C 9.82786 
36 *54:151 *624:C 10.2378 
37 *54:85 *621:C 9.24915 
*END

*D_NET *55 0.00254623
*CONN
*I *574:B I *D sky130_fd_sc_hd__nand2_1
*I *486:C I *D sky130_fd_sc_hd__nand3_4
*I *485:Y O *D sky130_fd_sc_hd__nor2_1
*CAP
1 *574:B 2.19103e-05
2 *486:C 0.000166722
3 *485:Y 0.000520041
4 *55:14 0.000708674
5 *486:C *606:B 0.000117421
6 *486:C *747:RESET_B 0.000182199
7 *486:C *890:A 6.56589e-05
8 *486:C *126:18 4.24629e-05
9 *574:B *126:18 2.30636e-05
10 *55:14 tl_o[35] 4.87031e-05
11 *55:14 *681:A 0.000155995
12 *55:14 *681:B 0
13 *55:14 *682:B 2.99643e-05
14 *55:14 *682:C 0.000162263
15 *55:14 *890:A 0.000164842
16 *55:14 *453:10 0
17 *486:B *486:C 5.22654e-06
18 *772:D *55:14 0.000127194
19 *53:320 *486:C 3.89332e-06
*RES
1 *485:Y *55:14 34.6882 
2 *55:14 *486:C 23.4354 
3 *55:14 *574:B 9.97254 
*END

*D_NET *56 0.0234663
*CONN
*I *547:A1 I *D sky130_fd_sc_hd__o21bai_1
*I *555:A1 I *D sky130_fd_sc_hd__o21bai_1
*I *543:A1 I *D sky130_fd_sc_hd__o21bai_1
*I *559:A1 I *D sky130_fd_sc_hd__o21bai_1
*I *567:A1 I *D sky130_fd_sc_hd__o21bai_1
*I *551:A1 I *D sky130_fd_sc_hd__o21bai_1
*I *563:A1 I *D sky130_fd_sc_hd__o21bai_1
*I *511:A1 I *D sky130_fd_sc_hd__o21bai_1
*I *539:A1 I *D sky130_fd_sc_hd__o21bai_1
*I *571:A1 I *D sky130_fd_sc_hd__o21bai_1
*I *519:A1 I *D sky130_fd_sc_hd__o21bai_1
*I *531:A1 I *D sky130_fd_sc_hd__o21bai_1
*I *527:A1 I *D sky130_fd_sc_hd__o21bai_1
*I *507:A1 I *D sky130_fd_sc_hd__o21bai_1
*I *498:A1 I *D sky130_fd_sc_hd__o21bai_1
*I *515:A1 I *D sky130_fd_sc_hd__o21bai_1
*I *535:A1 I *D sky130_fd_sc_hd__o21bai_1
*I *523:A1 I *D sky130_fd_sc_hd__o21bai_1
*I *502:A I *D sky130_fd_sc_hd__clkinv_4
*I *486:Y O *D sky130_fd_sc_hd__nand3_4
*CAP
1 *547:A1 0
2 *555:A1 1.70059e-05
3 *543:A1 0.000391492
4 *559:A1 0
5 *567:A1 4.67766e-05
6 *551:A1 9.64589e-05
7 *563:A1 0
8 *511:A1 2.07173e-05
9 *539:A1 2.65624e-05
10 *571:A1 0.00023275
11 *519:A1 0.0001976
12 *531:A1 0
13 *527:A1 4.52867e-05
14 *507:A1 0
15 *498:A1 0.000384725
16 *515:A1 0.000288191
17 *535:A1 0
18 *523:A1 0.000446804
19 *502:A 0.000194695
20 *486:Y 0.000529842
21 *56:248 0.000549072
22 *56:239 0.00026658
23 *56:226 0.000355331
24 *56:155 0.0001976
25 *56:120 0.000552587
26 *56:112 0.000634901
27 *56:110 0.000513588
28 *56:108 0.000809526
29 *56:102 0.00080914
30 *56:67 0.000488975
31 *56:65 0.000575098
32 *56:61 0.000635602
33 *56:44 0.000427758
34 *56:42 0.000766191
35 *56:38 0.000890344
36 *56:34 0.000577349
37 *56:24 0.000740365
38 *56:16 0.000891474
39 *498:A1 *498:A2 3.03814e-05
40 *498:A1 *498:B1_N 0
41 *498:A1 *507:A2 6.50727e-05
42 *498:A1 *507:B1_N 0.000275256
43 *498:A1 *509:A 0
44 *498:A1 *509:B 1.86171e-05
45 *498:A1 *67:12 6.62342e-05
46 *498:A1 *356:73 0.000247246
47 *502:A *540:B 0.000122518
48 *502:A *540:C 6.92705e-05
49 *502:A *541:B 0
50 *502:A *65:167 3.66719e-05
51 *502:A *70:180 7.28994e-06
52 *511:A1 *533:B 0.000112361
53 *511:A1 *706:A 4.89251e-05
54 *515:A1 *535:A2 1.00901e-05
55 *515:A1 *537:A 1.22085e-05
56 *515:A1 *70:202 0.000154145
57 *519:A1 *519:B1_N 3.14978e-05
58 *519:A1 *531:A2 6.08467e-05
59 *519:A1 *531:B1_N 6.49003e-05
60 *519:A1 *65:93 4.58259e-05
61 *519:A1 *65:97 1.77537e-06
62 *519:A1 *463:22 6.50727e-05
63 *523:A1 *522:A 0
64 *523:A1 *523:A2 2.69499e-05
65 *523:A1 *70:237 6.92705e-05
66 *523:A1 *72:36 6.50586e-05
67 *527:A1 *527:B1_N 7.28567e-06
68 *527:A1 *65:103 6.27782e-05
69 *527:A1 *176:24 4.03096e-05
70 *539:A1 *729:CLK 4.52897e-05
71 *543:A1 *542:A 2.8322e-05
72 *543:A1 *543:A2 5.03545e-06
73 *543:A1 *548:B 2.47163e-05
74 *543:A1 *548:C 1.03594e-05
75 *543:A1 *552:B 7.444e-06
76 *543:A1 *615:B 7.92757e-06
77 *551:A1 *553:A 6.27782e-05
78 *555:A1 *214:12 5.0317e-05
79 *567:A1 *736:RESET_B 5.37082e-05
80 *567:A1 *354:48 6.08467e-05
81 *571:A1 *533:A 0
82 *571:A1 *571:A2 8.38768e-05
83 *571:A1 *571:B1_N 3.23874e-05
84 *571:A1 *65:91 0.000129183
85 *56:16 *547:A2 1.16726e-05
86 *56:16 *606:B 0.000260374
87 *56:16 *620:C 6.50586e-05
88 *56:16 *126:20 0
89 *56:16 *126:22 0
90 *56:16 *453:10 4.81001e-05
91 *56:16 *481:206 5.41227e-05
92 *56:24 *547:A2 0.000123052
93 *56:24 *548:C 9.04224e-05
94 *56:24 *553:B 8.89094e-05
95 *56:24 *65:48 7.23852e-05
96 *56:24 *65:52 0
97 *56:24 *358:55 1.26255e-05
98 *56:34 *553:A 0.000273356
99 *56:34 *553:B 2.88718e-05
100 *56:34 *65:52 0
101 *56:38 *632:C 0
102 *56:38 *65:52 8.70662e-06
103 *56:38 *65:62 0.000141775
104 *56:38 *356:517 0
105 *56:42 *510:A 3.15254e-05
106 *56:42 *632:C 0
107 *56:42 *724:RESET_B 0
108 *56:42 *745:CLK 0
109 *56:42 *65:70 0
110 *56:42 *355:144 0
111 *56:44 *510:A 1.05272e-06
112 *56:44 *65:72 0
113 *56:44 *65:167 1.9025e-05
114 *56:44 *70:180 0.000185122
115 *56:61 *540:B 6.08467e-05
116 *56:61 *710:A 6.35256e-05
117 *56:61 *65:76 3.99086e-06
118 *56:61 *358:35 2.08618e-05
119 *56:65 *632:C 0.000329333
120 *56:65 *355:27 0
121 *56:67 *70:202 0
122 *56:102 *541:A 0.000161956
123 *56:102 *729:CLK 0.000415335
124 *56:102 *65:76 3.69222e-05
125 *56:102 *355:8 6.3657e-05
126 *56:108 *729:CLK 6.24474e-06
127 *56:108 *65:89 2.31444e-05
128 *56:108 *356:421 3.27897e-05
129 *56:110 *533:A 0
130 *56:110 *755:RESET_B 0
131 *56:110 *65:91 0.000108795
132 *56:110 *65:93 2.95757e-05
133 *56:112 *521:A 0
134 *56:112 *726:RESET_B 3.30446e-05
135 *56:112 *755:RESET_B 0
136 *56:112 *65:93 0.000163465
137 *56:112 *65:97 0.000582983
138 *56:112 *371:12 0
139 *56:120 *498:A2 1.77537e-06
140 *56:120 *65:103 2.8307e-05
141 *56:226 *354:48 0.000466249
142 *56:239 *736:RESET_B 0.000189496
143 *56:239 *65:25 6.14128e-05
144 *56:239 *65:34 5.22654e-06
145 *56:248 *555:A2 8.72115e-06
146 *56:248 *65:34 6.43818e-05
147 *56:248 *214:12 0.000143175
148 *602:C *543:A1 0.000211546
149 *605:A *56:16 0.000266461
150 *615:A *543:A1 0.000170901
151 *636:C *527:A1 0.000161956
152 *645:C *523:A1 8.72115e-06
153 *723:D *498:A1 3.77804e-05
154 *751:D *56:16 0.000171273
155 *53:225 *56:65 0.000292515
156 *53:233 *523:A1 0.000122992
157 *53:233 *56:65 0.000186528
158 *53:233 *56:67 6.91855e-05
159 *54:53 *519:A1 4.01573e-05
160 *54:68 *519:A1 0
161 *54:113 *56:61 0.000107496
162 *54:113 *56:102 9.32983e-05
163 *54:161 *551:A1 8.35605e-05
164 *54:161 *56:34 6.30312e-05
165 *54:203 *567:A1 5.00956e-05
166 *54:203 *56:239 0.000284063
167 *54:231 *555:A1 3.20407e-05
168 *54:231 *56:239 5.2092e-05
169 *54:231 *56:248 0.000318762
*RES
1 *486:Y *56:16 33.1959 
2 *56:16 *56:24 15.1199 
3 *56:24 *56:34 10.7294 
4 *56:34 *56:38 11.7303 
5 *56:38 *56:42 12.9705 
6 *56:42 *56:44 3.90826 
7 *56:44 *502:A 19.3776 
8 *56:44 *56:61 7.44181 
9 *56:61 *56:65 12.976 
10 *56:65 *56:67 1.41674 
11 *56:67 *523:A1 25.0981 
12 *56:67 *535:A1 13.7491 
13 *56:65 *515:A1 18.6441 
14 *56:61 *56:102 9.04245 
15 *56:102 *56:108 11.9028 
16 *56:108 *56:110 2.6625 
17 *56:110 *56:112 13.8743 
18 *56:112 *56:120 8.06628 
19 *56:120 *498:A1 30.0187 
20 *56:120 *507:A1 9.24915 
21 *56:112 *527:A1 16.1605 
22 *56:110 *56:155 4.5 
23 *56:155 *531:A1 9.24915 
24 *56:155 *519:A1 24.4375 
25 *56:108 *571:A1 20.0687 
26 *56:102 *539:A1 10.2378 
27 *56:42 *511:A1 15.0271 
28 *56:38 *563:A1 13.7491 
29 *56:34 *551:A1 12.2151 
30 *56:24 *56:226 14.1602 
31 *56:226 *567:A1 15.474 
32 *56:226 *56:239 5.98452 
33 *56:239 *559:A1 13.7491 
34 *56:239 *56:248 5.98452 
35 *56:248 *543:A1 30.1566 
36 *56:248 *555:A1 14.7506 
37 *56:16 *547:A1 9.24915 
*END

*D_NET *57 0.000520733
*CONN
*I *484:B I *D sky130_fd_sc_hd__nor2_8
*I *584:A I *D sky130_fd_sc_hd__inv_1
*I *487:X O *D sky130_fd_sc_hd__clkdlybuf4s50_1
*CAP
1 *484:B 0.000153219
2 *584:A 9.8679e-05
3 *487:X 0.000251898
4 *484:B *484:A 0
5 *54:12 *484:B 1.69371e-05
*RES
1 *487:X *584:A 21.0965 
2 *487:X *484:B 30.8842 
*END

*D_NET *58 0.000725339
*CONN
*I *492:A I *D sky130_fd_sc_hd__nor2_1
*I *488:Y O *D sky130_fd_sc_hd__inv_1
*CAP
1 *492:A 0.000220294
2 *488:Y 0.000220294
3 *492:A *488:A 1.74292e-05
4 *492:A *492:B 0.000122855
5 *492:A *500:A1 6.31954e-05
6 *492:A *63:14 3.31733e-05
7 *492:A *125:16 4.06024e-06
8 *494:B *492:A 7.56859e-06
9 *54:177 *492:A 3.64684e-05
*RES
1 *488:Y *492:A 34.0683 
*END

*D_NET *59 0.000767263
*CONN
*I *499:A I *D sky130_fd_sc_hd__nand3_1
*I *491:A I *D sky130_fd_sc_hd__nand2_1
*I *489:Y O *D sky130_fd_sc_hd__inv_1
*CAP
1 *499:A 0
2 *491:A 3.3396e-05
3 *489:Y 0.000120158
4 *59:12 0.000153554
5 *491:A *488:A 0.000216063
6 *491:A *491:B 5.82143e-05
7 *491:A *499:C 7.32658e-06
8 *491:A *125:16 2.82583e-05
9 *59:12 *489:A 0.00011231
10 *59:12 *565:B 3.79836e-05
11 *54:177 *59:12 0
*RES
1 *489:Y *59:12 20.9425 
2 *59:12 *491:A 12.2392 
3 *59:12 *499:A 9.24915 
*END

*D_NET *60 0.00101317
*CONN
*I *491:B I *D sky130_fd_sc_hd__nand2_1
*I *499:B I *D sky130_fd_sc_hd__nand3_1
*I *490:Y O *D sky130_fd_sc_hd__inv_1
*CAP
1 *491:B 4.27518e-05
2 *499:B 0
3 *490:Y 0.000200916
4 *60:14 0.000243668
5 *491:B *488:A 7.68538e-06
6 *491:B *499:C 4.80635e-06
7 *491:B *125:16 0.000111722
8 *60:14 *488:A 2.16355e-05
9 *60:14 *489:A 0.000144546
10 *60:14 *70:41 0.000140267
11 *60:14 *70:54 5.22654e-06
12 *60:14 *72:98 1.51406e-05
13 *60:14 *125:16 1.65872e-05
14 *491:A *491:B 5.82143e-05
*RES
1 *490:Y *60:14 23.1903 
2 *60:14 *499:B 9.24915 
3 *60:14 *491:B 11.6846 
*END

*D_NET *61 0.000579684
*CONN
*I *492:B I *D sky130_fd_sc_hd__nor2_1
*I *491:Y O *D sky130_fd_sc_hd__nand2_1
*CAP
1 *492:B 0.000146671
2 *491:Y 0.000146671
3 *492:B *489:A 9.57557e-06
4 *492:B *500:B1 6.17339e-05
5 *492:B *63:14 3.67708e-05
6 *492:B *70:8 5.54078e-05
7 *492:A *492:B 0.000122855
*RES
1 *491:Y *492:B 33.0676 
*END

*D_NET *62 0.00148381
*CONN
*I *495:A I *D sky130_fd_sc_hd__nand2_4
*I *492:Y O *D sky130_fd_sc_hd__nor2_1
*CAP
1 *495:A 0.000560476
2 *492:Y 0.000560476
3 *495:A *494:A 0.000100515
4 *495:A *495:B 0
5 *495:A *512:B 0.000173037
6 *495:A *63:14 7.20028e-05
7 *495:A *72:92 1.73012e-05
*RES
1 *492:Y *495:A 41.7624 
*END

*D_NET *63 0.00173275
*CONN
*I *494:A I *D sky130_fd_sc_hd__nand2_2
*I *500:A1 I *D sky130_fd_sc_hd__a21oi_4
*I *493:Y O *D sky130_fd_sc_hd__nand3_1
*CAP
1 *494:A 9.05576e-05
2 *500:A1 6.13435e-05
3 *493:Y 0.000456218
4 *63:14 0.000608119
5 *63:14 *495:B 0
6 *63:14 *696:A 2.58757e-05
7 *63:14 *70:8 3.68236e-05
8 *492:A *500:A1 6.31954e-05
9 *492:A *63:14 3.31733e-05
10 *492:B *63:14 3.67708e-05
11 *494:B *500:A1 0.000148159
12 *495:A *494:A 0.000100515
13 *495:A *63:14 7.20028e-05
*RES
1 *493:Y *63:14 27.2105 
2 *63:14 *500:A1 20.9116 
3 *63:14 *494:A 11.8293 
*END

*D_NET *64 0.000946188
*CONN
*I *495:B I *D sky130_fd_sc_hd__nand2_4
*I *494:Y O *D sky130_fd_sc_hd__nand2_2
*CAP
1 *495:B 0.000275407
2 *494:Y 0.000275407
3 *494:B *495:B 0.000169093
4 *495:A *495:B 0
5 *54:177 *495:B 0.000226281
6 *63:14 *495:B 0
*RES
1 *494:Y *495:B 35.1438 
*END

*D_NET *65 0.0212084
*CONN
*I *555:A2 I *D sky130_fd_sc_hd__o21bai_1
*I *543:A2 I *D sky130_fd_sc_hd__o21bai_1
*I *547:A2 I *D sky130_fd_sc_hd__o21bai_1
*I *551:A2 I *D sky130_fd_sc_hd__o21bai_1
*I *563:A2 I *D sky130_fd_sc_hd__o21bai_1
*I *511:A2 I *D sky130_fd_sc_hd__o21bai_1
*I *515:A2 I *D sky130_fd_sc_hd__o21bai_1
*I *535:A2 I *D sky130_fd_sc_hd__o21bai_1
*I *523:A2 I *D sky130_fd_sc_hd__o21bai_1
*I *571:A2 I *D sky130_fd_sc_hd__o21bai_1
*I *531:A2 I *D sky130_fd_sc_hd__o21bai_1
*I *519:A2 I *D sky130_fd_sc_hd__o21bai_1
*I *527:A2 I *D sky130_fd_sc_hd__o21bai_1
*I *507:A2 I *D sky130_fd_sc_hd__o21bai_1
*I *498:A2 I *D sky130_fd_sc_hd__o21bai_1
*I *539:A2 I *D sky130_fd_sc_hd__o21bai_1
*I *559:A2 I *D sky130_fd_sc_hd__o21bai_1
*I *567:A2 I *D sky130_fd_sc_hd__o21bai_1
*I *495:Y O *D sky130_fd_sc_hd__nand2_4
*CAP
1 *555:A2 9.44661e-05
2 *543:A2 2.68696e-05
3 *547:A2 7.33791e-05
4 *551:A2 0
5 *563:A2 0
6 *511:A2 0
7 *515:A2 0
8 *535:A2 3.88551e-05
9 *523:A2 0.000371848
10 *571:A2 7.20912e-05
11 *531:A2 6.32357e-05
12 *519:A2 1.67835e-05
13 *527:A2 0
14 *507:A2 2.31637e-05
15 *498:A2 0.0003883
16 *539:A2 4.29268e-05
17 *559:A2 0
18 *567:A2 2.32596e-05
19 *495:Y 0.000463455
20 *65:177 0.000567995
21 *65:167 0.000605648
22 *65:103 0.000582592
23 *65:97 0.000489435
24 *65:93 0.000428139
25 *65:91 0.000283248
26 *65:89 0.000803927
27 *65:76 0.00142899
28 *65:72 0.00132873
29 *65:70 0.000516841
30 *65:62 0.000716174
31 *65:52 0.000625447
32 *65:48 0.000843831
33 *65:40 0.000663921
34 *65:34 0.000380119
35 *65:25 0.000304343
36 *65:14 0.000698935
37 *498:A2 *505:A 6.41655e-05
38 *498:A2 *509:A 0.000406441
39 *498:A2 *509:B 0.000139479
40 *498:A2 *67:12 0.000123582
41 *498:A2 *356:73 0
42 *519:A2 *519:B1_N 5.07314e-05
43 *519:A2 *463:22 0.00011818
44 *523:A2 *535:B1_N 0.000118017
45 *523:A2 *355:53 0
46 *531:A2 *531:B1_N 0.000164815
47 *535:A2 *537:A 6.27782e-05
48 *535:A2 *70:202 2.58616e-05
49 *539:A2 *729:CLK 0.00012503
50 *543:A2 *548:C 9.05084e-06
51 *543:A2 *552:B 4.39919e-05
52 *547:A2 *549:A 0.000169041
53 *555:A2 *557:A 6.48357e-05
54 *555:A2 *214:12 0.000196969
55 *567:A2 *569:A 7.01935e-06
56 *567:A2 *354:48 6.08467e-05
57 *571:A2 *729:RESET_B 4.31603e-05
58 *65:14 *565:A 5.01107e-05
59 *65:14 *567:B1_N 0.000113237
60 *65:14 *736:RESET_B 6.57892e-05
61 *65:14 *125:16 0.000165521
62 *65:25 *557:A 1.32772e-05
63 *65:25 *736:RESET_B 0.000246801
64 *65:25 *356:630 0
65 *65:34 *557:A 6.32436e-05
66 *65:40 *542:A 2.70806e-05
67 *65:40 *543:B1_N 8.65578e-05
68 *65:40 *545:A 1.2448e-05
69 *65:40 *548:A 0.000206696
70 *65:40 *214:12 6.27718e-05
71 *65:48 *548:C 4.18492e-05
72 *65:48 *552:B 0.000283447
73 *65:52 *547:B1_N 1.44467e-05
74 *65:52 *548:C 0
75 *65:52 *354:8 1.07248e-05
76 *65:52 *356:538 0
77 *65:62 *563:B1_N 0.000208746
78 *65:62 *745:CLK 5.56461e-05
79 *65:62 *125:16 1.90281e-05
80 *65:70 *563:B1_N 6.79171e-05
81 *65:70 *565:A 3.7947e-05
82 *65:70 *724:RESET_B 4.73076e-05
83 *65:70 *745:CLK 4.80635e-06
84 *65:70 *70:166 0.000385094
85 *65:70 *125:16 0.00013858
86 *65:72 *706:A 1.6352e-05
87 *65:72 *70:166 7.09666e-06
88 *65:72 *70:172 1.66626e-05
89 *65:76 *710:A 7.13874e-05
90 *65:76 *729:CLK 6.91171e-05
91 *65:76 *355:8 1.41307e-05
92 *65:76 *358:35 9.24682e-05
93 *65:89 *729:CLK 0.000122174
94 *65:89 *356:421 0.000201059
95 *65:91 *729:RESET_B 1.37421e-05
96 *65:91 *223:12 0
97 *65:97 *176:24 0.000108597
98 *65:103 *521:A 1.03594e-05
99 *65:103 *529:A 0.000256285
100 *65:103 *356:73 0
101 *65:167 *515:B1_N 0.000127194
102 *65:167 *517:A 0.000137145
103 *65:167 *540:B 0
104 *65:167 *725:RESET_B 2.39535e-05
105 *65:167 *70:202 0
106 *65:167 *72:10 0
107 *65:167 *72:69 0
108 *65:167 *358:35 2.86353e-06
109 *65:177 *515:B1_N 2.01653e-05
110 *65:177 *517:A 2.18821e-05
111 *65:177 *535:B1_N 2.18821e-05
112 *498:A1 *498:A2 3.03814e-05
113 *498:A1 *507:A2 6.50727e-05
114 *502:A *65:167 3.66719e-05
115 *515:A1 *535:A2 1.00901e-05
116 *519:A1 *531:A2 6.08467e-05
117 *519:A1 *65:93 4.58259e-05
118 *519:A1 *65:97 1.77537e-06
119 *523:A1 *523:A2 2.69499e-05
120 *527:A1 *65:103 6.27782e-05
121 *543:A1 *543:A2 5.03545e-06
122 *571:A1 *571:A2 8.38768e-05
123 *571:A1 *65:91 0.000129183
124 *636:C *65:103 8.57967e-05
125 *645:C *523:A2 6.00124e-05
126 *645:C *65:177 2.0468e-05
127 *723:D *498:A2 0.000165307
128 *733:D *65:48 7.85147e-05
129 *54:36 *65:97 0
130 *54:53 *65:97 0
131 *54:177 *65:14 0
132 *56:16 *547:A2 1.16726e-05
133 *56:24 *547:A2 0.000123052
134 *56:24 *65:48 7.23852e-05
135 *56:24 *65:52 0
136 *56:34 *65:52 0
137 *56:38 *65:52 8.70662e-06
138 *56:38 *65:62 0.000141775
139 *56:42 *65:70 0
140 *56:44 *65:72 0
141 *56:44 *65:167 1.9025e-05
142 *56:61 *65:76 3.99086e-06
143 *56:102 *65:76 3.69222e-05
144 *56:108 *65:89 2.31444e-05
145 *56:110 *65:91 0.000108795
146 *56:110 *65:93 2.95757e-05
147 *56:112 *65:93 0.000163465
148 *56:112 *65:97 0.000582983
149 *56:120 *498:A2 1.77537e-06
150 *56:120 *65:103 2.8307e-05
151 *56:239 *65:25 6.14128e-05
152 *56:239 *65:34 5.22654e-06
153 *56:248 *555:A2 8.72115e-06
154 *56:248 *65:34 6.43818e-05
*RES
1 *495:Y *65:14 26.1998 
2 *65:14 *567:A2 14.4725 
3 *65:14 *65:25 6.81502 
4 *65:25 *559:A2 13.7491 
5 *65:25 *65:34 3.07775 
6 *65:34 *65:40 14.1602 
7 *65:40 *65:48 14.8384 
8 *65:48 *65:52 11.7303 
9 *65:52 *65:62 14.0345 
10 *65:62 *65:70 18.7122 
11 *65:70 *65:72 2.24725 
12 *65:72 *65:76 16.3155 
13 *65:76 *539:A2 11.5158 
14 *65:76 *65:89 14.0971 
15 *65:89 *65:91 4.32351 
16 *65:91 *65:93 3.493 
17 *65:93 *65:97 15.0523 
18 *65:97 *65:103 10.5196 
19 *65:103 *498:A2 25.9361 
20 *65:103 *507:A2 14.4725 
21 *65:97 *527:A2 9.24915 
22 *65:93 *519:A2 15.0271 
23 *65:91 *531:A2 16.1605 
24 *65:89 *571:A2 15.9964 
25 *65:72 *65:167 12.1156 
26 *65:167 *65:177 4.76319 
27 *65:177 *523:A2 23.4709 
28 *65:177 *535:A2 15.0271 
29 *65:167 *515:A2 13.7491 
30 *65:70 *511:A2 13.7491 
31 *65:62 *563:A2 9.24915 
32 *65:52 *551:A2 13.7491 
33 *65:48 *547:A2 12.7697 
34 *65:40 *543:A2 14.7506 
35 *65:34 *555:A2 17.6574 
*END

*D_NET *66 0.00142575
*CONN
*I *489:A I *D sky130_fd_sc_hd__inv_1
*I *496:X O *D sky130_fd_sc_hd__clkdlybuf4s50_1
*CAP
1 *489:A 0.000369788
2 *496:X 0.000369788
3 *489:A *496:A 0
4 *489:A *500:B1 0.000151741
5 *489:A *565:B 3.20544e-05
6 *489:A *70:8 0.000127194
7 *489:A *70:41 7.77309e-06
8 *489:A *70:54 9.06188e-05
9 *489:A *70:63 1.03594e-05
10 *489:A *72:98 0
11 *492:B *489:A 9.57557e-06
12 *54:177 *489:A 0
13 *59:12 *489:A 0.00011231
14 *60:14 *489:A 0.000144546
*RES
1 *496:X *489:A 38.3233 
*END

*D_NET *67 0.00349227
*CONN
*I *585:A2 I *D sky130_fd_sc_hd__a21oi_1
*I *498:B1_N I *D sky130_fd_sc_hd__o21bai_1
*I *497:Y O *D sky130_fd_sc_hd__inv_1
*CAP
1 *585:A2 0.000624941
2 *498:B1_N 0.000354518
3 *497:Y 0.000159007
4 *67:12 0.00113847
5 *498:B1_N *505:A 6.50586e-05
6 *498:B1_N *508:B 0.00017419
7 *498:B1_N *509:B 5.7995e-05
8 *498:B1_N *528:B 3.17266e-05
9 *498:B1_N *723:RESET_B 2.72592e-05
10 *498:B1_N *723:CLK 0.000266846
11 *585:A2 *585:B1 0.000107842
12 *585:A2 *588:A 3.53803e-05
13 *585:A2 *609:A1 3.58044e-05
14 *585:A2 *723:RESET_B 9.3307e-05
15 *585:A2 *742:CLK 6.50586e-05
16 *67:12 *507:B1_N 6.50586e-05
17 *498:A1 *498:B1_N 0
18 *498:A1 *67:12 6.62342e-05
19 *498:A2 *67:12 0.000123582
*RES
1 *497:Y *67:12 22.0517 
2 *67:12 *498:B1_N 28.6492 
3 *67:12 *585:A2 25.1397 
*END

*D_NET *68 0.000327326
*CONN
*I *505:A I *D sky130_fd_sc_hd__nand2_1
*I *498:Y O *D sky130_fd_sc_hd__o21bai_1
*CAP
1 *505:A 8.32353e-05
2 *498:Y 8.32353e-05
3 *505:A *508:B 2.65831e-05
4 *505:A *528:B 5.04829e-06
5 *498:A2 *505:A 6.41655e-05
6 *498:B1_N *505:A 6.50586e-05
*RES
1 *498:Y *505:A 21.3195 
*END

*D_NET *69 0.000365576
*CONN
*I *500:B1 I *D sky130_fd_sc_hd__a21oi_4
*I *499:Y O *D sky130_fd_sc_hd__nand3_1
*CAP
1 *500:B1 7.60505e-05
2 *499:Y 7.60505e-05
3 *489:A *500:B1 0.000151741
4 *492:B *500:B1 6.17339e-05
*RES
1 *499:Y *500:B1 30.1608 
*END

*D_NET *70 0.0243008
*CONN
*I *532:A I *D sky130_fd_sc_hd__nand3_1
*I *578:A2 I *D sky130_fd_sc_hd__o21ai_0
*I *540:A I *D sky130_fd_sc_hd__nand3_1
*I *520:A I *D sky130_fd_sc_hd__nand3_1
*I *528:A I *D sky130_fd_sc_hd__nand3_1
*I *504:A I *D sky130_fd_sc_hd__nand3_1
*I *524:A I *D sky130_fd_sc_hd__nand3_1
*I *508:A I *D sky130_fd_sc_hd__nand3_1
*I *512:A I *D sky130_fd_sc_hd__nand3_1
*I *544:A I *D sky130_fd_sc_hd__nand3_1
*I *556:A I *D sky130_fd_sc_hd__nand3_1
*I *552:A I *D sky130_fd_sc_hd__nand3_1
*I *548:A I *D sky130_fd_sc_hd__nand3_1
*I *560:A I *D sky130_fd_sc_hd__nand3_1
*I *568:A I *D sky130_fd_sc_hd__nand3_1
*I *564:A I *D sky130_fd_sc_hd__nand3_1
*I *572:A I *D sky130_fd_sc_hd__nand3_1
*I *516:A I *D sky130_fd_sc_hd__nand3_1
*I *536:A I *D sky130_fd_sc_hd__nand3_1
*I *500:Y O *D sky130_fd_sc_hd__a21oi_4
*CAP
1 *532:A 5.28474e-05
2 *578:A2 0.00212721
3 *540:A 0
4 *520:A 0
5 *528:A 0
6 *504:A 3.16764e-05
7 *524:A 6.87852e-05
8 *508:A 0.000296301
9 *512:A 1.31599e-05
10 *544:A 0.000251714
11 *556:A 0
12 *552:A 3.64494e-05
13 *548:A 0.000377495
14 *560:A 9.52745e-05
15 *568:A 3.60075e-05
16 *564:A 0
17 *572:A 0
18 *516:A 4.20451e-05
19 *536:A 0.000247918
20 *500:Y 0.000553461
21 *70:237 0.000399271
22 *70:227 0.000312135
23 *70:206 0.000405182
24 *70:202 0.000966859
25 *70:180 0.00108318
26 *70:172 0.00260685
27 *70:166 0.000658454
28 *70:153 0.000749163
29 *70:119 0.000434634
30 *70:95 0.00126356
31 *70:76 0.000944886
32 *70:74 0.000364103
33 *70:63 0.000318516
34 *70:54 0.000251139
35 *70:41 0.000340536
36 *70:31 0.00058888
37 *70:8 0.000843424
38 *504:A *505:B 7.34948e-06
39 *504:A *355:53 0.00011818
40 *508:A *508:C 0.00014271
41 *508:A *509:B 7.34948e-06
42 *508:A *528:B 3.99086e-06
43 *508:A *529:B 3.39298e-06
44 *508:A *355:35 6.9375e-05
45 *512:A *513:B 1.09551e-05
46 *512:A *72:92 3.53114e-05
47 *516:A *516:B 6.50727e-05
48 *516:A *517:B 1.61631e-05
49 *524:A *504:C 0.000147325
50 *524:A *355:53 0.000277488
51 *532:A *533:B 0.000211539
52 *532:A *706:A 4.89392e-05
53 *536:A *536:C 0.000171306
54 *536:A *725:CLK 0
55 *536:A *72:212 1.07248e-05
56 *544:A *544:C 1.02267e-05
57 *544:A *545:B 5.79081e-05
58 *544:A *354:18 1.79196e-05
59 *544:A *354:88 8.44589e-05
60 *544:A *354:97 2.55129e-05
61 *548:A *542:A 9.3518e-05
62 *548:A *548:C 1.07248e-05
63 *548:A *549:B 1.72461e-05
64 *548:A *552:B 4.21124e-05
65 *548:A *558:A 0.000170592
66 *548:A *747:CLK 1.02267e-05
67 *552:A *548:C 4.0752e-05
68 *552:A *552:B 2.65831e-05
69 *560:A *561:B 2.93844e-05
70 *560:A *72:159 4.89898e-06
71 *568:A *564:B 1.43698e-05
72 *568:A *569:B 0.000112361
73 *578:A2 *358:17 0
74 *578:A2 *358:69 0
75 *70:8 *493:C 0
76 *70:8 *695:A 0
77 *70:8 *72:212 0.000241603
78 *70:41 *72:98 7.51507e-05
79 *70:41 *72:107 3.67528e-06
80 *70:54 *564:B 1.03594e-05
81 *70:54 *72:107 2.57821e-05
82 *70:63 *564:B 0.000137777
83 *70:63 *737:CLK 6.84737e-05
84 *70:63 *354:22 8.70662e-06
85 *70:74 *568:B 2.47163e-05
86 *70:74 *72:127 0
87 *70:74 *354:20 5.01524e-05
88 *70:74 *354:22 8.48137e-05
89 *70:95 *548:C 6.50727e-05
90 *70:95 *736:RESET_B 4.59816e-06
91 *70:95 *72:159 7.4612e-05
92 *70:95 *215:8 1.92336e-05
93 *70:119 *561:A 0.00012568
94 *70:119 *72:127 0
95 *70:119 *72:136 0
96 *70:119 *72:159 7.50872e-05
97 *70:119 *354:18 2.04806e-05
98 *70:119 *354:20 2.47808e-05
99 *70:153 *72:92 3.82885e-05
100 *70:153 *72:98 0.00021477
101 *70:166 *513:A 4.26009e-05
102 *70:166 *513:B 2.65831e-05
103 *70:166 *724:RESET_B 7.7321e-05
104 *70:172 *358:17 0
105 *70:172 *358:35 1.2394e-05
106 *70:180 *540:B 0.000141422
107 *70:202 *515:B1_N 0
108 *70:202 *520:B 6.36477e-05
109 *70:202 *522:A 8.61152e-06
110 *70:202 *540:B 1.07248e-05
111 *70:202 *636:B 0.000111802
112 *70:202 *355:27 5.85954e-05
113 *70:202 *355:35 6.0233e-06
114 *70:206 *508:C 4.71765e-06
115 *70:206 *520:C 3.07208e-05
116 *70:206 *355:35 0.000149
117 *70:227 *508:C 1.88014e-05
118 *70:227 *528:B 6.36477e-05
119 *70:237 *508:C 0.000124571
120 *70:237 *522:A 0.000243024
121 *70:237 *523:B1_N 0.000250949
122 *70:237 *528:B 2.29454e-05
123 *70:237 *72:36 7.7767e-05
124 *70:237 *72:45 1.92172e-05
125 *70:237 *355:53 0
126 *70:237 *356:8 0
127 *489:A *70:8 0.000127194
128 *489:A *70:41 7.77309e-06
129 *489:A *70:54 9.06188e-05
130 *489:A *70:63 1.03594e-05
131 *492:B *70:8 5.54078e-05
132 *500:A2 *70:153 6.08467e-05
133 *502:A *70:180 7.28994e-06
134 *515:A1 *70:202 0.000154145
135 *523:A1 *70:237 6.92705e-05
136 *535:A2 *70:202 2.58616e-05
137 *645:C *70:202 0.000191541
138 *733:D *548:A 8.859e-05
139 *736:D *560:A 1.41976e-05
140 *736:D *70:95 0.000110583
141 *53:225 *70:180 2.55455e-05
142 *54:113 *70:180 0.000155504
143 *54:113 *70:202 0.000139532
144 *54:203 *548:A 4.52324e-05
145 *54:231 *548:A 0.000102291
146 *56:44 *70:180 0.000185122
147 *56:67 *70:202 0
148 *60:14 *70:41 0.000140267
149 *60:14 *70:54 5.22654e-06
150 *63:14 *70:8 3.68236e-05
151 *65:40 *548:A 0.000206696
152 *65:70 *70:166 0.000385094
153 *65:72 *70:166 7.09666e-06
154 *65:72 *70:172 1.66626e-05
155 *65:167 *70:202 0
*RES
1 *500:Y *70:8 29.2845 
2 *70:8 *536:A 20.5642 
3 *70:8 *516:A 15.0271 
4 *500:Y *70:31 9.24915 
5 *70:31 *70:41 10.3141 
6 *70:41 *572:A 13.7491 
7 *70:41 *70:54 4.54335 
8 *70:54 *564:A 13.7491 
9 *70:54 *70:63 3.90826 
10 *70:63 *568:A 15.0271 
11 *70:63 *70:74 5.56926 
12 *70:74 *70:76 4.5 
13 *70:76 *560:A 12.0945 
14 *70:76 *70:95 14.6608 
15 *70:95 *548:A 30.9425 
16 *70:95 *552:A 10.5271 
17 *70:74 *70:119 4.32351 
18 *70:119 *556:A 13.7491 
19 *70:119 *544:A 21.3878 
20 *70:31 *70:153 10.9474 
21 *70:153 *512:A 9.82786 
22 *70:153 *70:166 15.2267 
23 *70:166 *70:172 4.25622 
24 *70:172 *70:180 10.88 
25 *70:180 *70:202 35.383 
26 *70:202 *70:206 7.57775 
27 *70:206 *508:A 19.8438 
28 *70:206 *70:227 5.2234 
29 *70:227 *70:237 19.8958 
30 *70:237 *524:A 13.3002 
31 *70:237 *504:A 10.5271 
32 *70:227 *528:A 9.24915 
33 *70:202 *520:A 9.24915 
34 *70:180 *540:A 13.7491 
35 *70:172 *578:A2 21.8299 
36 *70:166 *532:A 16.1364 
*END

*D_NET *71 0.000190744
*CONN
*I *490:A I *D sky130_fd_sc_hd__inv_1
*I *501:X O *D sky130_fd_sc_hd__clkdlybuf4s50_1
*CAP
1 *490:A 5.27338e-05
2 *501:X 5.27338e-05
3 *490:A *72:98 8.52766e-05
*RES
1 *501:X *490:A 19.9873 
*END

*D_NET *72 0.0184062
*CONN
*I *540:C I *D sky130_fd_sc_hd__nand3_1
*I *516:C I *D sky130_fd_sc_hd__nand3_1
*I *536:C I *D sky130_fd_sc_hd__nand3_1
*I *512:C I *D sky130_fd_sc_hd__nand3_1
*I *544:C I *D sky130_fd_sc_hd__nand3_1
*I *552:C I *D sky130_fd_sc_hd__nand3_1
*I *548:C I *D sky130_fd_sc_hd__nand3_1
*I *556:C I *D sky130_fd_sc_hd__nand3_1
*I *560:C I *D sky130_fd_sc_hd__nand3_1
*I *568:C I *D sky130_fd_sc_hd__nand3_1
*I *564:C I *D sky130_fd_sc_hd__nand3_1
*I *572:C I *D sky130_fd_sc_hd__nand3_1
*I *532:C I *D sky130_fd_sc_hd__nand3_1
*I *520:C I *D sky130_fd_sc_hd__nand3_1
*I *508:C I *D sky130_fd_sc_hd__nand3_1
*I *528:C I *D sky130_fd_sc_hd__nand3_1
*I *524:C I *D sky130_fd_sc_hd__nand3_1
*I *504:C I *D sky130_fd_sc_hd__nand3_1
*I *502:Y O *D sky130_fd_sc_hd__clkinv_4
*CAP
1 *540:C 1.77424e-05
2 *516:C 0
3 *536:C 0.000270645
4 *512:C 0
5 *544:C 0.000249129
6 *552:C 0
7 *548:C 0.000432262
8 *556:C 0
9 *560:C 0
10 *568:C 0
11 *564:C 5.8961e-05
12 *572:C 0
13 *532:C 3.69087e-05
14 *520:C 6.5118e-05
15 *508:C 0.000189675
16 *528:C 0
17 *524:C 0
18 *504:C 0.000375219
19 *502:Y 0.00103059
20 *72:212 0.00121303
21 *72:159 0.00140716
22 *72:140 0.00101705
23 *72:136 0.00039642
24 *72:127 0.000356264
25 *72:118 0.00042473
26 *72:107 0.00033918
27 *72:98 0.000723223
28 *72:92 0.000984728
29 *72:69 0.000677993
30 *72:45 0.00028322
31 *72:36 0.000482022
32 *72:16 0.000625746
33 *72:10 0.0013736
34 *72:8 0.00101292
35 *508:C *522:A 1.09738e-05
36 *508:C *528:B 1.58551e-05
37 *520:C *522:A 5.09109e-05
38 *532:C *512:B 3.18748e-06
39 *536:C tl_o[6] 0
40 *536:C *536:B 6.27718e-05
41 *544:C *545:B 1.47096e-05
42 *544:C *691:A 0
43 *548:C *552:B 6.11359e-06
44 *548:C *553:B 0.000164829
45 *548:C *558:A 1.70077e-05
46 *548:C *215:8 0.000118166
47 *548:C *354:8 0
48 *548:C *354:147 0
49 *548:C *358:55 2.11692e-06
50 *72:10 *725:RESET_B 0
51 *72:10 *725:CLK 0
52 *72:10 *356:8 0
53 *72:16 *525:B 0
54 *72:16 *356:8 0
55 *72:36 *522:A 0.000238812
56 *72:36 *523:B1_N 5.43595e-05
57 *72:36 *525:A 6.12686e-06
58 *72:36 *525:B 0.000113968
59 *72:69 *532:B 9.43419e-05
60 *72:69 *695:A 0
61 *72:92 *512:B 0.000289976
62 *72:92 *513:A 5.89995e-05
63 *72:92 *513:B 8.81679e-06
64 *72:92 *532:B 8.36586e-06
65 *72:92 *724:RESET_B 0
66 *72:98 *501:A 0
67 *72:107 *572:B 2.60709e-05
68 *72:107 *687:A 0
69 *72:118 *568:B 5.03545e-06
70 *72:118 *689:A 0
71 *72:127 *568:B 4.05509e-05
72 *72:127 *690:A 0
73 *72:136 *690:A 0
74 *72:140 *556:B 0.00011818
75 *72:159 *552:B 1.64789e-05
76 *72:159 *556:B 0.000122378
77 *72:159 *557:B 3.75603e-05
78 *72:159 *561:B 1.61631e-05
79 *72:159 *736:RESET_B 5.37479e-05
80 *489:A *72:98 0
81 *490:A *72:98 8.52766e-05
82 *495:A *72:92 1.73012e-05
83 *500:A2 *72:98 6.08467e-05
84 *502:A *540:C 6.92705e-05
85 *508:A *508:C 0.00014271
86 *512:A *72:92 3.53114e-05
87 *523:A1 *72:36 6.50586e-05
88 *524:A *504:C 0.000147325
89 *536:A *536:C 0.000171306
90 *536:A *72:212 1.07248e-05
91 *543:A1 *548:C 1.03594e-05
92 *543:A2 *548:C 9.05084e-06
93 *544:A *544:C 1.02267e-05
94 *548:A *548:C 1.07248e-05
95 *552:A *548:C 4.0752e-05
96 *560:A *72:159 4.89898e-06
97 *724:D *72:92 4.61732e-05
98 *727:D *72:10 0
99 *727:D *72:36 0.000115934
100 *733:D *548:C 0.000173111
101 *736:D *72:159 6.47268e-05
102 *54:203 *548:C 5.77352e-05
103 *56:24 *548:C 9.04224e-05
104 *60:14 *72:98 1.51406e-05
105 *65:48 *548:C 4.18492e-05
106 *65:52 *548:C 0
107 *65:167 *72:10 0
108 *65:167 *72:69 0
109 *70:8 *72:212 0.000241603
110 *70:41 *72:98 7.51507e-05
111 *70:41 *72:107 3.67528e-06
112 *70:54 *72:107 2.57821e-05
113 *70:74 *72:127 0
114 *70:95 *548:C 6.50727e-05
115 *70:95 *72:159 7.4612e-05
116 *70:119 *72:127 0
117 *70:119 *72:136 0
118 *70:119 *72:159 7.50872e-05
119 *70:153 *72:92 3.82885e-05
120 *70:153 *72:98 0.00021477
121 *70:206 *508:C 4.71765e-06
122 *70:206 *520:C 3.07208e-05
123 *70:227 *508:C 1.88014e-05
124 *70:237 *508:C 0.000124571
125 *70:237 *72:36 7.7767e-05
126 *70:237 *72:45 1.92172e-05
*RES
1 *502:Y *72:8 15.5817 
2 *72:8 *72:10 15.5353 
3 *72:10 *72:16 10.6561 
4 *72:16 *504:C 15.9767 
5 *72:16 *524:C 9.24915 
6 *72:10 *72:36 16.8701 
7 *72:36 *528:C 9.24915 
8 *72:36 *72:45 5.2234 
9 *72:45 *508:C 19.0963 
10 *72:45 *520:C 15.9964 
11 *72:8 *72:69 6.81502 
12 *72:69 *532:C 14.4725 
13 *72:69 *72:92 15.4825 
14 *72:92 *72:98 20.0844 
15 *72:98 *572:C 13.7491 
16 *72:98 *72:107 3.07775 
17 *72:107 *564:C 15.0271 
18 *72:107 *72:118 4.32351 
19 *72:118 *568:C 13.7491 
20 *72:118 *72:127 6.39977 
21 *72:127 *560:C 13.7491 
22 *72:127 *72:136 2.6625 
23 *72:136 *72:140 5.778 
24 *72:140 *556:C 9.24915 
25 *72:140 *72:159 26.1868 
26 *72:159 *548:C 40.5018 
27 *72:159 *552:C 9.24915 
28 *72:136 *544:C 19.5141 
29 *72:92 *512:C 9.24915 
30 *502:Y *72:212 29.8881 
31 *72:212 *536:C 22.0204 
32 *72:212 *516:C 13.7491 
33 *502:Y *540:C 19.2217 
*END

*D_NET *73 0.00027354
*CONN
*I *493:B I *D sky130_fd_sc_hd__nand3_1
*I *503:X O *D sky130_fd_sc_hd__clkdlybuf4s50_1
*CAP
1 *493:B 5.48403e-05
2 *503:X 5.48403e-05
3 *493:B *696:A 0.00016386
*RES
1 *503:X *493:B 20.3309 
*END

*D_NET *74 0.00137532
*CONN
*I *505:B I *D sky130_fd_sc_hd__nand2_1
*I *504:Y O *D sky130_fd_sc_hd__nand3_1
*CAP
1 *505:B 0.000479796
2 *504:Y 0.000479796
3 *505:B *520:B 0.000122068
4 *505:B *355:37 0.000100905
5 *505:B *355:53 1.41291e-05
6 *504:A *505:B 7.34948e-06
7 *722:D *505:B 0.000171273
*RES
1 *504:Y *505:B 36.5696 
*END

*D_NET *75 0.001919
*CONN
*I *609:A2 I *D sky130_fd_sc_hd__a21oi_1
*I *507:B1_N I *D sky130_fd_sc_hd__o21bai_1
*I *506:Y O *D sky130_fd_sc_hd__inv_1
*CAP
1 *609:A2 0.00025815
2 *507:B1_N 0.000400491
3 *506:Y 0
4 *75:4 0.000658642
5 *507:B1_N *506:A 9.55569e-06
6 *609:A2 *588:A 2.57071e-05
7 *609:A2 *610:A 0.000193982
8 *609:A2 *742:CLK 3.21568e-05
9 *498:A1 *507:B1_N 0.000275256
10 *54:12 *609:A2 0
11 *67:12 *507:B1_N 6.50586e-05
*RES
1 *506:Y *75:4 9.24915 
2 *75:4 *507:B1_N 19.1235 
3 *75:4 *609:A2 25.1006 
*END

*D_NET *76 0.000870107
*CONN
*I *509:A I *D sky130_fd_sc_hd__nand2_1
*I *507:Y O *D sky130_fd_sc_hd__o21bai_1
*CAP
1 *509:A 0.000231833
2 *507:Y 0.000231833
3 *498:A1 *509:A 0
4 *498:A2 *509:A 0.000406441
*RES
1 *507:Y *509:A 34.9002 
*END

*D_NET *77 0.00104005
*CONN
*I *509:B I *D sky130_fd_sc_hd__nand2_1
*I *508:Y O *D sky130_fd_sc_hd__nand3_1
*CAP
1 *509:B 0.0003464
2 *508:Y 0.0003464
3 *509:B *497:A 7.50722e-05
4 *509:B *508:B 0
5 *509:B *356:73 4.87343e-05
6 *498:A1 *509:B 1.86171e-05
7 *498:A2 *509:B 0.000139479
8 *498:B1_N *509:B 5.7995e-05
9 *508:A *509:B 7.34948e-06
*RES
1 *508:Y *509:B 36.3416 
*END

*D_NET *78 0.00103966
*CONN
*I *511:B1_N I *D sky130_fd_sc_hd__o21bai_1
*I *510:Y O *D sky130_fd_sc_hd__inv_1
*CAP
1 *511:B1_N 0.000177836
2 *510:Y 0.000177836
3 *511:B1_N *513:A 0.00015901
4 *511:B1_N *533:B 0.000524974
*RES
1 *510:Y *511:B1_N 24.4904 
*END

*D_NET *79 0.00109565
*CONN
*I *513:A I *D sky130_fd_sc_hd__nand2_1
*I *511:Y O *D sky130_fd_sc_hd__o21bai_1
*CAP
1 *513:A 0.000277001
2 *511:Y 0.000277001
3 *513:A *533:B 2.30636e-05
4 *513:A *724:RESET_B 0.000156823
5 *511:B1_N *513:A 0.00015901
6 *724:D *513:A 0.000101148
7 *70:166 *513:A 4.26009e-05
8 *72:92 *513:A 5.89995e-05
*RES
1 *511:Y *513:A 35.4548 
*END

*D_NET *80 0.000165515
*CONN
*I *513:B I *D sky130_fd_sc_hd__nand2_1
*I *512:Y O *D sky130_fd_sc_hd__nand3_1
*CAP
1 *513:B 5.95799e-05
2 *512:Y 5.95799e-05
3 *512:A *513:B 1.09551e-05
4 *70:166 *513:B 2.65831e-05
5 *72:92 *513:B 8.81679e-06
*RES
1 *512:Y *513:B 20.3791 
*END

*D_NET *81 0.000817829
*CONN
*I *515:B1_N I *D sky130_fd_sc_hd__o21bai_1
*I *514:Y O *D sky130_fd_sc_hd__inv_1
*CAP
1 *515:B1_N 0.000260662
2 *514:Y 0.000260662
3 *515:B1_N *537:A 8.63397e-05
4 *515:B1_N *630:B 1.20742e-05
5 *515:B1_N *219:6 5.07314e-05
6 *645:C *515:B1_N 0
7 *65:167 *515:B1_N 0.000127194
8 *65:177 *515:B1_N 2.01653e-05
9 *70:202 *515:B1_N 0
*RES
1 *514:Y *515:B1_N 33.688 
*END

*D_NET *82 0.00205574
*CONN
*I *517:A I *D sky130_fd_sc_hd__nand2_1
*I *515:Y O *D sky130_fd_sc_hd__o21bai_1
*CAP
1 *517:A 0.000815345
2 *515:Y 0.000815345
3 *517:A *517:B 2.38055e-05
4 *517:A *725:RESET_B 0.000205081
5 *725:D *517:A 3.71341e-05
6 *65:167 *517:A 0.000137145
7 *65:177 *517:A 2.18821e-05
*RES
1 *515:Y *517:A 42.5415 
*END

*D_NET *83 0.00014892
*CONN
*I *517:B I *D sky130_fd_sc_hd__nand2_1
*I *516:Y O *D sky130_fd_sc_hd__nand3_1
*CAP
1 *517:B 5.44755e-05
2 *516:Y 5.44755e-05
3 *516:A *517:B 1.61631e-05
4 *517:A *517:B 2.38055e-05
*RES
1 *516:Y *517:B 20.3791 
*END

*D_NET *84 0.00067205
*CONN
*I *519:B1_N I *D sky130_fd_sc_hd__o21bai_1
*I *518:Y O *D sky130_fd_sc_hd__inv_1
*CAP
1 *519:B1_N 0.000170881
2 *518:Y 0.000170881
3 *519:B1_N *518:A 2.37263e-05
4 *519:B1_N *521:A 0.000164829
5 *519:B1_N *463:22 5.95039e-05
6 *519:A1 *519:B1_N 3.14978e-05
7 *519:A2 *519:B1_N 5.07314e-05
*RES
1 *518:Y *519:B1_N 23.9358 
*END

*D_NET *85 0.001771
*CONN
*I *521:A I *D sky130_fd_sc_hd__nand2_1
*I *519:Y O *D sky130_fd_sc_hd__o21bai_1
*CAP
1 *521:A 0.00060681
2 *519:Y 0.00060681
3 *521:A *726:RESET_B 5.62448e-05
4 *521:A *356:73 1.51695e-05
5 *521:A *463:22 2.81584e-05
6 *519:B1_N *521:A 0.000164829
7 *726:D *521:A 0.000282622
8 *56:112 *521:A 0
9 *65:103 *521:A 1.03594e-05
*RES
1 *519:Y *521:A 41.4104 
*END

*D_NET *86 0.00114783
*CONN
*I *521:B I *D sky130_fd_sc_hd__nand2_1
*I *520:Y O *D sky130_fd_sc_hd__nand3_1
*CAP
1 *521:B 0.000205764
2 *520:Y 0.000205764
3 *521:B *529:A 0.000389896
4 *521:B *636:B 0.000169495
5 *521:B *728:RESET_B 0.000112228
6 *728:D *521:B 6.46815e-05
*RES
1 *520:Y *521:B 25.7564 
*END

*D_NET *87 0.000724163
*CONN
*I *523:B1_N I *D sky130_fd_sc_hd__o21bai_1
*I *522:Y O *D sky130_fd_sc_hd__inv_1
*CAP
1 *523:B1_N 0.000121685
2 *522:Y 0.000121685
3 *523:B1_N *525:A 0.000175485
4 *70:237 *523:B1_N 0.000250949
5 *72:36 *523:B1_N 5.43595e-05
*RES
1 *522:Y *523:B1_N 23.3812 
*END

*D_NET *88 0.000556148
*CONN
*I *525:A I *D sky130_fd_sc_hd__nand2_1
*I *523:Y O *D sky130_fd_sc_hd__o21bai_1
*CAP
1 *525:A 0.000187268
2 *523:Y 0.000187268
3 *523:B1_N *525:A 0.000175485
4 *72:36 *525:A 6.12686e-06
*RES
1 *523:Y *525:A 22.2841 
*END

*D_NET *89 0.000434792
*CONN
*I *525:B I *D sky130_fd_sc_hd__nand2_1
*I *524:Y O *D sky130_fd_sc_hd__nand3_1
*CAP
1 *525:B 0.000126369
2 *524:Y 0.000126369
3 *525:B *356:8 6.80864e-05
4 *72:16 *525:B 0
5 *72:36 *525:B 0.000113968
*RES
1 *524:Y *525:B 31.4388 
*END

*D_NET *90 0.000825255
*CONN
*I *527:B1_N I *D sky130_fd_sc_hd__o21bai_1
*I *526:Y O *D sky130_fd_sc_hd__inv_1
*CAP
1 *527:B1_N 0.000312544
2 *526:Y 0.000312544
3 *527:B1_N *529:A 6.55124e-05
4 *527:B1_N *639:B 1.15318e-05
5 *527:B1_N *176:24 8.99606e-05
6 *527:B1_N *222:6 2.58757e-05
7 *527:A1 *527:B1_N 7.28567e-06
8 *54:25 *527:B1_N 0
*RES
1 *526:Y *527:B1_N 32.8575 
*END

*D_NET *91 0.0016355
*CONN
*I *529:A I *D sky130_fd_sc_hd__nand2_1
*I *527:Y O *D sky130_fd_sc_hd__o21bai_1
*CAP
1 *529:A 0.000247125
2 *527:Y 0.000247125
3 *529:A *636:B 0.000226487
4 *529:A *176:24 3.13805e-06
5 *521:B *529:A 0.000389896
6 *527:B1_N *529:A 6.55124e-05
7 *636:A *529:A 5.81266e-05
8 *636:C *529:A 0.000141801
9 *65:103 *529:A 0.000256285
*RES
1 *527:Y *529:A 30.4584 
*END

*D_NET *92 0.00100655
*CONN
*I *529:B I *D sky130_fd_sc_hd__nand2_1
*I *528:Y O *D sky130_fd_sc_hd__nand3_1
*CAP
1 *529:B 0.000356459
2 *528:Y 0.000356459
3 *529:B *520:B 6.71804e-05
4 *529:B *528:B 0.000203595
5 *529:B *355:35 1.94615e-05
6 *529:B *356:73 0
7 *508:A *529:B 3.39298e-06
*RES
1 *528:Y *529:B 34.3239 
*END

*D_NET *93 0.000856216
*CONN
*I *531:B1_N I *D sky130_fd_sc_hd__o21bai_1
*I *530:Y O *D sky130_fd_sc_hd__inv_1
*CAP
1 *531:B1_N 0.000212606
2 *530:Y 0.000212606
3 *531:B1_N *530:A 2.58026e-05
4 *531:B1_N *533:A 0.000175485
5 *519:A1 *531:B1_N 6.49003e-05
6 *531:A2 *531:B1_N 0.000164815
*RES
1 *530:Y *531:B1_N 25.045 
*END

*D_NET *94 0.00114894
*CONN
*I *533:A I *D sky130_fd_sc_hd__nand2_1
*I *531:Y O *D sky130_fd_sc_hd__o21bai_1
*CAP
1 *533:A 0.000333105
2 *531:Y 0.000333105
3 *533:A *744:RESET_B 9.12416e-06
4 *533:A *755:RESET_B 0.000169667
5 *533:A *356:433 0.000128452
6 *531:B1_N *533:A 0.000175485
7 *571:A1 *533:A 0
8 *56:110 *533:A 0
*RES
1 *531:Y *533:A 35.4548 
*END

*D_NET *95 0.00264363
*CONN
*I *533:B I *D sky130_fd_sc_hd__nand2_1
*I *532:Y O *D sky130_fd_sc_hd__nand3_1
*CAP
1 *533:B 0.000623536
2 *532:Y 0.000623536
3 *533:B *510:A 2.6874e-05
4 *533:B *573:A 0.000210531
5 *533:B *706:A 6.71644e-05
6 *533:B *731:RESET_B 9.92656e-05
7 *533:B *355:112 5.99359e-05
8 *533:B *355:133 6.08467e-05
9 *511:A1 *533:B 0.000112361
10 *511:B1_N *533:B 0.000524974
11 *513:A *533:B 2.30636e-05
12 *532:A *533:B 0.000211539
*RES
1 *532:Y *533:B 38.681 
*END

*D_NET *96 0.000348929
*CONN
*I *535:B1_N I *D sky130_fd_sc_hd__o21bai_1
*I *534:Y O *D sky130_fd_sc_hd__inv_1
*CAP
1 *535:B1_N 9.79488e-05
2 *534:Y 9.79488e-05
3 *535:B1_N *534:A 7.01935e-06
4 *535:B1_N *645:B 6.11286e-06
5 *523:A2 *535:B1_N 0.000118017
6 *65:177 *535:B1_N 2.18821e-05
*RES
1 *534:Y *535:B1_N 30.1916 
*END

*D_NET *97 0.00179969
*CONN
*I *537:A I *D sky130_fd_sc_hd__nand2_1
*I *535:Y O *D sky130_fd_sc_hd__o21bai_1
*CAP
1 *537:A 0.000747669
2 *535:Y 0.000747669
3 *537:A *725:CLK 0.000143027
4 *515:A1 *537:A 1.22085e-05
5 *515:B1_N *537:A 8.63397e-05
6 *535:A2 *537:A 6.27782e-05
*RES
1 *535:Y *537:A 44.2188 
*END

*D_NET *98 0.000246973
*CONN
*I *537:B I *D sky130_fd_sc_hd__nand2_1
*I *536:Y O *D sky130_fd_sc_hd__nand3_1
*CAP
1 *537:B 0.000123486
2 *536:Y 0.000123486
*RES
1 *536:Y *537:B 21.4883 
*END

*D_NET *99 0.000750431
*CONN
*I *539:B1_N I *D sky130_fd_sc_hd__o21bai_1
*I *538:Y O *D sky130_fd_sc_hd__inv_1
*CAP
1 *539:B1_N 0.000331429
2 *538:Y 0.000331429
3 *539:B1_N *631:A 0
4 *731:D *539:B1_N 0
5 *53:215 *539:B1_N 8.75727e-05
6 *54:113 *539:B1_N 0
*RES
1 *538:Y *539:B1_N 34.0683 
*END

*D_NET *100 0.00156303
*CONN
*I *541:A I *D sky130_fd_sc_hd__nand2_1
*I *539:Y O *D sky130_fd_sc_hd__o21bai_1
*CAP
1 *541:A 0.000651686
2 *539:Y 0.000651686
3 *541:A *541:B 4.80635e-06
4 *541:A *631:A 0
5 *541:A *755:CLK 9.14834e-05
6 *541:A *355:10 0
7 *731:D *541:A 1.4091e-06
8 *56:102 *541:A 0.000161956
*RES
1 *539:Y *541:A 38.4156 
*END

*D_NET *101 0.000160681
*CONN
*I *541:B I *D sky130_fd_sc_hd__nand2_1
*I *540:Y O *D sky130_fd_sc_hd__nand3_1
*CAP
1 *541:B 7.79371e-05
2 *540:Y 7.79371e-05
3 *502:A *541:B 0
4 *541:A *541:B 4.80635e-06
*RES
1 *540:Y *541:B 20.3791 
*END

*D_NET *102 0.00020608
*CONN
*I *543:B1_N I *D sky130_fd_sc_hd__o21bai_1
*I *542:Y O *D sky130_fd_sc_hd__inv_1
*CAP
1 *543:B1_N 5.97612e-05
2 *542:Y 5.97612e-05
3 *65:40 *543:B1_N 8.65578e-05
*RES
1 *542:Y *543:B1_N 19.499 
*END

*D_NET *103 0.00231921
*CONN
*I *545:A I *D sky130_fd_sc_hd__nand2_1
*I *543:Y O *D sky130_fd_sc_hd__o21bai_1
*CAP
1 *545:A 0.000945887
2 *543:Y 0.000945887
3 *545:A *542:A 0.000191281
4 *545:A *545:B 4.76161e-06
5 *545:A *214:12 1.03403e-05
6 *732:D *545:A 0.000208606
7 *65:40 *545:A 1.2448e-05
*RES
1 *543:Y *545:A 34.413 
*END

*D_NET *104 0.00020951
*CONN
*I *545:B I *D sky130_fd_sc_hd__nand2_1
*I *544:Y O *D sky130_fd_sc_hd__nand3_1
*CAP
1 *545:B 6.60651e-05
2 *544:Y 6.60651e-05
3 *544:A *545:B 5.79081e-05
4 *544:C *545:B 1.47096e-05
5 *545:A *545:B 4.76161e-06
*RES
1 *544:Y *545:B 20.9337 
*END

*D_NET *105 0.00116541
*CONN
*I *547:B1_N I *D sky130_fd_sc_hd__o21bai_1
*I *546:Y O *D sky130_fd_sc_hd__inv_1
*CAP
1 *547:B1_N 0.000338265
2 *546:Y 0.000338265
3 *547:B1_N *549:A 0.000266862
4 *547:B1_N *747:CLK 0.000120245
5 *547:B1_N *750:RESET_B 4.92552e-05
6 *547:B1_N *354:8 3.89332e-06
7 *547:B1_N *356:538 3.41725e-05
8 *65:52 *547:B1_N 1.44467e-05
*RES
1 *546:Y *547:B1_N 36.2867 
*END

*D_NET *106 0.00111029
*CONN
*I *549:A I *D sky130_fd_sc_hd__nand2_1
*I *547:Y O *D sky130_fd_sc_hd__o21bai_1
*CAP
1 *549:A 0.000264166
2 *547:Y 0.000264166
3 *549:A *750:CLK 2.44969e-05
4 *549:A *354:8 5.96936e-05
5 *549:A *354:147 6.18656e-05
6 *547:A2 *549:A 0.000169041
7 *547:B1_N *549:A 0.000266862
*RES
1 *547:Y *549:A 35.3154 
*END

*D_NET *107 0.000161553
*CONN
*I *549:B I *D sky130_fd_sc_hd__nand2_1
*I *548:Y O *D sky130_fd_sc_hd__nand3_1
*CAP
1 *549:B 6.7114e-05
2 *548:Y 6.7114e-05
3 *549:B *747:CLK 5.04829e-06
4 *548:A *549:B 1.72461e-05
5 *733:D *549:B 5.03013e-06
*RES
1 *548:Y *549:B 20.3791 
*END

*D_NET *108 0.00167391
*CONN
*I *551:B1_N I *D sky130_fd_sc_hd__o21bai_1
*I *550:Y O *D sky130_fd_sc_hd__inv_1
*CAP
1 *551:B1_N 0.000108538
2 *550:Y 0.000108538
3 *551:B1_N *624:B 0.000726061
4 *54:161 *551:B1_N 0.000730775
*RES
1 *550:Y *551:B1_N 26.7088 
*END

*D_NET *109 0.000864781
*CONN
*I *553:A I *D sky130_fd_sc_hd__nand2_1
*I *551:Y O *D sky130_fd_sc_hd__o21bai_1
*CAP
1 *553:A 0.000253907
2 *551:Y 0.000253907
3 *553:A *553:B 1.03594e-05
4 *551:A1 *553:A 6.27782e-05
5 *54:161 *553:A 1.04731e-05
6 *56:34 *553:A 0.000273356
*RES
1 *551:Y *553:A 32.6874 
*END

*D_NET *110 0.000788592
*CONN
*I *553:B I *D sky130_fd_sc_hd__nand2_1
*I *552:Y O *D sky130_fd_sc_hd__nand3_1
*CAP
1 *553:B 0.000233264
2 *552:Y 0.000233264
3 *553:B *618:B 0
4 *553:B *358:55 2.56512e-05
5 *548:C *553:B 0.000164829
6 *553:A *553:B 1.03594e-05
7 *618:A *553:B 3.44412e-06
8 *56:24 *553:B 8.89094e-05
9 *56:34 *553:B 2.88718e-05
*RES
1 *552:Y *553:B 32.7262 
*END

*D_NET *111 0.00024943
*CONN
*I *555:B1_N I *D sky130_fd_sc_hd__o21bai_1
*I *554:Y O *D sky130_fd_sc_hd__inv_1
*CAP
1 *555:B1_N 5.32931e-05
2 *554:Y 5.32931e-05
3 *555:B1_N *554:A 0.000142844
*RES
1 *554:Y *555:B1_N 20.0536 
*END

*D_NET *112 0.0017639
*CONN
*I *557:A I *D sky130_fd_sc_hd__nand2_1
*I *555:Y O *D sky130_fd_sc_hd__o21bai_1
*CAP
1 *557:A 0.000380133
2 *555:Y 0.000380133
3 *557:A *554:A 1.43832e-05
4 *557:A *557:B 1.64789e-05
5 *557:A *561:A 0.000576922
6 *557:A *354:16 0.000254493
7 *557:A *356:630 0
8 *555:A2 *557:A 6.48357e-05
9 *65:25 *557:A 1.32772e-05
10 *65:34 *557:A 6.32436e-05
*RES
1 *555:Y *557:A 41.4696 
*END

*D_NET *113 0.000362601
*CONN
*I *557:B I *D sky130_fd_sc_hd__nand2_1
*I *556:Y O *D sky130_fd_sc_hd__nand3_1
*CAP
1 *557:B 8.51286e-05
2 *556:Y 8.51286e-05
3 *557:B *561:A 0.000111722
4 *557:B *354:16 2.65831e-05
5 *557:A *557:B 1.64789e-05
6 *72:159 *557:B 3.75603e-05
*RES
1 *556:Y *557:B 21.4883 
*END

*D_NET *114 0.000702072
*CONN
*I *559:B1_N I *D sky130_fd_sc_hd__o21bai_1
*I *558:Y O *D sky130_fd_sc_hd__inv_1
*CAP
1 *559:B1_N 0.000157894
2 *558:Y 0.000157894
3 *559:B1_N *354:16 0.000386284
*RES
1 *558:Y *559:B1_N 22.8266 
*END

*D_NET *115 0.00209971
*CONN
*I *561:A I *D sky130_fd_sc_hd__nand2_1
*I *559:Y O *D sky130_fd_sc_hd__o21bai_1
*CAP
1 *561:A 0.000562688
2 *559:Y 0.000562688
3 *561:A *354:16 3.79454e-05
4 *561:A *354:18 0.000111343
5 *561:A *354:20 1.07248e-05
6 *557:A *561:A 0.000576922
7 *557:B *561:A 0.000111722
8 *70:119 *561:A 0.00012568
*RES
1 *559:Y *561:A 38.788 
*END

*D_NET *116 0.000155712
*CONN
*I *561:B I *D sky130_fd_sc_hd__nand2_1
*I *560:Y O *D sky130_fd_sc_hd__nand3_1
*CAP
1 *561:B 5.50823e-05
2 *560:Y 5.50823e-05
3 *560:A *561:B 2.93844e-05
4 *72:159 *561:B 1.61631e-05
*RES
1 *560:Y *561:B 20.3791 
*END

*D_NET *117 0.00166735
*CONN
*I *563:B1_N I *D sky130_fd_sc_hd__o21bai_1
*I *562:Y O *D sky130_fd_sc_hd__inv_1
*CAP
1 *563:B1_N 0.00048174
2 *562:Y 0.00048174
3 *563:B1_N *565:A 0.000122378
4 *563:B1_N *598:B 0.000122378
5 *563:B1_N *598:C 2.65667e-05
6 *563:B1_N *621:B 9.27759e-06
7 *563:B1_N *745:CLK 1.53438e-05
8 *563:B1_N *216:10 6.08467e-05
9 *563:B1_N *356:517 7.04109e-05
10 *65:62 *563:B1_N 0.000208746
11 *65:70 *563:B1_N 6.79171e-05
*RES
1 *562:Y *563:B1_N 38.066 
*END

*D_NET *118 0.00122097
*CONN
*I *565:A I *D sky130_fd_sc_hd__nand2_1
*I *563:Y O *D sky130_fd_sc_hd__o21bai_1
*CAP
1 *565:A 0.000476788
2 *563:Y 0.000476788
3 *565:A *724:RESET_B 1.36876e-05
4 *565:A *738:RESET_B 2.44969e-05
5 *565:A *125:16 1.87757e-05
6 *563:B1_N *565:A 0.000122378
7 *65:14 *565:A 5.01107e-05
8 *65:70 *565:A 3.7947e-05
*RES
1 *563:Y *565:A 36.015 
*END

*D_NET *119 0.00156226
*CONN
*I *565:B I *D sky130_fd_sc_hd__nand2_1
*I *564:Y O *D sky130_fd_sc_hd__nand3_1
*CAP
1 *565:B 0.00051211
2 *564:Y 0.00051211
3 *565:B *737:CLK 0.000467999
4 *489:A *565:B 3.20544e-05
5 *59:12 *565:B 3.79836e-05
*RES
1 *564:Y *565:B 30.7478 
*END

*D_NET *120 0.00112915
*CONN
*I *567:B1_N I *D sky130_fd_sc_hd__o21bai_1
*I *566:Y O *D sky130_fd_sc_hd__inv_1
*CAP
1 *567:B1_N 0.000447631
2 *566:Y 0.000447631
3 *567:B1_N *566:A 3.86483e-05
4 *567:B1_N *738:RESET_B 5.52256e-05
5 *54:161 *567:B1_N 1.16167e-05
6 *54:177 *567:B1_N 1.51559e-05
7 *65:14 *567:B1_N 0.000113237
*RES
1 *566:Y *567:B1_N 35.1831 
*END

*D_NET *121 0.00154368
*CONN
*I *569:A I *D sky130_fd_sc_hd__nand2_1
*I *567:Y O *D sky130_fd_sc_hd__o21bai_1
*CAP
1 *569:A 0.000613406
2 *567:Y 0.000613406
3 *569:A *354:22 0.00012136
4 *569:A *354:48 0.000188486
5 *567:A2 *569:A 7.01935e-06
*RES
1 *567:Y *569:A 38.2334 
*END

*D_NET *122 0.000335145
*CONN
*I *569:B I *D sky130_fd_sc_hd__nand2_1
*I *568:Y O *D sky130_fd_sc_hd__nand3_1
*CAP
1 *569:B 0.000111392
2 *568:Y 0.000111392
3 *568:A *569:B 0.000112361
*RES
1 *568:Y *569:B 21.4883 
*END

*D_NET *123 0.00080905
*CONN
*I *571:B1_N I *D sky130_fd_sc_hd__o21bai_1
*I *570:Y O *D sky130_fd_sc_hd__inv_1
*CAP
1 *571:B1_N 0.000294056
2 *570:Y 0.000294056
3 *571:B1_N *570:A 2.46912e-05
4 *571:B1_N *573:A 0.00016386
5 *571:A1 *571:B1_N 3.23874e-05
*RES
1 *570:Y *571:B1_N 25.5996 
*END

*D_NET *124 0.0016158
*CONN
*I *573:A I *D sky130_fd_sc_hd__nand2_1
*I *571:Y O *D sky130_fd_sc_hd__o21bai_1
*CAP
1 *573:A 0.000533377
2 *571:Y 0.000533377
3 *573:A *573:B 5.22654e-06
4 *573:A *631:A 0.000159354
5 *573:A *731:RESET_B 1.00766e-05
6 *533:B *573:A 0.000210531
7 *571:B1_N *573:A 0.00016386
*RES
1 *571:Y *573:A 38.7022 
*END

*D_NET *125 0.00557616
*CONN
*I *573:B I *D sky130_fd_sc_hd__nand2_1
*I *572:Y O *D sky130_fd_sc_hd__nand3_1
*CAP
1 *573:B 0.000203396
2 *572:Y 0.00154331
3 *125:16 0.0017467
4 *573:B *598:A 0
5 *573:B *621:B 0.000115874
6 *573:B *631:A 0.000105561
7 *573:B *356:517 0
8 *125:16 *488:A 2.8457e-05
9 *125:16 *745:CLK 0.000746873
10 *125:16 *126:51 0.000502979
11 *125:16 *131:6 1.43983e-05
12 *491:A *125:16 2.82583e-05
13 *491:B *125:16 0.000111722
14 *492:A *125:16 4.06024e-06
15 *565:A *125:16 1.87757e-05
16 *573:A *573:B 5.22654e-06
17 *744:D *125:16 6.08467e-05
18 *60:14 *125:16 1.65872e-05
19 *65:14 *125:16 0.000165521
20 *65:62 *125:16 1.90281e-05
21 *65:70 *125:16 0.00013858
*RES
1 *572:Y *125:16 44.7828 
2 *125:16 *573:B 19.7337 
*END

*D_NET *126 0.0260598
*CONN
*I *626:C I *D sky130_fd_sc_hd__nand3_1
*I *592:B I *D sky130_fd_sc_hd__nand2_1
*I *623:C I *D sky130_fd_sc_hd__nand3_1
*I *578:A1 I *D sky130_fd_sc_hd__o21ai_0
*I *629:C I *D sky130_fd_sc_hd__nand3_1
*I *644:C I *D sky130_fd_sc_hd__nand3_1
*I *638:C I *D sky130_fd_sc_hd__nand3_1
*I *635:C I *D sky130_fd_sc_hd__nand3_1
*I *641:C I *D sky130_fd_sc_hd__nand3_1
*I *647:C I *D sky130_fd_sc_hd__nand3_1
*I *587:A I *D sky130_fd_sc_hd__nand3_1
*I *604:C I *D sky130_fd_sc_hd__nand3_1
*I *617:C I *D sky130_fd_sc_hd__nand3_1
*I *607:C I *D sky130_fd_sc_hd__nand3_1
*I *620:C I *D sky130_fd_sc_hd__nand3_1
*I *614:C I *D sky130_fd_sc_hd__nand3_1
*I *598:C I *D sky130_fd_sc_hd__nand3_1
*I *632:C I *D sky130_fd_sc_hd__nand3_1
*I *601:C I *D sky130_fd_sc_hd__nand3_1
*I *574:Y O *D sky130_fd_sc_hd__nand2_1
*CAP
1 *626:C 4.73577e-05
2 *592:B 0.000396515
3 *623:C 2.50285e-05
4 *578:A1 0.00033582
5 *629:C 8.75146e-05
6 *644:C 0
7 *638:C 0
8 *635:C 0.000191483
9 *641:C 0.00048634
10 *647:C 0
11 *587:A 0.000274393
12 *604:C 0.00021451
13 *617:C 0
14 *607:C 0
15 *620:C 2.19858e-05
16 *614:C 6.68448e-05
17 *598:C 1.26553e-05
18 *632:C 0.000585408
19 *601:C 8.9732e-05
20 *574:Y 0
21 *126:194 0.000839128
22 *126:186 0.000280792
23 *126:158 0.000525152
24 *126:152 0.000499701
25 *126:150 0.000395034
26 *126:148 0.000413921
27 *126:146 0.000573635
28 *126:144 0.000236062
29 *126:142 0.00105774
30 *126:132 0.00106512
31 *126:110 0.000776979
32 *126:51 0.00114747
33 *126:30 0.000894876
34 *126:28 0.000553946
35 *126:22 0.000391488
36 *126:20 0.000252008
37 *126:18 0.00124217
38 *126:4 0.000956405
39 *578:A1 *578:B1 1.0759e-05
40 *578:A1 *627:B 1.43832e-05
41 *578:A1 *629:A 0.000273505
42 *578:A1 *629:B 2.09463e-05
43 *587:A *610:A 7.65399e-05
44 *587:A *176:24 0.000138632
45 *592:B *623:B 0.000795549
46 *598:C *745:CLK 6.50586e-05
47 *601:C *621:B 2.16355e-05
48 *601:C *631:A 4.54443e-05
49 *601:C *744:RESET_B 6.50586e-05
50 *601:C *360:12 7.14746e-05
51 *604:C *604:B 1.27881e-05
52 *623:C *623:A 2.16355e-05
53 *626:C *614:B 5.04829e-06
54 *626:C *626:A 2.16608e-05
55 *626:C *626:B 1.54783e-05
56 *629:C *627:B 6.27782e-05
57 *632:C *598:A 8.74906e-05
58 *632:C *745:CLK 0
59 *632:C *355:27 0
60 *632:C *355:133 8.70662e-06
61 *632:C *355:144 6.14147e-05
62 *635:C *637:A 0.000215892
63 *635:C *481:52 3.32903e-05
64 *641:C *638:A 6.93171e-05
65 *641:C *646:A 4.24488e-05
66 *641:C *646:B 3.00829e-05
67 *641:C *647:B 3.88063e-05
68 *641:C *757:RESET_B 5.37479e-05
69 *641:C *902:A 2.68666e-06
70 *641:C *353:106 1.37189e-05
71 *126:18 *747:RESET_B 2.58616e-05
72 *126:18 *363:8 6.27782e-05
73 *126:20 *481:206 0
74 *126:22 *620:B 8.62625e-06
75 *126:28 *620:A 9.57611e-05
76 *126:28 *620:B 4.61962e-05
77 *126:28 *213:12 6.23012e-05
78 *126:30 *614:A 1.94615e-05
79 *126:30 *213:12 3.20407e-05
80 *126:30 *360:12 0.000232035
81 *126:51 *598:A 7.50872e-05
82 *126:51 *745:CLK 5.73392e-05
83 *126:51 *481:133 1.4091e-06
84 *126:110 *604:B 0.000644553
85 *126:110 *616:B 0.000414822
86 *126:110 *617:B 9.81477e-05
87 *126:110 *892:A 9.626e-05
88 *126:110 *365:10 4.04935e-05
89 *126:132 *606:B 0
90 *126:132 *613:A 2.18679e-05
91 *126:132 *613:B 3.94515e-05
92 *126:132 *454:14 0
93 *126:132 *481:166 8.72115e-06
94 *126:132 *481:179 4.35596e-05
95 *126:132 *481:198 0.000171251
96 *126:142 *752:CLK 6.51164e-05
97 *126:142 *753:CLK 0.000107496
98 *126:142 *352:35 0.000110458
99 *126:142 *454:14 3.39313e-06
100 *126:142 *481:121 4.86994e-05
101 *126:142 *481:125 0.000114584
102 *126:142 *481:166 5.65046e-05
103 *126:150 *644:A 1.32509e-05
104 *126:150 *353:24 0.000196346
105 *126:150 *353:26 0.000188012
106 *126:152 *644:A 3.67528e-06
107 *126:152 *353:26 0.000239153
108 *126:158 *647:B 1.64913e-05
109 *126:158 *176:24 6.27782e-05
110 *126:158 *353:26 0.000136572
111 *126:158 *353:32 0.000190174
112 *126:186 *633:B 2.58757e-05
113 *126:186 *635:A 7.00649e-05
114 *126:186 *637:A 6.27718e-05
115 *126:186 *356:120 0.000352545
116 *126:194 *635:A 9.37992e-05
117 *126:194 *638:A 3.88415e-05
118 *126:194 *759:RESET_B 7.64213e-06
119 *486:A *126:132 8.52652e-05
120 *486:C *126:18 4.24629e-05
121 *563:B1_N *598:C 2.65667e-05
122 *574:A *126:132 2.41274e-06
123 *574:B *126:18 2.30636e-05
124 *587:C *587:A 9.82609e-05
125 *605:A *126:20 1.87469e-05
126 *612:A *614:C 2.58757e-05
127 *621:A *126:142 0
128 *627:A *629:C 4.89251e-05
129 *633:A *126:186 0.000112361
130 *731:D *632:C 7.63627e-05
131 *744:D *632:C 0.000120544
132 *746:D *604:C 3.00835e-06
133 *747:D *126:20 1.71317e-05
134 *747:D *126:110 1.67286e-05
135 *749:D *126:28 3.40414e-05
136 *749:D *126:30 3.00174e-06
137 *752:D *126:142 0.000130777
138 *755:D *632:C 1.61918e-05
139 *759:D *126:150 4.12533e-05
140 *760:D *126:158 5.15962e-05
141 *53:77 *587:A 0.000213739
142 *53:94 *587:A 6.32836e-05
143 *53:94 *126:158 0
144 *53:120 *126:150 0
145 *53:120 *126:152 0
146 *53:133 *126:148 0
147 *53:133 *126:150 0
148 *53:152 *623:C 2.16355e-05
149 *53:152 *126:142 1.06618e-05
150 *53:152 *126:146 0
151 *53:177 *626:C 0.000111802
152 *53:177 *126:142 0
153 *53:195 *126:30 4.64038e-06
154 *53:197 *126:30 4.37397e-05
155 *53:203 *601:C 0.000131793
156 *53:203 *126:30 0.000197467
157 *53:225 *632:C 0.000316801
158 *53:320 *126:132 0.000225141
159 *53:352 *126:132 6.17846e-05
160 *54:12 *587:A 0
161 *54:68 *126:150 0.000118116
162 *54:85 *126:146 0.000284756
163 *54:85 *126:148 9.17887e-05
164 *54:85 *126:150 9.12416e-06
165 *54:113 *632:C 0.000426102
166 *56:16 *620:C 6.50586e-05
167 *56:16 *126:20 0
168 *56:16 *126:22 0
169 *56:38 *632:C 0
170 *56:42 *632:C 0
171 *56:65 *632:C 0.000329333
172 *125:16 *126:51 0.000502979
*RES
1 *574:Y *126:4 9.24915 
2 *126:4 *126:18 14.6611 
3 *126:18 *126:20 2.6625 
4 *126:20 *126:22 3.07775 
5 *126:22 *126:28 6.8883 
6 *126:28 *126:30 8.89128 
7 *126:30 *601:C 17.135 
8 *126:30 *126:51 19.0828 
9 *126:51 *632:C 35.3178 
10 *126:51 *598:C 14.4725 
11 *126:28 *614:C 15.0513 
12 *126:22 *620:C 14.4725 
13 *126:20 *607:C 13.7491 
14 *126:18 *126:110 23.594 
15 *126:110 *617:C 9.24915 
16 *126:110 *604:C 13.2037 
17 *126:4 *126:132 17.8519 
18 *126:132 *126:142 25.0229 
19 *126:142 *126:144 0.732798 
20 *126:144 *126:146 5.56926 
21 *126:146 *126:148 1.832 
22 *126:148 *126:150 9.30653 
23 *126:150 *126:152 4.32351 
24 *126:152 *126:158 12.0384 
25 *126:158 *587:A 26.013 
26 *126:158 *647:C 9.24915 
27 *126:152 *126:186 9.66022 
28 *126:186 *126:194 8.09071 
29 *126:194 *641:C 22.014 
30 *126:194 *635:C 17.2697 
31 *126:186 *638:C 9.24915 
32 *126:150 *644:C 13.7491 
33 *126:148 *629:C 16.1364 
34 *126:146 *578:A1 19.898 
35 *126:144 *623:C 14.4725 
36 *126:142 *592:B 25.75 
37 *126:132 *626:C 15.6059 
*END

*D_NET *127 0.0188132
*CONN
*I *660:A I *D sky130_fd_sc_hd__nand2_1
*I *657:A I *D sky130_fd_sc_hd__nand2_1
*I *650:A I *D sky130_fd_sc_hd__nand2_1
*I *678:A I *D sky130_fd_sc_hd__nand2_1
*I *683:A I *D sky130_fd_sc_hd__nand2_1
*I *654:A I *D sky130_fd_sc_hd__nand2_1
*I *675:A I *D sky130_fd_sc_hd__nand2_1
*I *669:A I *D sky130_fd_sc_hd__nand2_1
*I *666:A I *D sky130_fd_sc_hd__nand2_1
*I *672:A I *D sky130_fd_sc_hd__nand2_1
*I *663:A I *D sky130_fd_sc_hd__nand2_1
*I *590:A I *D sky130_fd_sc_hd__nand2_1
*I *581:B1 I *D sky130_fd_sc_hd__o21ai_0
*I *915:A I *D sky130_fd_sc_hd__buf_4
*I *575:Y O *D sky130_fd_sc_hd__inv_1
*CAP
1 *660:A 0.00073808
2 *657:A 0.000116325
3 *650:A 3.2179e-05
4 *678:A 3.12344e-05
5 *683:A 0.000507393
6 *654:A 0
7 *675:A 0.000657518
8 *669:A 0
9 *666:A 8.23935e-05
10 *672:A 0.000126149
11 *663:A 0
12 *590:A 2.31818e-05
13 *581:B1 0.000304057
14 *915:A 0.000445283
15 *575:Y 0
16 *127:155 0.000929942
17 *127:147 0.000780807
18 *127:141 0.000556472
19 *127:139 0.00111571
20 *127:109 0.000832678
21 *127:105 0.000614103
22 *127:96 0.000417132
23 *127:81 0.000526796
24 *127:64 0.000442677
25 *127:53 0.000429528
26 *127:42 0.000492873
27 *127:27 0.000883253
28 *127:4 0.000839207
29 *581:B1 *699:A 5.67063e-05
30 *581:B1 *717:A 0
31 *581:B1 *885:A 0.000161204
32 *581:B1 *335:12 7.69657e-05
33 *590:A *359:48 6.50586e-05
34 *650:A *650:B 4.31603e-06
35 *650:A *653:A 6.46163e-06
36 *650:A *662:A 0
37 *657:A *764:CLK 1.72464e-05
38 *657:A *863:A 0
39 *660:A *660:B 5.62489e-05
40 *660:A *662:A 0.000191066
41 *666:A *666:B 7.1802e-05
42 *666:A *668:A 1.38616e-05
43 *666:A *879:A 0.000149688
44 *675:A tl_o[57] 3.00174e-06
45 *675:A *654:B 2.58616e-05
46 *675:A *656:A 6.08467e-05
47 *675:A *656:B 0.00026268
48 *675:A *677:A 1.03434e-05
49 *675:A *677:B 1.00937e-05
50 *675:A *763:CLK 0.000232942
51 *678:A *678:B 1.57614e-05
52 *678:A *680:A 0
53 *683:A tl_o[62] 6.92705e-05
54 *683:A *678:B 1.00846e-05
55 *683:A *680:A 0.000359479
56 *683:A *683:B 5.80492e-05
57 *915:A *743:CLK 7.80575e-05
58 *915:A *894:A 0.000425962
59 *915:A *346:12 2.57847e-05
60 *915:A *356:331 3.16415e-05
61 *915:A *481:8 0.000122378
62 *915:A *481:14 0
63 *915:A *481:111 0
64 *127:27 *359:17 0.000118116
65 *127:42 tl_o[28] 0
66 *127:42 tl_o[30] 0
67 *127:42 *885:A 5.42307e-05
68 *127:42 *359:10 0
69 *127:53 *359:10 0
70 *127:53 *359:59 0
71 *127:53 *359:68 0
72 *127:64 *663:B 0.000243676
73 *127:64 *665:A 0.000312812
74 *127:64 *665:B 5.50522e-06
75 *127:64 *879:A 0
76 *127:64 *907:A 0.000115976
77 *127:81 *665:B 0
78 *127:81 *879:A 5.21759e-05
79 *127:81 *907:A 6.27782e-05
80 *127:96 *665:B 0
81 *127:96 *768:RESET_B 0
82 *127:96 *865:A 7.41546e-05
83 *127:96 *908:A 0.000122083
84 *127:96 *356:374 0
85 *127:105 *669:B 0.000209636
86 *127:105 *671:A 1.50924e-05
87 *127:139 *669:B 3.34572e-05
88 *127:139 *765:RESET_B 0
89 *127:139 *768:RESET_B 0.000111159
90 *127:139 *909:A 4.15595e-05
91 *127:139 *352:126 1.28838e-05
92 *127:141 *764:CLK 1.36556e-05
93 *127:141 *765:RESET_B 0
94 *127:141 *352:126 2.66394e-05
95 *127:147 *662:A 0.000159299
96 *127:155 tl_o[49] 0.000161234
97 *127:155 *650:B 7.5301e-06
98 *127:155 *653:A 0.000113968
99 *127:155 *653:B 2.57847e-05
100 *127:155 *716:A 5.53934e-05
101 *127:155 *771:RESET_B 1.22347e-05
102 *127:155 *861:A 0
103 *127:155 *903:A 0.00010103
104 *127:155 *388:12 0.000223511
105 *575:A *915:A 6.19864e-05
106 *575:A *127:27 8.94761e-05
107 *655:A *675:A 7.58194e-05
108 *664:A *127:96 7.23289e-05
109 *741:D *581:B1 0.00011935
110 *765:D *127:147 1.00937e-05
111 *766:D *672:A 2.84892e-05
112 *771:D *683:A 5.65753e-05
113 *53:18 *127:27 0.000295625
114 *53:429 *675:A 5.04423e-06
115 *53:429 *127:96 1.95369e-05
116 *53:429 *127:105 0.000352545
117 *53:429 *127:109 0.000503216
118 *53:444 *127:105 3.96696e-05
*RES
1 *575:Y *127:4 9.24915 
2 *127:4 *915:A 31.6403 
3 *127:4 *127:27 15.6765 
4 *127:27 *581:B1 23.0557 
5 *127:27 *127:42 4.81204 
6 *127:42 *590:A 14.4725 
7 *127:42 *127:53 6.81502 
8 *127:53 *663:A 13.7491 
9 *127:53 *127:64 11.7303 
10 *127:64 *672:A 12.2151 
11 *127:64 *127:81 9.01922 
12 *127:81 *666:A 16.7151 
13 *127:81 *127:96 11.7303 
14 *127:96 *669:A 9.24915 
15 *127:96 *127:105 5.73894 
16 *127:105 *127:109 6.29355 
17 *127:109 *675:A 33.5069 
18 *127:109 *654:A 9.24915 
19 *127:105 *127:139 12.7684 
20 *127:139 *127:141 2.45487 
21 *127:141 *127:147 10.2389 
22 *127:147 *127:155 20.8443 
23 *127:155 *683:A 22.6561 
24 *127:155 *678:A 10.2378 
25 *127:147 *650:A 10.2378 
26 *127:141 *657:A 16.4116 
27 *127:139 *660:A 26.7243 
*END

*D_NET *128 0.000304597
*CONN
*I *493:C I *D sky130_fd_sc_hd__nand3_1
*I *576:X O *D sky130_fd_sc_hd__clkdlybuf4s50_1
*CAP
1 *493:C 0.000139361
2 *576:X 0.000139361
3 *493:C *593:A 2.58757e-05
4 *70:8 *493:C 0
*RES
1 *576:X *493:C 30.0537 
*END

*D_NET *129 0.00112111
*CONN
*I *578:B1 I *D sky130_fd_sc_hd__o21ai_0
*I *577:Y O *D sky130_fd_sc_hd__nand2_1
*CAP
1 *578:B1 0.000271693
2 *577:Y 0.000271693
3 *578:B1 *577:B 6.64392e-05
4 *578:B1 *628:B 0.000474465
5 *578:B1 *629:B 2.60631e-05
6 *578:A1 *578:B1 1.0759e-05
*RES
1 *577:Y *578:B1 26.4556 
*END

*D_NET *130 0.000846772
*CONN
*I *493:A I *D sky130_fd_sc_hd__nand3_1
*I *580:X O *D sky130_fd_sc_hd__clkdlybuf4s50_1
*CAP
1 *493:A 0.000423386
2 *580:X 0.000423386
*RES
1 *580:X *493:A 34.2118 
*END

*D_NET *131 0.00103777
*CONN
*I *499:C I *D sky130_fd_sc_hd__nand3_1
*I *488:A I *D sky130_fd_sc_hd__inv_1
*I *582:X O *D sky130_fd_sc_hd__clkdlybuf4s50_1
*CAP
1 *499:C 1.60582e-05
2 *488:A 0.000201384
3 *582:X 0.000106416
4 *131:6 0.000323858
5 *131:6 *572:B 7.22498e-05
6 *491:A *488:A 0.000216063
7 *491:A *499:C 7.32658e-06
8 *491:B *488:A 7.68538e-06
9 *491:B *499:C 4.80635e-06
10 *492:A *488:A 1.74292e-05
11 *60:14 *488:A 2.16355e-05
12 *125:16 *488:A 2.8457e-05
13 *125:16 *131:6 1.43983e-05
*RES
1 *582:X *131:6 12.191 
2 *131:6 *488:A 15.2473 
3 *131:6 *499:C 9.82786 
*END

*D_NET *132 0.000384657
*CONN
*I *589:A I *D sky130_fd_sc_hd__nor2_1
*I *583:Y O *D sky130_fd_sc_hd__nor2_1
*CAP
1 *589:A 0.00010797
2 *583:Y 0.00010797
3 *589:A *589:B 1.64789e-05
4 *583:B *589:A 0
5 *53:61 *589:A 2.41483e-05
6 *53:77 *589:A 0.000128091
*RES
1 *583:Y *589:A 22.5734 
*END

*D_NET *133 0.00143714
*CONN
*I *585:A1 I *D sky130_fd_sc_hd__a21oi_1
*I *609:A1 I *D sky130_fd_sc_hd__a21oi_1
*I *586:A I *D sky130_fd_sc_hd__nand2_1
*I *584:Y O *D sky130_fd_sc_hd__inv_1
*CAP
1 *585:A1 0
2 *609:A1 0.000142626
3 *586:A 0
4 *584:Y 0.000335098
5 *133:21 0.00020082
6 *133:10 0.000393293
7 *609:A1 *585:B1 0.000122378
8 *133:10 *588:B 1.07248e-05
9 *133:21 *587:B 7.14746e-05
10 *133:21 *588:A 9.75356e-05
11 *133:21 *588:B 2.73906e-05
12 *585:A2 *609:A1 3.58044e-05
13 *54:12 *133:10 0
14 *54:12 *133:21 0
*RES
1 *584:Y *133:10 19.6308 
2 *133:10 *586:A 13.7491 
3 *133:10 *133:21 6.74725 
4 *133:21 *609:A1 11.6364 
5 *133:21 *585:A1 9.24915 
*END

*D_NET *134 0.000889727
*CONN
*I *588:A I *D sky130_fd_sc_hd__nor2_1
*I *585:Y O *D sky130_fd_sc_hd__a21oi_1
*CAP
1 *588:A 0.000249709
2 *585:Y 0.000249709
3 *588:A *586:B 0
4 *588:A *587:B 8.73612e-05
5 *588:A *589:B 3.57639e-05
6 *588:A *742:CLK 3.31733e-05
7 *588:A *425:32 0
8 *585:A2 *588:A 3.53803e-05
9 *609:A2 *588:A 2.57071e-05
10 *53:77 *588:A 7.53873e-05
11 *54:12 *588:A 0
12 *133:21 *588:A 9.75356e-05
*RES
1 *585:Y *588:A 34.6806 
*END

*D_NET *135 0.00100837
*CONN
*I *587:B I *D sky130_fd_sc_hd__nand3_1
*I *586:Y O *D sky130_fd_sc_hd__nand2_1
*CAP
1 *587:B 0.000156564
2 *586:Y 0.000156564
3 *587:B *742:CLK 0.000200251
4 *588:A *587:B 8.73612e-05
5 *53:77 *587:B 0.000336155
6 *133:21 *587:B 7.14746e-05
*RES
1 *586:Y *587:B 34.2062 
*END

*D_NET *136 0.00319711
*CONN
*I *610:B I *D sky130_fd_sc_hd__nor2_1
*I *648:B1 I *D sky130_fd_sc_hd__o21ai_0
*I *588:B I *D sky130_fd_sc_hd__nor2_1
*I *587:Y O *D sky130_fd_sc_hd__nand3_1
*CAP
1 *610:B 6.98084e-05
2 *648:B1 0.000406947
3 *588:B 0.000233598
4 *587:Y 5.0318e-05
5 *136:25 0.000856002
6 *136:6 0.000663162
7 *610:B *761:CLK 0
8 *648:B1 *583:A 2.07503e-05
9 *648:B1 *648:A1 1.26616e-05
10 *648:B1 *761:CLK 0
11 *136:6 *610:A 2.16355e-05
12 *136:25 *610:A 0.000287283
13 *742:D *588:B 4.27003e-05
14 *742:D *648:B1 0
15 *53:48 *648:B1 6.26091e-05
16 *53:61 *648:B1 0.000166937
17 *53:77 *588:B 0.000264583
18 *133:10 *588:B 1.07248e-05
19 *133:21 *588:B 2.73906e-05
*RES
1 *587:Y *136:6 9.97254 
2 *136:6 *588:B 25.284 
3 *136:6 *136:25 11.324 
4 *136:25 *648:B1 22.8283 
5 *136:25 *610:B 15.1659 
*END

*D_NET *137 0.000222666
*CONN
*I *589:B I *D sky130_fd_sc_hd__nor2_1
*I *588:Y O *D sky130_fd_sc_hd__nor2_1
*CAP
1 *589:B 6.45482e-05
2 *588:Y 6.45482e-05
3 *588:A *589:B 3.57639e-05
4 *589:A *589:B 1.64789e-05
5 *53:77 *589:B 4.13267e-05
*RES
1 *588:Y *589:B 20.9096 
*END

*D_NET *138 0.00192185
*CONN
*I *592:A I *D sky130_fd_sc_hd__nand2_1
*I *590:Y O *D sky130_fd_sc_hd__nand2_1
*CAP
1 *592:A 0.000880401
2 *590:Y 0.000880401
3 *592:A *743:CLK 9.32102e-05
4 *592:A *359:37 2.65831e-05
5 *592:A *359:48 3.14978e-05
6 *743:D *592:A 9.75148e-06
*RES
1 *590:Y *592:A 32.2669 
*END

*D_NET *139 0.00027057
*CONN
*I *536:B I *D sky130_fd_sc_hd__nand3_1
*I *591:X O *D sky130_fd_sc_hd__clkdlybuf4s50_1
*CAP
1 *536:B 0.000103899
2 *591:X 0.000103899
3 *536:C *536:B 6.27718e-05
*RES
1 *591:X *536:B 20.8855 
*END

*D_NET *140 0.000745827
*CONN
*I *532:B I *D sky130_fd_sc_hd__nand3_1
*I *593:X O *D sky130_fd_sc_hd__clkdlybuf4s50_1
*CAP
1 *532:B 0.000298413
2 *593:X 0.000298413
3 *532:B *695:A 2.99287e-05
4 *532:B *706:A 1.63652e-05
5 *72:69 *532:B 9.43419e-05
6 *72:92 *532:B 8.36586e-06
*RES
1 *593:X *532:B 32.8267 
*END

*D_NET *141 0.00252015
*CONN
*I *528:B I *D sky130_fd_sc_hd__nand3_1
*I *594:X O *D sky130_fd_sc_hd__clkdlybuf4s50_1
*CAP
1 *528:B 0.000514125
2 *594:X 0.000514125
3 *528:B *508:B 0.000344013
4 *528:B *520:B 0.000452595
5 *528:B *697:A 2.65667e-05
6 *528:B *356:73 0
7 *498:B1_N *528:B 3.17266e-05
8 *505:A *528:B 5.04829e-06
9 *508:A *528:B 3.99086e-06
10 *508:C *528:B 1.58551e-05
11 *529:B *528:B 0.000203595
12 *722:D *528:B 0.000321918
13 *70:227 *528:B 6.36477e-05
14 *70:237 *528:B 2.29454e-05
*RES
1 *594:X *528:B 45.3249 
*END

*D_NET *142 0.000672689
*CONN
*I *598:A I *D sky130_fd_sc_hd__nand3_1
*I *595:Y O *D sky130_fd_sc_hd__nand3_1
*CAP
1 *598:A 0.000172667
2 *595:Y 0.000172667
3 *598:A *356:517 0.000164777
4 *573:B *598:A 0
5 *632:C *598:A 8.74906e-05
6 *126:51 *598:A 7.50872e-05
*RES
1 *595:Y *598:A 33.4828 
*END

*D_NET *143 0.000429807
*CONN
*I *524:B I *D sky130_fd_sc_hd__nand3_1
*I *596:X O *D sky130_fd_sc_hd__clkdlybuf4s50_1
*CAP
1 *524:B 0.000166885
2 *596:X 0.000166885
3 *524:B *356:8 9.60366e-05
*RES
1 *596:X *524:B 30.6083 
*END

*D_NET *144 0.000582095
*CONN
*I *598:B I *D sky130_fd_sc_hd__nand3_1
*I *597:Y O *D sky130_fd_sc_hd__nand2_1
*CAP
1 *598:B 0.000141404
2 *597:Y 0.000141404
3 *598:B *745:CLK 0.000176909
4 *563:B1_N *598:B 0.000122378
*RES
1 *597:Y *598:B 23.1039 
*END

*D_NET *145 0.000536389
*CONN
*I *601:A I *D sky130_fd_sc_hd__nand3_1
*I *599:Y O *D sky130_fd_sc_hd__nand3_1
*CAP
1 *601:A 0.00015601
2 *599:Y 0.00015601
3 *601:A *744:RESET_B 0.000112647
4 *54:95 *601:A 0.000111722
*RES
1 *599:Y *601:A 31.1817 
*END

*D_NET *146 0.00138818
*CONN
*I *601:B I *D sky130_fd_sc_hd__nand3_1
*I *600:Y O *D sky130_fd_sc_hd__nand2_1
*CAP
1 *601:B 0.000457256
2 *600:Y 0.000457256
3 *601:B *600:B 6.08467e-05
4 *601:B *204:22 0.000133886
5 *745:D *601:B 0.000130777
6 *53:203 *601:B 0.000148162
*RES
1 *600:Y *601:B 37.5338 
*END

*D_NET *147 0.000716715
*CONN
*I *604:A I *D sky130_fd_sc_hd__nand3_1
*I *602:Y O *D sky130_fd_sc_hd__nand3_1
*CAP
1 *604:A 0.000190247
2 *602:Y 0.000190247
3 *604:A *548:B 0.000143804
4 *604:A *617:A 0.000114271
5 *746:D *604:A 7.81453e-05
*RES
1 *602:Y *604:A 32.1716 
*END

*D_NET *148 0.00180743
*CONN
*I *604:B I *D sky130_fd_sc_hd__nand3_1
*I *603:Y O *D sky130_fd_sc_hd__nand2_1
*CAP
1 *604:B 0.000567945
2 *603:Y 0.000567945
3 *604:C *604:B 1.27881e-05
4 *746:D *604:B 1.41976e-05
5 *126:110 *604:B 0.000644553
*RES
1 *603:Y *604:B 29.2769 
*END

*D_NET *149 0.000644626
*CONN
*I *607:A I *D sky130_fd_sc_hd__nand3_1
*I *605:Y O *D sky130_fd_sc_hd__nand3_1
*CAP
1 *607:A 7.0443e-05
2 *605:Y 7.0443e-05
3 *607:A *606:B 3.75603e-05
4 *607:A *607:B 1.41291e-05
5 *605:A *607:A 0.000283009
6 *747:D *607:A 0.000169041
*RES
1 *605:Y *607:A 22.4287 
*END

*D_NET *150 0.000277424
*CONN
*I *607:B I *D sky130_fd_sc_hd__nand3_1
*I *606:Y O *D sky130_fd_sc_hd__nand2_1
*CAP
1 *607:B 2.55417e-05
2 *606:Y 2.55417e-05
3 *607:B *606:B 2.65667e-05
4 *486:B *607:B 0.000171273
5 *605:A *607:B 1.43712e-05
6 *607:A *607:B 1.41291e-05
*RES
1 *606:Y *607:B 20.3309 
*END

*D_NET *151 0.00197368
*CONN
*I *611:A I *D sky130_fd_sc_hd__nor2_1
*I *608:Y O *D sky130_fd_sc_hd__nor2_1
*CAP
1 *611:A 0.000850415
2 *608:Y 0.000850415
3 *611:A *611:B 1.59756e-05
4 *611:A *343:8 1.41291e-05
5 *608:B *611:A 0.000174667
6 *748:D *611:A 6.80809e-05
*RES
1 *608:Y *611:A 32.4116 
*END

*D_NET *152 0.0016989
*CONN
*I *610:A I *D sky130_fd_sc_hd__nor2_1
*I *609:Y O *D sky130_fd_sc_hd__a21oi_1
*CAP
1 *610:A 0.000477893
2 *609:Y 0.000477893
3 *610:A *611:B 4.04393e-05
4 *587:A *610:A 7.65399e-05
5 *587:C *610:A 6.92705e-05
6 *609:A2 *610:A 0.000193982
7 *54:12 *610:A 5.39608e-05
8 *136:6 *610:A 2.16355e-05
9 *136:25 *610:A 0.000287283
*RES
1 *609:Y *610:A 43.2489 
*END

*D_NET *153 0.000192844
*CONN
*I *611:B I *D sky130_fd_sc_hd__nor2_1
*I *610:Y O *D sky130_fd_sc_hd__nor2_1
*CAP
1 *611:B 6.82145e-05
2 *610:Y 6.82145e-05
3 *610:A *611:B 4.04393e-05
4 *611:A *611:B 1.59756e-05
*RES
1 *610:Y *611:B 20.355 
*END

*D_NET *154 0.000827362
*CONN
*I *614:A I *D sky130_fd_sc_hd__nand3_1
*I *612:Y O *D sky130_fd_sc_hd__nand3_1
*CAP
1 *614:A 0.000151326
2 *612:Y 0.000151326
3 *614:A *550:A 2.58757e-05
4 *614:A *614:B 3.00829e-05
5 *614:A *213:12 3.20407e-05
6 *612:A *614:A 0.000110458
7 *624:C *614:A 0
8 *54:155 *614:A 0.000306791
9 *126:30 *614:A 1.94615e-05
*RES
1 *612:Y *614:A 32.9902 
*END

*D_NET *155 0.0010327
*CONN
*I *614:B I *D sky130_fd_sc_hd__nand3_1
*I *613:Y O *D sky130_fd_sc_hd__nand2_1
*CAP
1 *614:B 0.000164441
2 *613:Y 0.000164441
3 *614:B *613:B 6.27782e-05
4 *614:B *624:B 1.22226e-05
5 *614:B *626:A 0.000157107
6 *614:A *614:B 3.00829e-05
7 *626:C *614:B 5.04829e-06
8 *53:177 *614:B 2.17699e-05
9 *53:195 *614:B 0.000354476
10 *54:155 *614:B 6.03358e-05
*RES
1 *613:Y *614:B 25.3223 
*END

*D_NET *156 0.00125388
*CONN
*I *617:A I *D sky130_fd_sc_hd__nand3_1
*I *615:Y O *D sky130_fd_sc_hd__nand3_1
*CAP
1 *617:A 0.000412185
2 *615:Y 0.000412185
3 *617:A *746:RESET_B 3.28678e-05
4 *617:A *750:CLK 0.000116698
5 *602:A *617:A 4.61271e-05
6 *604:A *617:A 0.000114271
7 *615:A *617:A 6.45301e-05
8 *750:D *617:A 5.20014e-05
9 *53:369 *617:A 3.01368e-06
*RES
1 *615:Y *617:A 37.1777 
*END

*D_NET *157 0.000486868
*CONN
*I *617:B I *D sky130_fd_sc_hd__nand3_1
*I *616:Y O *D sky130_fd_sc_hd__nand2_1
*CAP
1 *617:B 0.000179396
2 *616:Y 0.000179396
3 *617:B *616:B 2.99287e-05
4 *126:110 *617:B 9.81477e-05
*RES
1 *616:Y *617:B 23.1039 
*END

*D_NET *158 0.00296949
*CONN
*I *620:A I *D sky130_fd_sc_hd__nand3_1
*I *618:Y O *D sky130_fd_sc_hd__nand3_1
*CAP
1 *620:A 0.00100171
2 *618:Y 0.00100171
3 *620:A *620:B 4.51176e-05
4 *620:A *749:CLK 2.30636e-05
5 *620:A *751:CLK 0.000130783
6 *620:A *213:12 0.000112361
7 *620:A *354:48 3.79159e-05
8 *620:A *354:55 0.000255524
9 *620:A *453:10 0
10 *734:D *620:A 0.00025718
11 *749:D *620:A 8.36586e-06
12 *126:28 *620:A 9.57611e-05
*RES
1 *618:Y *620:A 48.267 
*END

*D_NET *159 0.00186999
*CONN
*I *620:B I *D sky130_fd_sc_hd__nand3_1
*I *619:Y O *D sky130_fd_sc_hd__nand2_1
*CAP
1 *620:B 0.000818811
2 *619:Y 0.000818811
3 *620:B *619:B 9.37126e-05
4 *620:B *454:14 3.00705e-05
5 *620:B *481:198 8.64054e-06
6 *620:A *620:B 4.51176e-05
7 *126:22 *620:B 8.62625e-06
8 *126:28 *620:B 4.61962e-05
*RES
1 *619:Y *620:B 39.0643 
*END

*D_NET *160 0.000804275
*CONN
*I *623:A I *D sky130_fd_sc_hd__nand3_1
*I *621:Y O *D sky130_fd_sc_hd__nand3_1
*CAP
1 *623:A 0.000290503
2 *621:Y 0.000290503
3 *623:A *623:B 2.71355e-05
4 *623:C *623:A 2.16355e-05
5 *53:152 *623:A 9.69294e-06
6 *54:85 *623:A 0.000164805
*RES
1 *621:Y *623:A 23.538 
*END

*D_NET *161 0.00177707
*CONN
*I *623:B I *D sky130_fd_sc_hd__nand3_1
*I *622:Y O *D sky130_fd_sc_hd__nand2_1
*CAP
1 *623:B 0.000330056
2 *622:Y 0.000330056
3 *623:B *621:B 0
4 *623:B *356:179 0
5 *623:B *481:14 0.000127194
6 *592:B *623:B 0.000795549
7 *623:A *623:B 2.71355e-05
8 *53:152 *623:B 0.000167076
*RES
1 *622:Y *623:B 39.9213 
*END

*D_NET *162 0.000864549
*CONN
*I *626:A I *D sky130_fd_sc_hd__nand3_1
*I *624:Y O *D sky130_fd_sc_hd__nand3_1
*CAP
1 *626:A 0.000321529
2 *624:Y 0.000321529
3 *626:A *626:B 2.32299e-05
4 *614:B *626:A 0.000157107
5 *626:C *626:A 2.16608e-05
6 *753:D *626:A 1.55025e-05
7 *53:177 *626:A 3.99086e-06
*RES
1 *624:Y *626:A 24.4301 
*END

*D_NET *163 0.00263934
*CONN
*I *626:B I *D sky130_fd_sc_hd__nand3_1
*I *625:Y O *D sky130_fd_sc_hd__nand2_1
*CAP
1 *626:B 0.00121102
2 *625:Y 0.00121102
3 *626:B tl_o[40] 4.99786e-05
4 *626:B *625:B 8.07824e-05
5 *626:B *753:RESET_B 7.83848e-06
6 *626:B *369:8 3.00084e-05
7 *626:A *626:B 2.32299e-05
8 *626:C *626:B 1.54783e-05
9 *753:D *626:B 9.99348e-06
*RES
1 *625:Y *626:B 37.2584 
*END

*D_NET *164 0.000591777
*CONN
*I *629:A I *D sky130_fd_sc_hd__nand3_1
*I *627:Y O *D sky130_fd_sc_hd__nand3_1
*CAP
1 *629:A 9.37556e-05
2 *627:Y 9.37556e-05
3 *629:A *628:B 0
4 *629:A *629:B 1.83992e-05
5 *578:A1 *629:A 0.000273505
6 *627:A *629:A 0.000112361
*RES
1 *627:Y *629:A 22.4287 
*END

*D_NET *165 0.000546518
*CONN
*I *629:B I *D sky130_fd_sc_hd__nand3_1
*I *628:Y O *D sky130_fd_sc_hd__nand2_1
*CAP
1 *629:B 0.00019627
2 *628:Y 0.00019627
3 *629:B *628:B 2.57986e-05
4 *578:A1 *629:B 2.09463e-05
5 *578:B1 *629:B 2.60631e-05
6 *629:A *629:B 1.83992e-05
7 *754:D *629:B 6.27718e-05
*RES
1 *628:Y *629:B 23.6585 
*END

*D_NET *166 0.00030305
*CONN
*I *632:A I *D sky130_fd_sc_hd__nand3_1
*I *630:Y O *D sky130_fd_sc_hd__nand3_1
*CAP
1 *632:A 0.000127774
2 *630:Y 0.000127774
3 *632:A *630:B 1.09551e-05
4 *632:A *632:B 3.14978e-05
5 *630:A *632:A 5.04829e-06
*RES
1 *630:Y *632:A 22.0429 
*END

*D_NET *167 0.000711311
*CONN
*I *632:B I *D sky130_fd_sc_hd__nand3_1
*I *631:Y O *D sky130_fd_sc_hd__nand2_1
*CAP
1 *632:B 0.000324158
2 *631:Y 0.000324158
3 *632:B *631:B 3.14978e-05
4 *632:A *632:B 3.14978e-05
*RES
1 *631:Y *632:B 25.8769 
*END

*D_NET *168 0.0017324
*CONN
*I *635:A I *D sky130_fd_sc_hd__nand3_1
*I *633:Y O *D sky130_fd_sc_hd__nand3_1
*CAP
1 *635:A 0.000354272
2 *633:Y 0.000354272
3 *635:A *633:B 1.09551e-05
4 *635:A *637:A 0.000141854
5 *635:A *638:A 6.27718e-05
6 *635:A *638:B 0.000171288
7 *635:A *643:B 6.08467e-05
8 *635:A *644:B 1.65872e-05
9 *635:A *481:52 0.000165159
10 *633:A *635:A 0.000112361
11 *757:D *635:A 0.000118166
12 *126:186 *635:A 7.00649e-05
13 *126:194 *635:A 9.37992e-05
*RES
1 *633:Y *635:A 39.7234 
*END

*D_NET *169 0.000760898
*CONN
*I *635:B I *D sky130_fd_sc_hd__nand3_1
*I *634:Y O *D sky130_fd_sc_hd__nand2_1
*CAP
1 *635:B 0.000244384
2 *634:Y 0.000244384
3 *635:B *643:B 0
4 *635:B *741:CLK 9.53216e-05
5 *635:B *353:10 1.41976e-05
6 *635:B *353:96 9.97706e-05
7 *635:B *353:100 4.87198e-05
8 *635:B *353:106 1.41205e-05
*RES
1 *634:Y *635:B 32.548 
*END

*D_NET *170 0.00397228
*CONN
*I *638:A I *D sky130_fd_sc_hd__nand3_1
*I *636:Y O *D sky130_fd_sc_hd__nand3_1
*CAP
1 *638:A 0.00158142
2 *636:Y 0.00158142
3 *638:A *637:A 0.000109421
4 *638:A *637:B 0
5 *638:A *641:A 0.000204978
6 *638:A *760:RESET_B 0
7 *638:A *356:73 1.91246e-05
8 *635:A *638:A 6.27718e-05
9 *636:A *638:A 1.00971e-05
10 *641:C *638:A 6.93171e-05
11 *757:D *638:A 0.000294889
12 *126:194 *638:A 3.88415e-05
*RES
1 *636:Y *638:A 44.1341 
*END

*D_NET *171 0.000465199
*CONN
*I *638:B I *D sky130_fd_sc_hd__nand3_1
*I *637:Y O *D sky130_fd_sc_hd__nand2_1
*CAP
1 *638:B 0.000101971
2 *637:Y 0.000101971
3 *638:B *637:A 2.06999e-05
4 *638:B *644:B 6.92705e-05
5 *635:A *638:B 0.000171288
*RES
1 *637:Y *638:B 21.8741 
*END

*D_NET *172 0.00297193
*CONN
*I *641:A I *D sky130_fd_sc_hd__nand3_1
*I *639:Y O *D sky130_fd_sc_hd__nand3_1
*CAP
1 *641:A 0.00135881
2 *639:Y 0.00135881
3 *638:A *641:A 0.000204978
4 *54:25 *641:A 1.86487e-05
5 *54:36 *641:A 3.0676e-05
*RES
1 *639:Y *641:A 37.9824 
*END

*D_NET *173 0.000931042
*CONN
*I *641:B I *D sky130_fd_sc_hd__nand3_1
*I *640:Y O *D sky130_fd_sc_hd__nand2_1
*CAP
1 *641:B 0.000349571
2 *640:Y 0.000349571
3 *641:B *646:A 0
4 *641:B *741:CLK 0.00011818
5 *641:B *353:106 5.28741e-05
6 *758:D *641:B 6.08467e-05
*RES
1 *640:Y *641:B 35.2083 
*END

*D_NET *174 0.000903249
*CONN
*I *644:A I *D sky130_fd_sc_hd__nand3_1
*I *642:Y O *D sky130_fd_sc_hd__nand3_1
*CAP
1 *644:A 0.000306923
2 *642:Y 0.000306923
3 *642:A *644:A 9.9771e-06
4 *759:D *644:A 7.50722e-05
5 *53:120 *644:A 0.000122083
6 *54:68 *644:A 6.53448e-05
7 *126:150 *644:A 1.32509e-05
8 *126:152 *644:A 3.67528e-06
*RES
1 *642:Y *644:A 33.242 
*END

*D_NET *175 0.00164846
*CONN
*I *644:B I *D sky130_fd_sc_hd__nand3_1
*I *643:Y O *D sky130_fd_sc_hd__nand2_1
*CAP
1 *644:B 0.000586893
2 *643:Y 0.000586893
3 *644:B *637:A 2.68666e-06
4 *644:B *759:RESET_B 1.79672e-05
5 *644:B *353:10 0.000118166
6 *644:B *353:16 3.61993e-05
7 *644:B *463:22 4.25236e-05
8 *635:A *644:B 1.65872e-05
9 *638:B *644:B 6.92705e-05
10 *757:D *644:B 0.000171273
*RES
1 *643:Y *644:B 38.7532 
*END

*D_NET *176 0.00364844
*CONN
*I *647:A I *D sky130_fd_sc_hd__nand3_1
*I *645:Y O *D sky130_fd_sc_hd__nand3_1
*CAP
1 *647:A 0
2 *645:Y 0.00133626
3 *176:24 0.00133626
4 *176:24 *728:RESET_B 1.39052e-05
5 *176:24 *222:6 5.04829e-06
6 *176:24 *353:32 0.000207069
7 *527:A1 *176:24 4.03096e-05
8 *527:B1_N *176:24 8.99606e-05
9 *529:A *176:24 3.13805e-06
10 *587:A *176:24 0.000138632
11 *636:A *176:24 9.3204e-05
12 *636:C *176:24 8.18016e-05
13 *54:12 *176:24 0.000131472
14 *54:25 *176:24 0
15 *65:97 *176:24 0.000108597
16 *126:158 *176:24 6.27782e-05
*RES
1 *645:Y *176:24 45.6465 
2 *176:24 *647:A 9.24915 
*END

*D_NET *177 0.0016668
*CONN
*I *647:B I *D sky130_fd_sc_hd__nand3_1
*I *646:Y O *D sky130_fd_sc_hd__nand2_1
*CAP
1 *647:B 0.000661705
2 *646:Y 0.000661705
3 *647:B *646:B 3.00829e-05
4 *647:B *757:RESET_B 9.13394e-06
5 *647:B *902:A 0.000114271
6 *639:A *647:B 9.44631e-06
7 *641:C *647:B 3.88063e-05
8 *760:D *647:B 7.08532e-05
9 *53:94 *647:B 5.43066e-05
10 *126:158 *647:B 1.64913e-05
*RES
1 *646:Y *647:B 40.5054 
*END

*D_NET *178 0.000609597
*CONN
*I *649:A I *D sky130_fd_sc_hd__inv_1
*I *648:Y O *D sky130_fd_sc_hd__o21ai_0
*CAP
1 *649:A 0.000177312
2 *648:Y 0.000177312
3 *649:A *648:A1 0.000170864
4 *649:A *870:A 7.4215e-05
5 *649:A *342:8 9.89388e-06
*RES
1 *648:Y *649:A 31.1274 
*END

*D_NET *179 0.000248255
*CONN
*I *653:A I *D sky130_fd_sc_hd__nand2_1
*I *650:Y O *D sky130_fd_sc_hd__nand2_1
*CAP
1 *653:A 4.56415e-05
2 *650:Y 4.56415e-05
3 *653:A *650:B 3.65423e-05
4 *650:A *653:A 6.46163e-06
5 *127:155 *653:A 0.000113968
*RES
1 *650:Y *653:A 20.355 
*END

*D_NET *180 0.00220328
*CONN
*I *520:B I *D sky130_fd_sc_hd__nand3_1
*I *651:X O *D sky130_fd_sc_hd__clkdlybuf4s50_1
*CAP
1 *520:B 0.000573235
2 *651:X 0.000573235
3 *520:B *636:B 4.76413e-05
4 *520:B *697:A 0
5 *520:B *355:35 0.000303679
6 *505:B *520:B 0.000122068
7 *528:B *520:B 0.000452595
8 *529:B *520:B 6.71804e-05
9 *722:D *520:B 0
10 *70:202 *520:B 6.36477e-05
*RES
1 *651:X *520:B 43.6796 
*END

*D_NET *181 0.000647155
*CONN
*I *653:B I *D sky130_fd_sc_hd__nand2_1
*I *652:Y O *D sky130_fd_sc_hd__nand2_1
*CAP
1 *653:B 0.000207816
2 *652:Y 0.000207816
3 *653:B tl_o[49] 5.68113e-05
4 *653:B tl_o[57] 0
5 *653:B *650:B 6.64392e-05
6 *653:B *903:A 1.55025e-05
7 *652:A *653:B 1.09057e-05
8 *53:476 *653:B 5.10306e-05
9 *53:491 *653:B 5.04829e-06
10 *127:155 *653:B 2.57847e-05
*RES
1 *652:Y *653:B 32.1622 
*END

*D_NET *182 0.000876275
*CONN
*I *656:A I *D sky130_fd_sc_hd__nand2_1
*I *654:Y O *D sky130_fd_sc_hd__nand2_1
*CAP
1 *656:A 0.000164354
2 *654:Y 0.000164354
3 *656:A *654:B 7.04109e-05
4 *656:A *656:B 0.000107279
5 *656:A *352:96 0.000200236
6 *656:A *352:107 0.000108795
7 *675:A *656:A 6.08467e-05
*RES
1 *654:Y *656:A 33.791 
*END

*D_NET *183 0.001174
*CONN
*I *656:B I *D sky130_fd_sc_hd__nand2_1
*I *655:Y O *D sky130_fd_sc_hd__nand2_1
*CAP
1 *656:B 0.000365016
2 *655:Y 0.000365016
3 *656:B *654:B 7.40084e-05
4 *656:A *656:B 0.000107279
5 *675:A *656:B 0.00026268
*RES
1 *655:Y *656:B 36.0094 
*END

*D_NET *184 0.000276606
*CONN
*I *659:A I *D sky130_fd_sc_hd__nand2_1
*I *657:Y O *D sky130_fd_sc_hd__nand2_1
*CAP
1 *659:A 2.68704e-05
2 *657:Y 2.68704e-05
3 *659:A *657:B 7.40769e-05
4 *659:A *658:B 1.41291e-05
5 *659:A *659:B 1.64789e-05
6 *659:A *764:CLK 0.00011818
*RES
1 *657:Y *659:A 20.355 
*END

*D_NET *185 0.000509529
*CONN
*I *659:B I *D sky130_fd_sc_hd__nand2_1
*I *658:Y O *D sky130_fd_sc_hd__nand2_1
*CAP
1 *659:B 0.000188211
2 *658:Y 0.000188211
3 *659:B *658:B 1.41291e-05
4 *659:B *662:B 2.16355e-05
5 *659:A *659:B 1.64789e-05
6 *661:A *659:B 5.90244e-05
7 *53:491 *659:B 2.18402e-05
*RES
1 *658:Y *659:B 23.1763 
*END

*D_NET *186 0.00158922
*CONN
*I *662:A I *D sky130_fd_sc_hd__nand2_1
*I *660:Y O *D sky130_fd_sc_hd__nand2_1
*CAP
1 *662:A 0.000422538
2 *660:Y 0.000422538
3 *662:A *660:B 5.36612e-05
4 *662:A *906:A 0.000267328
5 *650:A *662:A 0
6 *660:A *662:A 0.000191066
7 *765:D *662:A 7.27851e-05
8 *127:147 *662:A 0.000159299
*RES
1 *660:Y *662:A 33.9066 
*END

*D_NET *187 0.000443735
*CONN
*I *662:B I *D sky130_fd_sc_hd__nand2_1
*I *661:Y O *D sky130_fd_sc_hd__nand2_1
*CAP
1 *662:B 0.000116928
2 *661:Y 0.000116928
3 *662:B *764:CLK 2.75292e-05
4 *662:B *863:A 0.000148114
5 *662:B *352:126 1.2601e-05
6 *659:B *662:B 2.16355e-05
*RES
1 *661:Y *662:B 30.8842 
*END

*D_NET *188 0.000656246
*CONN
*I *665:A I *D sky130_fd_sc_hd__nand2_1
*I *663:Y O *D sky130_fd_sc_hd__nand2_1
*CAP
1 *665:A 0.000162597
2 *663:Y 0.000162597
3 *665:A *665:B 5.03545e-06
4 *766:D *665:A 1.32043e-05
5 *127:64 *665:A 0.000312812
*RES
1 *663:Y *665:A 33.0676 
*END

*D_NET *189 0.000863814
*CONN
*I *665:B I *D sky130_fd_sc_hd__nand2_1
*I *664:Y O *D sky130_fd_sc_hd__nand2_1
*CAP
1 *665:B 0.000308786
2 *664:Y 0.000308786
3 *665:B tl_o[56] 3.74723e-05
4 *665:B *668:A 0.00011818
5 *665:B *766:RESET_B 0
6 *665:B *879:A 0
7 *665:B *356:374 4.96202e-06
8 *665:A *665:B 5.03545e-06
9 *767:D *665:B 7.50872e-05
10 *127:64 *665:B 5.50522e-06
11 *127:81 *665:B 0
12 *127:96 *665:B 0
*RES
1 *664:Y *665:B 34.7608 
*END

*D_NET *190 0.000929191
*CONN
*I *668:A I *D sky130_fd_sc_hd__nand2_1
*I *666:Y O *D sky130_fd_sc_hd__nand2_1
*CAP
1 *668:A 0.000244157
2 *666:Y 0.000244157
3 *668:A tl_o[54] 0
4 *668:A *666:B 7.34948e-06
5 *668:A *668:B 0.000139505
6 *668:A *908:A 0.00016198
7 *665:B *668:A 0.00011818
8 *666:A *668:A 1.38616e-05
*RES
1 *666:Y *668:A 34.6834 
*END

*D_NET *191 0.00149265
*CONN
*I *668:B I *D sky130_fd_sc_hd__nand2_1
*I *667:Y O *D sky130_fd_sc_hd__nand2_1
*CAP
1 *668:B 0.000610284
2 *667:Y 0.000610284
3 *668:B tl_o[54] 4.16488e-05
4 *668:B *908:A 6.08467e-05
5 *667:A *668:B 2.30636e-05
6 *668:A *668:B 0.000139505
7 *53:444 *668:B 7.01935e-06
*RES
1 *667:Y *668:B 33.8343 
*END

*D_NET *192 0.000723545
*CONN
*I *671:A I *D sky130_fd_sc_hd__nand2_1
*I *669:Y O *D sky130_fd_sc_hd__nand2_1
*CAP
1 *671:A 0.000301984
2 *669:Y 0.000301984
3 *671:A *671:B 1.71481e-05
4 *768:D *671:A 6.52897e-05
5 *53:444 *671:A 2.20471e-05
6 *127:105 *671:A 1.50924e-05
*RES
1 *669:Y *671:A 33.1925 
*END

*D_NET *193 0.000438147
*CONN
*I *671:B I *D sky130_fd_sc_hd__nand2_1
*I *670:Y O *D sky130_fd_sc_hd__nand2_1
*CAP
1 *671:B 0.000195535
2 *670:Y 0.000195535
3 *671:A *671:B 1.71481e-05
4 *768:D *671:B 2.99287e-05
*RES
1 *670:Y *671:B 23.128 
*END

*D_NET *194 0.00143771
*CONN
*I *674:A I *D sky130_fd_sc_hd__nand2_1
*I *672:Y O *D sky130_fd_sc_hd__nand2_1
*CAP
1 *674:A 0.000519926
2 *672:Y 0.000519926
3 *674:A *672:B 0.000130496
4 *674:A *673:B 0.000250743
5 *674:A *674:B 1.66166e-05
*RES
1 *672:Y *674:A 27.4202 
*END

*D_NET *195 0.000407346
*CONN
*I *674:B I *D sky130_fd_sc_hd__nand2_1
*I *673:Y O *D sky130_fd_sc_hd__nand2_1
*CAP
1 *674:B 7.11828e-05
2 *673:Y 7.11828e-05
3 *674:B *673:B 6.27782e-05
4 *674:B *704:A 0.000167692
5 *674:A *674:B 1.66166e-05
6 *769:D *674:B 1.78942e-05
*RES
1 *673:Y *674:B 21.4642 
*END

*D_NET *196 0.000186276
*CONN
*I *677:A I *D sky130_fd_sc_hd__nand2_1
*I *675:Y O *D sky130_fd_sc_hd__nand2_1
*CAP
1 *677:A 6.02055e-05
2 *675:Y 6.02055e-05
3 *677:A *677:B 5.55213e-05
4 *675:A *677:A 1.03434e-05
*RES
1 *675:Y *677:A 20.355 
*END

*D_NET *197 0.00133377
*CONN
*I *677:B I *D sky130_fd_sc_hd__nand2_1
*I *676:Y O *D sky130_fd_sc_hd__nand2_1
*CAP
1 *677:B 0.000394276
2 *676:Y 0.000394276
3 *677:B *762:RESET_B 9.76996e-05
4 *677:B *763:RESET_B 6.50727e-05
5 *677:B *763:CLK 4.31539e-05
6 *677:B *356:213 0.000255249
7 *675:A *677:B 1.00937e-05
8 *677:A *677:B 5.55213e-05
9 *770:D *677:B 1.84293e-05
*RES
1 *676:Y *677:B 39.0824 
*END

*D_NET *198 0.000583635
*CONN
*I *680:A I *D sky130_fd_sc_hd__nand2_1
*I *678:Y O *D sky130_fd_sc_hd__nand2_1
*CAP
1 *680:A 9.87861e-05
2 *678:Y 9.87861e-05
3 *680:A *678:B 2.65831e-05
4 *678:A *680:A 0
5 *683:A *680:A 0.000359479
*RES
1 *678:Y *680:A 22.5734 
*END

*D_NET *199 0.000274556
*CONN
*I *680:B I *D sky130_fd_sc_hd__nand2_1
*I *679:Y O *D sky130_fd_sc_hd__nand2_1
*CAP
1 *680:B 7.67684e-05
2 *679:Y 7.67684e-05
3 *680:B tl_o[36] 0.000121019
4 *680:B tl_o[38] 0
*RES
1 *679:Y *680:B 29.7455 
*END

*D_NET *200 0.000837992
*CONN
*I *682:C I *D sky130_fd_sc_hd__nand3_1
*I *681:Y O *D sky130_fd_sc_hd__nor2_1
*CAP
1 *682:C 0.000219151
2 *681:Y 0.000219151
3 *682:C tl_o[35] 0.000149673
4 *682:C tl_o[37] 1.19705e-05
5 *682:C *681:A 6.50586e-05
6 *682:C *682:B 1.07248e-05
7 *55:14 *682:C 0.000162263
*RES
1 *681:Y *682:C 34.7608 
*END

*D_NET *201 0.000285739
*CONN
*I *684:A I *D sky130_fd_sc_hd__nand2_1
*I *682:Y O *D sky130_fd_sc_hd__nand3_1
*CAP
1 *684:A 0.000100884
2 *682:Y 0.000100884
3 *684:A *682:B 1.61631e-05
4 *684:A *683:B 3.01683e-06
5 *684:A *684:B 6.47919e-05
*RES
1 *682:Y *684:A 21.4883 
*END

*D_NET *202 0.000685236
*CONN
*I *684:B I *D sky130_fd_sc_hd__nand2_1
*I *683:Y O *D sky130_fd_sc_hd__nand2_1
*CAP
1 *684:B 0.000266899
2 *683:Y 0.000266899
3 *684:B *682:B 6.08467e-05
4 *684:B *683:B 2.57986e-05
5 *684:A *684:B 6.47919e-05
*RES
1 *683:Y *684:B 24.2372 
*END

*D_NET *204 0.00901726
*CONN
*P clk_i I
*I *712:A I *D sky130_fd_sc_hd__clkbuf_8
*CAP
1 clk_i 0.0041308
2 *712:A 0
3 *204:22 0.0041308
4 *204:22 tl_o[49] 0.000204805
5 *204:22 *661:B 8.79588e-05
6 *204:22 *862:A 0.000150659
7 *204:22 *863:A 1.54067e-05
8 *204:22 *358:17 0
9 *204:22 *358:69 0
10 *601:B *204:22 0.000133886
11 *53:476 *204:22 0.00016295
12 *54:151 *204:22 0
*RES
1 clk_i *204:22 33.3194 
2 *204:22 *712:A 13.7491 
*END

*D_NET *205 0.00127693
*CONN
*P port_i I
*I *719:A I *D sky130_fd_sc_hd__clkdlybuf4s50_1
*CAP
1 port_i 0.000455433
2 *719:A 0.000455433
3 *719:A *720:D 2.61012e-05
4 *719:A *721:RESET_B 9.35753e-06
5 *719:A *721:CLK 0.00033061
*RES
1 port_i *719:A 26.7148 
*END

*D_NET *206 0.00015869
*CONN
*I *868:A I *D sky130_fd_sc_hd__clkdlybuf4s50_1
*I *721:Q O *D sky130_fd_sc_hd__dfrtp_1
*CAP
1 *868:A 7.9345e-05
2 *721:Q 7.9345e-05
*RES
1 *721:Q *868:A 20.355 
*END

*D_NET *207 0.00039659
*CONN
*I *497:A I *D sky130_fd_sc_hd__inv_1
*I *722:Q O *D sky130_fd_sc_hd__dfrtp_1
*CAP
1 *497:A 8.41465e-05
2 *722:Q 8.41465e-05
3 *497:A *508:B 0
4 *497:A *356:73 0.000153225
5 *509:B *497:A 7.50722e-05
*RES
1 *722:Q *497:A 30.5406 
*END

*D_NET *208 0.000306669
*CONN
*I *506:A I *D sky130_fd_sc_hd__inv_1
*I *723:Q O *D sky130_fd_sc_hd__dfrtp_1
*CAP
1 *506:A 0.000119723
2 *723:Q 0.000119723
3 *507:B1_N *506:A 9.55569e-06
4 *54:12 *506:A 5.76677e-05
*RES
1 *723:Q *506:A 30.4803 
*END

*D_NET *209 0.00112683
*CONN
*I *595:B I *D sky130_fd_sc_hd__nand3_1
*I *510:A I *D sky130_fd_sc_hd__inv_1
*I *724:Q O *D sky130_fd_sc_hd__dfrtp_1
*CAP
1 *595:B 4.99149e-05
2 *510:A 0.000223411
3 *724:Q 0.000273326
4 *510:A *706:A 1.32866e-05
5 *510:A *724:CLK 2.16355e-05
6 *510:A *355:133 0.000132826
7 *533:B *510:A 2.6874e-05
8 *595:A *595:B 3.63169e-05
9 *53:225 *510:A 6.08467e-05
10 *53:225 *595:B 0.000159016
11 *54:101 *595:B 9.67968e-05
12 *56:42 *510:A 3.15254e-05
13 *56:44 *510:A 1.05272e-06
*RES
1 *724:Q *510:A 32.3129 
2 *724:Q *595:B 20.9096 
*END

*D_NET *210 0.00112521
*CONN
*I *599:B I *D sky130_fd_sc_hd__nand3_1
*I *538:A I *D sky130_fd_sc_hd__inv_1
*I *731:Q O *D sky130_fd_sc_hd__dfrtp_1
*CAP
1 *599:B 0
2 *538:A 0.000106594
3 *731:Q 9.55742e-05
4 *210:10 0.000202169
5 *210:10 *631:A 2.53202e-05
6 *210:10 *744:RESET_B 5.36767e-05
7 *599:A *210:10 1.07248e-05
8 *599:C *538:A 7.18018e-05
9 *739:D *538:A 0.000202719
10 *53:215 *538:A 0.000110057
11 *53:215 *210:10 6.97803e-05
12 *54:95 *538:A 1.65872e-05
13 *54:101 *538:A 0.00016021
*RES
1 *731:Q *210:10 20.9116 
2 *210:10 *538:A 14.7771 
3 *210:10 *599:B 9.24915 
*END

*D_NET *211 0.00170572
*CONN
*I *602:B I *D sky130_fd_sc_hd__nand3_1
*I *542:A I *D sky130_fd_sc_hd__inv_1
*I *732:Q O *D sky130_fd_sc_hd__dfrtp_1
*CAP
1 *602:B 0
2 *542:A 0.000185641
3 *732:Q 0.000375689
4 *211:10 0.00056133
5 *542:A *552:B 0.000109951
6 *211:10 *552:B 0.000131318
7 *543:A1 *542:A 2.8322e-05
8 *545:A *542:A 0.000191281
9 *548:A *542:A 9.3518e-05
10 *746:D *211:10 1.59362e-06
11 *65:40 *542:A 2.70806e-05
*RES
1 *732:Q *211:10 20.4627 
2 *211:10 *542:A 20.4151 
3 *211:10 *602:B 13.7491 
*END

*D_NET *212 0.000750861
*CONN
*I *546:A I *D sky130_fd_sc_hd__inv_1
*I *605:B I *D sky130_fd_sc_hd__nand3_1
*I *733:Q O *D sky130_fd_sc_hd__dfrtp_1
*CAP
1 *546:A 0.000182995
2 *605:B 6.41448e-05
3 *733:Q 0.00024714
4 *546:A *747:CLK 0.000131217
5 *546:A *750:RESET_B 0
6 *486:B *605:B 5.56461e-05
7 *605:A *605:B 0
8 *747:D *546:A 3.39204e-05
9 *747:D *605:B 4.30017e-06
10 *54:207 *605:B 3.14978e-05
*RES
1 *733:Q *605:B 20.9096 
2 *733:Q *546:A 32.3223 
*END

*D_NET *213 0.000950748
*CONN
*I *612:B I *D sky130_fd_sc_hd__nand3_1
*I *550:A I *D sky130_fd_sc_hd__inv_1
*I *734:Q O *D sky130_fd_sc_hd__dfrtp_1
*CAP
1 *612:B 0
2 *550:A 0.000125383
3 *734:Q 0.000132257
4 *213:12 0.00025764
5 *612:C *550:A 1.02267e-05
6 *614:A *550:A 2.58757e-05
7 *614:A *213:12 3.20407e-05
8 *620:A *213:12 0.000112361
9 *54:155 *550:A 9.81288e-06
10 *54:161 *550:A 0.00015081
11 *126:28 *213:12 6.23012e-05
12 *126:30 *213:12 3.20407e-05
*RES
1 *734:Q *213:12 21.3591 
2 *213:12 *550:A 13.0892 
3 *213:12 *612:B 9.24915 
*END

*D_NET *214 0.00151904
*CONN
*I *615:B I *D sky130_fd_sc_hd__nand3_1
*I *554:A I *D sky130_fd_sc_hd__inv_1
*I *735:Q O *D sky130_fd_sc_hd__dfrtp_1
*CAP
1 *615:B 0.000110081
2 *554:A 0.000211313
3 *735:Q 9.77253e-05
4 *214:12 0.000419119
5 *543:A1 *615:B 7.92757e-06
6 *545:A *214:12 1.03403e-05
7 *555:A1 *214:12 5.0317e-05
8 *555:A2 *214:12 0.000196969
9 *555:B1_N *554:A 0.000142844
10 *557:A *554:A 1.43832e-05
11 *602:C *615:B 4.89392e-05
12 *615:A *615:B 3.13805e-06
13 *56:248 *214:12 0.000143175
14 *65:40 *214:12 6.27718e-05
*RES
1 *735:Q *214:12 22.8808 
2 *214:12 *554:A 14.8133 
3 *214:12 *615:B 12.2151 
*END

*D_NET *215 0.00140003
*CONN
*I *558:A I *D sky130_fd_sc_hd__inv_1
*I *618:B I *D sky130_fd_sc_hd__nand3_1
*I *736:Q O *D sky130_fd_sc_hd__dfrtp_1
*CAP
1 *558:A 0.000160618
2 *618:B 9.93963e-05
3 *736:Q 0.000107319
4 *215:8 0.000367333
5 *558:A *552:B 4.70005e-05
6 *558:A *354:16 0.000126139
7 *558:A *358:55 3.74661e-05
8 *618:B *358:55 3.03608e-05
9 *548:A *558:A 0.000170592
10 *548:C *558:A 1.70077e-05
11 *548:C *215:8 0.000118166
12 *553:B *618:B 0
13 *618:A *618:B 1.03594e-05
14 *54:199 *618:B 5.03545e-06
15 *54:203 *558:A 3.90689e-06
16 *54:203 *618:B 3.03823e-05
17 *54:207 *558:A 4.97159e-05
18 *70:95 *215:8 1.92336e-05
*RES
1 *736:Q *215:8 15.5817 
2 *215:8 *618:B 16.4116 
3 *215:8 *558:A 19.5014 
*END

*D_NET *216 0.00325333
*CONN
*I *621:B I *D sky130_fd_sc_hd__nand3_1
*I *562:A I *D sky130_fd_sc_hd__inv_1
*I *737:Q O *D sky130_fd_sc_hd__dfrtp_1
*CAP
1 *621:B 0.00120497
2 *562:A 0
3 *737:Q 7.06444e-05
4 *216:10 0.00127561
5 *621:B *597:B 0.000172293
6 *621:B *631:A 2.64881e-05
7 *621:B *744:RESET_B 6.01639e-05
8 *621:B *356:517 0
9 *621:B *360:12 6.50586e-05
10 *216:10 *737:RESET_B 1.50924e-05
11 *563:B1_N *621:B 9.27759e-06
12 *563:B1_N *216:10 6.08467e-05
13 *573:B *621:B 0.000115874
14 *601:C *621:B 2.16355e-05
15 *618:A *621:B 4.85034e-05
16 *618:A *216:10 1.44188e-05
17 *623:B *621:B 0
18 *54:85 *621:B 2.2694e-05
19 *54:89 *621:B 6.97612e-05
*RES
1 *737:Q *216:10 11.6846 
2 *216:10 *562:A 9.24915 
3 *216:10 *621:B 43.2838 
*END

*D_NET *217 0.0047136
*CONN
*I *566:A I *D sky130_fd_sc_hd__inv_1
*I *624:B I *D sky130_fd_sc_hd__nand3_1
*I *738:Q O *D sky130_fd_sc_hd__dfrtp_1
*CAP
1 *566:A 3.29725e-05
2 *624:B 0.00133393
3 *738:Q 0.0013669
4 *551:B1_N *624:B 0.000726061
5 *567:B1_N *566:A 3.86483e-05
6 *614:B *624:B 1.22226e-05
7 *624:C *624:B 2.78895e-05
8 *53:177 *624:B 5.98993e-05
9 *54:155 *624:B 0.000599498
10 *54:161 *566:A 3.86483e-05
11 *54:161 *624:B 0.000476923
*RES
1 *738:Q *624:B 42.2498 
2 *738:Q *566:A 20.0114 
*END

*D_NET *218 0.000700166
*CONN
*I *627:B I *D sky130_fd_sc_hd__nand3_1
*I *570:A I *D sky130_fd_sc_hd__inv_1
*I *739:Q O *D sky130_fd_sc_hd__dfrtp_1
*CAP
1 *627:B 7.61253e-05
2 *570:A 6.53183e-05
3 *739:Q 8.76482e-05
4 *218:10 0.000229092
5 *218:10 *729:RESET_B 0
6 *571:B1_N *570:A 2.46912e-05
7 *578:A1 *627:B 1.43832e-05
8 *629:C *627:B 6.27782e-05
9 *54:85 *218:10 0.00014013
*RES
1 *739:Q *218:10 20.9116 
2 *218:10 *570:A 10.6779 
3 *218:10 *627:B 11.0817 
*END

*D_NET *219 0.000441069
*CONN
*I *630:B I *D sky130_fd_sc_hd__nand3_1
*I *514:A I *D sky130_fd_sc_hd__inv_1
*I *725:Q O *D sky130_fd_sc_hd__dfrtp_1
*CAP
1 *630:B 0.000107058
2 *514:A 2.75911e-05
3 *725:Q 3.01852e-05
4 *219:6 0.000164835
5 *514:A *725:RESET_B 0
6 *515:B1_N *630:B 1.20742e-05
7 *515:B1_N *219:6 5.07314e-05
8 *630:A *630:B 1.60034e-05
9 *630:C *630:B 2.16355e-05
10 *632:A *630:B 1.09551e-05
*RES
1 *725:Q *219:6 10.5271 
2 *219:6 *514:A 10.1474 
3 *219:6 *630:B 12.2151 
*END

*D_NET *220 0.000833943
*CONN
*I *518:A I *D sky130_fd_sc_hd__inv_1
*I *633:B I *D sky130_fd_sc_hd__nand3_1
*I *726:Q O *D sky130_fd_sc_hd__dfrtp_1
*CAP
1 *518:A 0.000104954
2 *633:B 0.000119473
3 *726:Q 0.000224426
4 *518:A *353:26 3.86835e-05
5 *518:A *463:22 7.74892e-05
6 *633:B *356:120 5.51483e-06
7 *519:B1_N *518:A 2.37263e-05
8 *633:C *633:B 0.000165521
9 *635:A *633:B 1.09551e-05
10 *54:53 *518:A 3.73256e-05
11 *126:186 *633:B 2.58757e-05
*RES
1 *726:Q *633:B 22.0188 
2 *726:Q *518:A 31.0349 
*END

*D_NET *221 0.00206945
*CONN
*I *636:B I *D sky130_fd_sc_hd__nand3_1
*I *522:A I *D sky130_fd_sc_hd__inv_1
*I *727:Q O *D sky130_fd_sc_hd__dfrtp_1
*CAP
1 *636:B 0.000237418
2 *522:A 0.000143207
3 *727:Q 0
4 *221:4 0.000380625
5 *636:B *728:RESET_B 0.000104378
6 *508:C *522:A 1.09738e-05
7 *520:B *636:B 4.76413e-05
8 *520:C *522:A 5.09109e-05
9 *521:B *636:B 0.000169495
10 *523:A1 *522:A 0
11 *529:A *636:B 0.000226487
12 *636:A *636:B 6.27782e-05
13 *636:C *636:B 3.32903e-05
14 *70:202 *522:A 8.61152e-06
15 *70:202 *636:B 0.000111802
16 *70:237 *522:A 0.000243024
17 *72:36 *522:A 0.000238812
*RES
1 *727:Q *221:4 9.24915 
2 *221:4 *522:A 24.2801 
3 *221:4 *636:B 18.5327 
*END

*D_NET *222 0.000418215
*CONN
*I *639:B I *D sky130_fd_sc_hd__nand3_1
*I *526:A I *D sky130_fd_sc_hd__inv_1
*I *728:Q O *D sky130_fd_sc_hd__dfrtp_1
*CAP
1 *639:B 0.000103001
2 *526:A 2.43769e-05
3 *728:Q 4.25915e-05
4 *222:6 0.000169969
5 *527:B1_N *639:B 1.15318e-05
6 *527:B1_N *222:6 2.58757e-05
7 *639:A *639:B 9.95922e-06
8 *639:C *639:B 2.58616e-05
9 *176:24 *222:6 5.04829e-06
*RES
1 *728:Q *222:6 10.5271 
2 *222:6 *526:A 10.1474 
3 *222:6 *639:B 12.2151 
*END

*D_NET *223 0.000618774
*CONN
*I *642:B I *D sky130_fd_sc_hd__nand3_1
*I *530:A I *D sky130_fd_sc_hd__inv_1
*I *729:Q O *D sky130_fd_sc_hd__dfrtp_1
*CAP
1 *642:B 3.1074e-05
2 *530:A 4.27461e-05
3 *729:Q 0.000127161
4 *223:12 0.000200981
5 *531:B1_N *530:A 2.58026e-05
6 *642:A *223:12 9.9774e-06
7 *54:53 *530:A 6.3657e-05
8 *54:68 *530:A 1.55025e-05
9 *54:68 *642:B 0.000101873
10 *65:91 *223:12 0
*RES
1 *729:Q *223:12 21.0751 
2 *223:12 *530:A 10.6779 
3 *223:12 *642:B 10.5271 
*END

*D_NET *224 0.000694634
*CONN
*I *645:B I *D sky130_fd_sc_hd__nand3_1
*I *534:A I *D sky130_fd_sc_hd__inv_1
*I *730:Q O *D sky130_fd_sc_hd__dfrtp_1
*CAP
1 *645:B 0.000200115
2 *534:A 2.7007e-05
3 *730:Q 4.80016e-05
4 *224:6 0.000275123
5 *535:B1_N *534:A 7.01935e-06
6 *535:B1_N *645:B 6.11286e-06
7 *645:A *645:B 1.02267e-05
8 *645:C *645:B 9.28161e-05
9 *53:233 *645:B 2.8212e-05
*RES
1 *730:Q *224:6 10.5271 
2 *224:6 *534:A 10.1474 
3 *224:6 *645:B 14.9881 
*END

*D_NET *225 0.000555737
*CONN
*P rst_ni I
*I *718:A I *D sky130_fd_sc_hd__buf_2
*CAP
1 rst_ni 0.000197101
2 *718:A 0.000197101
3 *718:A *596:A 0.000161535
*RES
1 rst_ni *718:A 19.4728 
*END

*D_NET *226 0.00232325
*CONN
*P tl_i[0] I
*I *717:A I *D sky130_fd_sc_hd__clkdlybuf4s50_1
*CAP
1 tl_i[0] 0.000767561
2 *717:A 0.000767561
3 *717:A tl_o[1] 0.000522927
4 *717:A tl_o[30] 0.000132275
5 *717:A tl_o[39] 0
6 *581:B1 *717:A 0
7 *53:18 *717:A 0.000132929
*RES
1 tl_i[0] *717:A 21.4718 
*END

*D_NET *227 0.00254528
*CONN
*P tl_i[100] I
*I *716:A I *D sky130_fd_sc_hd__clkdlybuf4s50_1
*CAP
1 tl_i[100] 0.000644096
2 *716:A 0.000644096
3 *716:A tl_o[38] 0.000616658
4 *716:A tl_o[58] 0
5 *716:A *715:A 0.000142213
6 *716:A *762:RESET_B 9.98363e-05
7 *716:A *771:RESET_B 2.62333e-05
8 *716:A *861:A 0
9 *716:A *388:12 1.18938e-05
10 *53:395 *716:A 0.000304859
11 *127:155 *716:A 5.53934e-05
*RES
1 tl_i[100] *716:A 36.8907 
*END

*D_NET *228 0.000896064
*CONN
*P tl_i[101] I
*I *715:A I *D sky130_fd_sc_hd__clkdlybuf4s50_1
*CAP
1 tl_i[101] 0.000202461
2 *715:A 0.000202461
3 *715:A tl_o[58] 0.000142213
4 *715:A *679:B 0.000206718
5 *716:A *715:A 0.000142213
*RES
1 tl_i[101] *715:A 21.5896 
*END

*D_NET *232 0.00100573
*CONN
*P tl_i[105] I
*I *714:A I *D sky130_fd_sc_hd__clkdlybuf4s50_1
*CAP
1 tl_i[105] 0.000395502
2 *714:A 0.000395502
3 *714:A tl_o[32] 0.000214722
*RES
1 tl_i[105] *714:A 25.051 
*END

*D_NET *233 0.000935838
*CONN
*P tl_i[106] I
*I *713:A I *D sky130_fd_sc_hd__clkdlybuf4s50_1
*CAP
1 tl_i[106] 0.000279183
2 *713:A 0.000279183
3 *713:A tl_o[32] 0.000142213
4 *713:A tl_o[34] 8.66761e-05
5 *713:A *485:B 1.50924e-05
6 *713:A *700:A 0.000133491
*RES
1 tl_i[106] *713:A 23.2534 
*END

*D_NET *234 0.000732277
*CONN
*P tl_i[107] I
*I *700:A I *D sky130_fd_sc_hd__clkdlybuf4s50_1
*CAP
1 tl_i[107] 0.000187199
2 *700:A 0.000187199
3 *700:A tl_o[34] 0.000159461
4 *700:A *485:A 5.79081e-05
5 *700:A *417:6 7.01935e-06
6 *713:A *700:A 0.000133491
*RES
1 tl_i[107] *700:A 21.1985 
*END

*D_NET *235 0.00208426
*CONN
*P tl_i[108] I
*I *699:A I *D sky130_fd_sc_hd__clkdlybuf4s50_1
*CAP
1 tl_i[108] 0.000643046
2 *699:A 0.000643046
3 *699:A tl_o[0] 0.000132275
4 *699:A tl_o[1] 1.71854e-05
5 *699:A tl_o[46] 2.51528e-05
6 *699:A tl_o[65] 0.000113049
7 *699:A *482:A 0.000275256
8 *699:A *640:B 0.000178543
9 *483:B *699:A 0
10 *581:B1 *699:A 5.67063e-05
*RES
1 tl_i[108] *699:A 27.987 
*END

*D_NET *251 0.000689545
*CONN
*P tl_i[24] I
*I *698:A I *D sky130_fd_sc_hd__clkdlybuf4s50_1
*CAP
1 tl_i[24] 0.000283477
2 *698:A 0.000283477
3 *698:A *594:A 0.000122592
*RES
1 tl_i[24] *698:A 21.6912 
*END

*D_NET *252 0.000768345
*CONN
*P tl_i[25] I
*I *697:A I *D sky130_fd_sc_hd__clkdlybuf4s50_1
*CAP
1 tl_i[25] 0.000303185
2 *697:A 0.000303185
3 *697:A *594:A 0
4 *697:A *651:A 0.000126065
5 *520:B *697:A 0
6 *528:B *697:A 2.65667e-05
7 *722:D *697:A 9.34396e-06
*RES
1 tl_i[25] *697:A 22.6555 
*END

*D_NET *269 0.00120091
*CONN
*P tl_i[40] I
*I *696:A I *D sky130_fd_sc_hd__clkdlybuf4s50_1
*CAP
1 tl_i[40] 0.000376621
2 *696:A 0.000376621
3 *696:A *503:A 3.62698e-05
4 *696:A *576:A 3.71946e-05
5 *696:A *695:A 0.000184464
6 *493:B *696:A 0.00016386
7 *63:14 *696:A 2.58757e-05
*RES
1 tl_i[40] *696:A 23.9106 
*END

*D_NET *270 0.00237542
*CONN
*P tl_i[41] I
*I *695:A I *D sky130_fd_sc_hd__clkdlybuf4s50_1
*CAP
1 tl_i[41] 0.000936474
2 *695:A 0.000936474
3 *695:A *593:A 0.000288083
4 *532:B *695:A 2.99287e-05
5 *696:A *695:A 0.000184464
6 *70:8 *695:A 0
7 *72:69 *695:A 0
*RES
1 tl_i[41] *695:A 24.0989 
*END

*D_NET *271 0.000408935
*CONN
*P tl_i[42] I
*I *694:A I *D sky130_fd_sc_hd__clkdlybuf4s50_1
*CAP
1 tl_i[42] 0.000148144
2 *694:A 0.000148144
3 *694:A tl_o[4] 0.000112647
4 *694:A *691:A 0
*RES
1 tl_i[42] *694:A 18.3574 
*END

*D_NET *272 0.000490594
*CONN
*P tl_i[43] I
*I *693:A I *D sky130_fd_sc_hd__clkdlybuf4s50_1
*CAP
1 tl_i[43] 0.000245297
2 *693:A 0.000245297
*RES
1 tl_i[43] *693:A 19.9258 
*END

*D_NET *273 0.00132323
*CONN
*P tl_i[44] I
*I *692:A I *D sky130_fd_sc_hd__clkdlybuf4s50_1
*CAP
1 tl_i[44] 0.000549423
2 *692:A 0.000549423
3 *692:A *548:B 0
4 *692:A *354:117 0.000224381
*RES
1 tl_i[44] *692:A 28.2336 
*END

*D_NET *274 0.000387778
*CONN
*P tl_i[45] I
*I *691:A I *D sky130_fd_sc_hd__clkdlybuf4s50_1
*CAP
1 tl_i[45] 0.000126389
2 *691:A 0.000126389
3 *691:A tl_o[4] 0
4 *691:A *690:A 0.000135001
5 *544:C *691:A 0
6 *694:A *691:A 0
*RES
1 tl_i[45] *691:A 18.3574 
*END

*D_NET *275 0.000532466
*CONN
*P tl_i[46] I
*I *690:A I *D sky130_fd_sc_hd__clkdlybuf4s50_1
*CAP
1 tl_i[46] 0.000175145
2 *690:A 0.000175145
3 *690:A tl_o[48] 4.71755e-05
4 *691:A *690:A 0.000135001
5 *72:127 *690:A 0
6 *72:136 *690:A 0
*RES
1 tl_i[46] *690:A 19.6032 
*END

*D_NET *276 0.000447192
*CONN
*P tl_i[47] I
*I *689:A I *D sky130_fd_sc_hd__clkdlybuf4s50_1
*CAP
1 tl_i[47] 0.000186279
2 *689:A 0.000186279
3 *689:A *582:A 0
4 *689:A *687:A 3.21073e-05
5 *689:A *688:A 4.25268e-05
6 *72:118 *689:A 0
*RES
1 tl_i[47] *689:A 19.1879 
*END

*D_NET *277 0.000539014
*CONN
*P tl_i[48] I
*I *688:A I *D sky130_fd_sc_hd__clkdlybuf4s50_1
*CAP
1 tl_i[48] 0.000239853
2 *688:A 0.000239853
3 *688:A tl_o[3] 1.67821e-05
4 *689:A *688:A 4.25268e-05
*RES
1 tl_i[48] *688:A 22.5149 
*END

*D_NET *278 0.000317493
*CONN
*P tl_i[49] I
*I *687:A I *D sky130_fd_sc_hd__clkdlybuf4s50_1
*CAP
1 tl_i[49] 9.35532e-05
2 *687:A 9.35532e-05
3 *687:A *582:A 9.82797e-05
4 *689:A *687:A 3.21073e-05
5 *72:107 *687:A 0
*RES
1 tl_i[49] *687:A 18.6197 
*END

*D_NET *280 0.000545838
*CONN
*P tl_i[50] I
*I *686:A I *D sky130_fd_sc_hd__clkdlybuf4s50_1
*CAP
1 tl_i[50] 0.000146534
2 *686:A 0.000146534
3 *686:A tl_o[10] 0.000118109
4 *686:A tl_o[6] 1.54716e-05
5 *686:A tl_o[7] 0.000119188
*RES
1 tl_i[50] *686:A 19.2644 
*END

*D_NET *281 0.000421495
*CONN
*P tl_i[51] I
*I *651:A I *D sky130_fd_sc_hd__clkdlybuf4s50_1
*CAP
1 tl_i[51] 8.4683e-05
2 *651:A 8.4683e-05
3 *651:A *594:A 0.000126065
4 *697:A *651:A 0.000126065
*RES
1 tl_i[51] *651:A 18.1948 
*END

*D_NET *282 0.00101457
*CONN
*P tl_i[52] I
*I *596:A I *D sky130_fd_sc_hd__clkdlybuf4s50_1
*CAP
1 tl_i[52] 0.000426516
2 *596:A 0.000426516
3 *718:A *596:A 0.000161535
*RES
1 tl_i[52] *596:A 25.2375 
*END

*D_NET *283 0.00107948
*CONN
*P tl_i[53] I
*I *594:A I *D sky130_fd_sc_hd__clkdlybuf4s50_1
*CAP
1 tl_i[53] 0.000338801
2 *594:A 0.000338801
3 *594:A *504:B 0.000153225
4 *651:A *594:A 0.000126065
5 *697:A *594:A 0
6 *698:A *594:A 0.000122592
*RES
1 tl_i[53] *594:A 24.8739 
*END

*D_NET *284 0.00145125
*CONN
*P tl_i[54] I
*I *593:A I *D sky130_fd_sc_hd__clkdlybuf4s50_1
*CAP
1 tl_i[54] 0.00048683
2 *593:A 0.00048683
3 *593:A tl_o[15] 0.000105988
4 *593:A tl_o[63] 5.76395e-05
5 *493:C *593:A 2.58757e-05
6 *695:A *593:A 0.000288083
*RES
1 tl_i[54] *593:A 25.3016 
*END

*D_NET *285 0.000686832
*CONN
*P tl_i[55] I
*I *591:A I *D sky130_fd_sc_hd__clkdlybuf4s50_1
*CAP
1 tl_i[55] 0.000190009
2 *591:A 0.000190009
3 *591:A tl_o[12] 0.00012929
4 *591:A tl_o[5] 0.000154317
5 *591:A tl_o[6] 2.32075e-05
*RES
1 tl_i[55] *591:A 19.4174 
*END

*D_NET *286 0.000377337
*CONN
*P tl_i[56] I
*I *582:A I *D sky130_fd_sc_hd__clkdlybuf4s50_1
*CAP
1 tl_i[56] 9.18488e-05
2 *582:A 9.18488e-05
3 *582:A *501:A 2.9322e-05
4 *582:A *580:A 6.60375e-05
5 *687:A *582:A 9.82797e-05
6 *689:A *582:A 0
*RES
1 tl_i[56] *582:A 17.9422 
*END

*D_NET *287 0.000691458
*CONN
*P tl_i[57] I
*I *580:A I *D sky130_fd_sc_hd__clkdlybuf4s50_1
*CAP
1 tl_i[57] 0.000270668
2 *580:A 0.000270668
3 *580:A *501:A 7.93279e-05
4 *580:A *503:A 4.75721e-06
5 *582:A *580:A 6.60375e-05
*RES
1 tl_i[57] *580:A 22.6957 
*END

*D_NET *288 0.000794208
*CONN
*P tl_i[58] I
*I *576:A I *D sky130_fd_sc_hd__clkdlybuf4s50_1
*CAP
1 tl_i[58] 0.000359909
2 *576:A 0.000359909
3 *576:A *503:A 3.71946e-05
4 *696:A *576:A 3.71946e-05
*RES
1 tl_i[58] *576:A 25.0065 
*END

*D_NET *289 0.000709937
*CONN
*P tl_i[59] I
*I *503:A I *D sky130_fd_sc_hd__clkdlybuf4s50_1
*CAP
1 tl_i[59] 0.000247497
2 *503:A 0.000247497
3 *503:A *496:A 0.000136721
4 *576:A *503:A 3.71946e-05
5 *580:A *503:A 4.75721e-06
6 *696:A *503:A 3.62698e-05
*RES
1 tl_i[59] *503:A 21.6795 
*END

*D_NET *291 0.000436132
*CONN
*P tl_i[60] I
*I *501:A I *D sky130_fd_sc_hd__clkdlybuf4s50_1
*CAP
1 tl_i[60] 9.66148e-05
2 *501:A 9.66148e-05
3 *501:A *496:A 0.000134253
4 *580:A *501:A 7.93279e-05
5 *582:A *501:A 2.9322e-05
6 *72:98 *501:A 0
*RES
1 tl_i[60] *501:A 18.3574 
*END

*D_NET *292 0.0009941
*CONN
*P tl_i[61] I
*I *496:A I *D sky130_fd_sc_hd__clkdlybuf4s50_1
*CAP
1 tl_i[61] 0.000361563
2 *496:A 0.000361563
3 *489:A *496:A 0
4 *501:A *496:A 0.000134253
5 *503:A *496:A 0.000136721
*RES
1 tl_i[61] *496:A 20.2151 
*END

*D_NET *293 0.000558685
*CONN
*P tl_i[62] I
*I *487:A I *D sky130_fd_sc_hd__clkdlybuf4s50_1
*CAP
1 tl_i[62] 0.000279342
2 *487:A 0.000279342
3 *487:A *859:A 0
*RES
1 tl_i[62] *487:A 20.582 
*END

*D_NET *294 0.000467036
*CONN
*P tl_i[63] I
*I *859:A I *D sky130_fd_sc_hd__clkdlybuf4s50_1
*CAP
1 tl_i[63] 0.000233518
2 *859:A 0.000233518
3 *487:A *859:A 0
*RES
1 tl_i[63] *859:A 19.4728 
*END

*D_NET *326 0.00065629
*CONN
*P tl_i[92] I
*I *860:A I *D sky130_fd_sc_hd__clkdlybuf4s50_1
*CAP
1 tl_i[92] 0.000254569
2 *860:A 0.000254569
3 *860:A tl_o[49] 0
4 *860:A tl_o[57] 0.000147152
*RES
1 tl_i[92] *860:A 21.035 
*END

*D_NET *327 0.00195913
*CONN
*P tl_i[93] I
*I *861:A I *D sky130_fd_sc_hd__clkdlybuf4s50_1
*CAP
1 tl_i[93] 0.000576976
2 *861:A 0.000576976
3 *861:A tl_o[57] 0.000472035
4 *861:A tl_o[58] 0.000194261
5 *861:A *762:RESET_B 0
6 *861:A *771:RESET_B 3.13499e-05
7 *861:A *388:12 4.47578e-05
8 *716:A *861:A 0
9 *53:406 *861:A 6.27718e-05
10 *127:155 *861:A 0
*RES
1 tl_i[93] *861:A 33.2139 
*END

*D_NET *328 0.000586808
*CONN
*P tl_i[94] I
*I *862:A I *D sky130_fd_sc_hd__clkdlybuf4s50_1
*CAP
1 tl_i[94] 0.000144499
2 *862:A 0.000144499
3 *862:A *863:A 0.000147152
4 *204:22 *862:A 0.000150659
*RES
1 tl_i[94] *862:A 19.9258 
*END

*D_NET *329 0.0016444
*CONN
*P tl_i[95] I
*I *863:A I *D sky130_fd_sc_hd__clkdlybuf4s50_1
*CAP
1 tl_i[95] 0.000489343
2 *863:A 0.000489343
3 *863:A *658:B 0
4 *863:A *661:B 0.00033614
5 *863:A *764:CLK 0
6 *863:A *352:126 1.89037e-05
7 *657:A *863:A 0
8 *662:B *863:A 0.000148114
9 *862:A *863:A 0.000147152
10 *53:476 *863:A 0
11 *204:22 *863:A 1.54067e-05
*RES
1 tl_i[95] *863:A 29.657 
*END

*D_NET *330 0.00202189
*CONN
*P tl_i[96] I
*I *864:A I *D sky130_fd_sc_hd__clkdlybuf4s50_1
*CAP
1 tl_i[96] 0.000716684
2 *864:A 0.000716684
3 *864:A tl_o[50] 0.000438734
4 *864:A tl_o[55] 1.98816e-05
5 *864:A *768:RESET_B 7.12632e-06
6 *864:A *866:A 0.000122781
*RES
1 tl_i[96] *864:A 19.319 
*END

*D_NET *331 0.0012811
*CONN
*P tl_i[97] I
*I *865:A I *D sky130_fd_sc_hd__clkdlybuf4s50_1
*CAP
1 tl_i[97] 0.000419251
2 *865:A 0.000419251
3 *865:A tl_o[50] 0.000243146
4 *865:A tl_o[54] 8.99541e-05
5 *865:A *867:A 3.53464e-05
6 *670:A *865:A 0
7 *127:96 *865:A 7.41546e-05
*RES
1 tl_i[97] *865:A 21.3079 
*END

*D_NET *332 0.00124361
*CONN
*P tl_i[98] I
*I *866:A I *D sky130_fd_sc_hd__clkdlybuf4s50_1
*CAP
1 tl_i[98] 0.00042767
2 *866:A 0.00042767
3 *866:A tl_o[55] 0.000113213
4 *866:A *670:B 0.000136204
5 *866:A *765:RESET_B 0
6 *670:A *866:A 1.60695e-05
7 *864:A *866:A 0.000122781
*RES
1 tl_i[98] *866:A 26.0064 
*END

*D_NET *333 0.00251704
*CONN
*P tl_i[99] I
*I *867:A I *D sky130_fd_sc_hd__clkdlybuf4s50_1
*CAP
1 tl_i[99] 0.000964747
2 *867:A 0.000964747
3 *867:A tl_o[50] 0
4 *867:A tl_o[54] 9.82797e-05
5 *867:A tl_o[56] 0.000432273
6 *867:A *672:B 5.03545e-06
7 *867:A *766:RESET_B 0
8 *867:A *352:10 0
9 *867:A *352:12 0
10 *867:A *352:96 1.1573e-05
11 *673:A *867:A 5.03545e-06
12 *865:A *867:A 3.53464e-05
*RES
1 tl_i[99] *867:A 23.5152 
*END

*D_NET *335 0.00111039
*CONN
*I *581:A2 I *D sky130_fd_sc_hd__o21ai_0
*I *869:A I *D sky130_fd_sc_hd__clkdlybuf4s50_1
*I *579:Y O *D sky130_fd_sc_hd__inv_1
*CAP
1 *581:A2 0
2 *869:A 9.87438e-05
3 *579:Y 0.000195688
4 *335:12 0.000294432
5 *335:12 *579:A 2.07356e-05
6 *335:12 *581:A1 0.000304473
7 *581:B1 *335:12 7.69657e-05
8 *741:D *335:12 0.00011935
*RES
1 *579:Y *335:12 24.8191 
2 *335:12 *869:A 11.6605 
3 *335:12 *581:A2 9.24915 
*END

*D_NET *336 0.000353404
*CONN
*P tl_o[10] O
*I *781:LO O *D sky130_fd_sc_hd__conb_1
*CAP
1 tl_o[10] 6.46538e-05
2 *781:LO 6.46538e-05
3 tl_o[10] tl_o[6] 0.000105988
4 *686:A tl_o[10] 0.000118109
*RES
1 *781:LO tl_o[10] 17.8657 
*END

*D_NET *337 0.000500775
*CONN
*P tl_o[11] O
*I *782:LO O *D sky130_fd_sc_hd__conb_1
*CAP
1 tl_o[11] 0.000188667
2 *782:LO 0.000188667
3 tl_o[11] tl_o[5] 0.000123441
4 tl_o[11] tl_o[61] 0
*RES
1 *782:LO tl_o[11] 19.6032 
*END

*D_NET *338 0.000425251
*CONN
*P tl_o[12] O
*I *783:LO O *D sky130_fd_sc_hd__conb_1
*CAP
1 tl_o[12] 8.25343e-05
2 *783:LO 8.25343e-05
3 tl_o[12] tl_o[6] 0.000130893
4 *591:A tl_o[12] 0.00012929
*RES
1 *783:LO tl_o[12] 17.9422 
*END

*D_NET *339 0.000417306
*CONN
*P tl_o[13] O
*I *784:LO O *D sky130_fd_sc_hd__conb_1
*CAP
1 tl_o[13] 9.35918e-05
2 *784:LO 9.35918e-05
3 tl_o[13] tl_o[63] 0.000112013
4 tl_o[13] tl_o[7] 0.000118109
*RES
1 *784:LO tl_o[13] 18.6962 
*END

*D_NET *340 0.000433687
*CONN
*P tl_o[14] O
*I *785:LO O *D sky130_fd_sc_hd__conb_1
*CAP
1 tl_o[14] 0.000175611
2 *785:LO 0.000175611
3 tl_o[14] tl_o[19] 8.24651e-05
*RES
1 *785:LO tl_o[14] 20.2042 
*END

*D_NET *341 0.000350334
*CONN
*P tl_o[15] O
*I *786:LO O *D sky130_fd_sc_hd__conb_1
*CAP
1 tl_o[15] 6.019e-05
2 *786:LO 6.019e-05
3 tl_o[15] tl_o[63] 0.000123966
4 *593:A tl_o[15] 0.000105988
*RES
1 *786:LO tl_o[15] 17.8657 
*END

*D_NET *342 0.00151002
*CONN
*I *870:A I *D sky130_fd_sc_hd__clkdlybuf4s50_1
*I *583:A I *D sky130_fd_sc_hd__nor2_1
*I *742:Q O *D sky130_fd_sc_hd__dfrtp_1
*CAP
1 *870:A 0.000310107
2 *583:A 0.000132682
3 *742:Q 0.000108536
4 *342:8 0.000551325
5 *583:A *648:A1 5.28741e-05
6 *648:A2 *870:A 8.00198e-06
7 *648:A2 *342:8 3.39313e-06
8 *648:B1 *583:A 2.07503e-05
9 *649:A *870:A 7.4215e-05
10 *649:A *342:8 9.89388e-06
11 *53:48 *342:8 1.81949e-05
12 *53:61 *583:A 0.000220044
*RES
1 *742:Q *342:8 15.9964 
2 *342:8 *583:A 17.9856 
3 *342:8 *870:A 21.1538 
*END

*D_NET *343 0.00029652
*CONN
*I *871:A I *D sky130_fd_sc_hd__clkdlybuf4s50_1
*I *608:A I *D sky130_fd_sc_hd__nor2_1
*I *748:Q O *D sky130_fd_sc_hd__dfrtp_1
*CAP
1 *871:A 2.82698e-05
2 *608:A 0
3 *748:Q 7.82902e-05
4 *343:8 0.00010656
5 *608:B *343:8 6.92705e-05
6 *611:A *343:8 1.41291e-05
*RES
1 *748:Q *343:8 11.6605 
2 *343:8 *608:A 9.24915 
3 *343:8 *871:A 9.97254 
*END

*D_NET *346 0.000870587
*CONN
*I *577:B I *D sky130_fd_sc_hd__nand2_1
*I *874:A I *D sky130_fd_sc_hd__clkdlybuf4s50_1
*I *740:Q O *D sky130_fd_sc_hd__dfrtp_1
*CAP
1 *577:B 0.000129463
2 *874:A 0
3 *740:Q 0.000214861
4 *346:12 0.000344323
5 *577:B *577:A 1.92876e-05
6 *577:B *628:B 6.1821e-05
7 *346:12 *356:331 8.60833e-06
8 *578:B1 *577:B 6.64392e-05
9 *915:A *346:12 2.57847e-05
*RES
1 *740:Q *346:12 22.1896 
2 *346:12 *874:A 9.24915 
3 *346:12 *577:B 13.3484 
*END

*D_NET *350 0.00294271
*CONN
*I *875:A I *D sky130_fd_sc_hd__clkdlybuf4s50_1
*I *876:A I *D sky130_fd_sc_hd__clkdlybuf4s50_1
*I *878:A I *D sky130_fd_sc_hd__clkdlybuf4s50_1
*I *873:A I *D sky130_fd_sc_hd__clkdlybuf4s50_1
*I *877:A I *D sky130_fd_sc_hd__clkdlybuf4s50_1
*I *872:A I *D sky130_fd_sc_hd__clkdlybuf4s50_1
*I *648:A1 I *D sky130_fd_sc_hd__o21ai_0
*I *761:Q O *D sky130_fd_sc_hd__dfrtp_1
*CAP
1 *875:A 9.98371e-05
2 *876:A 0.000111314
3 *878:A 0
4 *873:A 0.000193432
5 *877:A 0
6 *872:A 0
7 *648:A1 0.000311256
8 *761:Q 0
9 *350:38 0.000350398
10 *350:16 0.00045832
11 *350:14 0.00036215
12 *350:12 0.000156188
13 *350:10 0.000290367
14 *350:4 0.000180823
15 *350:10 tl_o[22] 0.00012063
16 *350:38 tl_o[16] 2.02035e-05
17 *350:38 tl_o[18] 3.31733e-05
18 *350:38 tl_o[22] 0
19 *583:A *648:A1 5.28741e-05
20 *648:B1 *648:A1 1.26616e-05
21 *649:A *648:A1 0.000170864
22 *761:D *648:A1 1.82126e-05
*RES
1 *761:Q *350:4 9.24915 
2 *350:4 *350:10 11.2472 
3 *350:10 *350:12 2.38721 
4 *350:12 *350:14 1.278 
5 *350:14 *350:16 3.49641 
6 *350:16 *648:A1 17.6405 
7 *350:16 *872:A 9.24915 
8 *350:14 *350:38 12.9083 
9 *350:38 *877:A 9.24915 
10 *350:38 *873:A 13.8548 
11 *350:12 *878:A 9.24915 
12 *350:10 *876:A 11.6364 
13 *350:4 *875:A 11.5158 
*END

*D_NET *352 0.0153088
*CONN
*I *767:CLK I *D sky130_fd_sc_hd__dfrtp_1
*I *762:CLK I *D sky130_fd_sc_hd__dfrtp_1
*I *771:CLK I *D sky130_fd_sc_hd__dfrtp_1
*I *770:CLK I *D sky130_fd_sc_hd__dfrtp_1
*I *764:CLK I *D sky130_fd_sc_hd__dfrtp_1
*I *765:CLK I *D sky130_fd_sc_hd__dfrtp_1
*I *768:CLK I *D sky130_fd_sc_hd__dfrtp_1
*I *763:CLK I *D sky130_fd_sc_hd__dfrtp_1
*I *704:A I *D sky130_fd_sc_hd__clkbuf_8
*I *766:CLK I *D sky130_fd_sc_hd__dfrtp_1
*I *769:CLK I *D sky130_fd_sc_hd__dfrtp_1
*I *752:CLK I *D sky130_fd_sc_hd__dfrtp_1
*I *753:CLK I *D sky130_fd_sc_hd__dfrtp_1
*I *743:CLK I *D sky130_fd_sc_hd__dfrtp_1
*I *707:X O *D sky130_fd_sc_hd__clkbuf_8
*CAP
1 *767:CLK 0
2 *762:CLK 0
3 *771:CLK 0.000293992
4 *770:CLK 0.000765758
5 *764:CLK 0.000157423
6 *765:CLK 0
7 *768:CLK 0
8 *763:CLK 0.000301598
9 *704:A 0.000340434
10 *766:CLK 0
11 *769:CLK 0
12 *752:CLK 0.000165458
13 *753:CLK 0.000142065
14 *743:CLK 0.000317053
15 *707:X 0.00011123
16 *352:156 0.00105975
17 *352:154 0.000965564
18 *352:126 0.000519492
19 *352:111 0.000398026
20 *352:107 0.00130688
21 *352:96 0.000726801
22 *352:92 0.000193187
23 *352:35 0.000562545
24 *352:33 0.000622089
25 *352:14 0.000789871
26 *352:12 0.000288866
27 *352:10 0.00064046
28 *352:6 0.000301482
29 *752:CLK *745:RESET_B 0.00012041
30 *752:CLK *454:14 7.09558e-05
31 *753:CLK *454:14 0.00010076
32 *753:CLK *481:121 4.2372e-05
33 *763:CLK *654:B 3.81056e-05
34 *763:CLK *763:RESET_B 4.53374e-05
35 *763:CLK *904:A 1.41976e-05
36 *763:CLK *356:372 5.98634e-05
37 *764:CLK *657:B 1.40978e-05
38 *764:CLK *381:6 1.00937e-05
39 *770:CLK tl_o[36] 8.64539e-05
40 *770:CLK tl_o[38] 7.74658e-05
41 *771:CLK tl_o[36] 5.76223e-05
42 *771:CLK tl_o[38] 6.37349e-05
43 *771:CLK *772:RESET_B 0.000167413
44 *352:33 *481:121 7.01531e-05
45 *352:35 *481:121 0.000353789
46 *352:96 *766:RESET_B 0
47 *352:96 *768:RESET_B 0
48 *352:96 *356:374 0
49 *352:107 tl_o[50] 0
50 *352:107 *654:B 2.67514e-05
51 *592:A *743:CLK 9.32102e-05
52 *655:A *352:107 1.21985e-05
53 *656:A *352:96 0.000200236
54 *656:A *352:107 0.000108795
55 *657:A *764:CLK 1.72464e-05
56 *659:A *764:CLK 0.00011818
57 *662:B *764:CLK 2.75292e-05
58 *662:B *352:126 1.2601e-05
59 *673:A *743:CLK 0.000183847
60 *673:A *352:12 7.22413e-05
61 *673:A *352:14 7.57062e-05
62 *674:B *704:A 0.000167692
63 *675:A *763:CLK 0.000232942
64 *677:B *763:CLK 4.31539e-05
65 *743:D *743:CLK 7.16754e-05
66 *762:D *352:154 0.00036265
67 *763:D *763:CLK 7.48633e-05
68 *763:D *352:6 6.9404e-05
69 *763:D *352:92 2.41274e-06
70 *764:D *764:CLK 0.000308618
71 *768:D *352:126 3.00829e-05
72 *769:D *704:A 8.69055e-05
73 *863:A *764:CLK 0
74 *863:A *352:126 1.89037e-05
75 *867:A *352:10 0
76 *867:A *352:12 0
77 *867:A *352:96 1.1573e-05
78 *915:A *743:CLK 7.80575e-05
79 *53:177 *753:CLK 3.4067e-05
80 *53:408 *352:107 3.82612e-05
81 *53:476 *352:107 1.59362e-06
82 *53:476 *352:126 0
83 *53:476 *352:154 2.83033e-05
84 *126:142 *752:CLK 6.51164e-05
85 *126:142 *753:CLK 0.000107496
86 *126:142 *352:35 0.000110458
87 *127:139 *352:126 1.28838e-05
88 *127:141 *764:CLK 1.36556e-05
89 *127:141 *352:126 2.66394e-05
*RES
1 *707:X *352:6 12.191 
2 *352:6 *352:10 7.1625 
3 *352:10 *352:12 3.90826 
4 *352:12 *352:14 3.07775 
5 *352:14 *743:CLK 24.0994 
6 *352:14 *352:33 13.5666 
7 *352:33 *352:35 9.04245 
8 *352:35 *753:CLK 22.6049 
9 *352:35 *752:CLK 23.1836 
10 *352:33 *769:CLK 9.24915 
11 *352:12 *766:CLK 13.7491 
12 *352:10 *704:A 22.8398 
13 *352:6 *352:92 1.85672 
14 *352:92 *352:96 7.993 
15 *352:96 *763:CLK 24.4554 
16 *352:96 *352:107 6.81502 
17 *352:107 *352:111 5.2234 
18 *352:111 *768:CLK 9.24915 
19 *352:111 *352:126 14.606 
20 *352:126 *765:CLK 13.7491 
21 *352:126 *764:CLK 19.9322 
22 *352:107 *352:154 21.2152 
23 *352:154 *352:156 4.5 
24 *352:156 *770:CLK 27.6857 
25 *352:156 *771:CLK 22.8176 
26 *352:154 *762:CLK 9.24915 
27 *352:92 *767:CLK 9.24915 
*END

*D_NET *353 0.012455
*CONN
*I *741:CLK I *D sky130_fd_sc_hd__dfrtp_1
*I *756:CLK I *D sky130_fd_sc_hd__dfrtp_1
*I *758:CLK I *D sky130_fd_sc_hd__dfrtp_1
*I *748:CLK I *D sky130_fd_sc_hd__dfrtp_1
*I *761:CLK I *D sky130_fd_sc_hd__dfrtp_1
*I *705:A I *D sky130_fd_sc_hd__clkinv_2
*I *740:CLK I *D sky130_fd_sc_hd__dfrtp_1
*I *739:CLK I *D sky130_fd_sc_hd__dfrtp_1
*I *754:CLK I *D sky130_fd_sc_hd__dfrtp_1
*I *759:CLK I *D sky130_fd_sc_hd__dfrtp_1
*I *760:CLK I *D sky130_fd_sc_hd__dfrtp_1
*I *757:CLK I *D sky130_fd_sc_hd__dfrtp_1
*I *742:CLK I *D sky130_fd_sc_hd__dfrtp_1
*I *708:X O *D sky130_fd_sc_hd__clkbuf_8
*CAP
1 *741:CLK 0.000433794
2 *756:CLK 0
3 *758:CLK 0
4 *748:CLK 0
5 *761:CLK 0.000160632
6 *705:A 0
7 *740:CLK 5.31076e-05
8 *739:CLK 0.000516554
9 *754:CLK 0
10 *759:CLK 0
11 *760:CLK 0
12 *757:CLK 2.09412e-05
13 *742:CLK 0.000262519
14 *708:X 1.90605e-05
15 *353:110 0.00045811
16 *353:106 0.000534157
17 *353:100 0.000301177
18 *353:96 0.000521512
19 *353:75 0.000772009
20 *353:32 0.000566359
21 *353:26 0.000573929
22 *353:24 0.000527123
23 *353:18 0.000236092
24 *353:16 0.000412137
25 *353:10 0.000477497
26 *353:6 0.000309988
27 *739:CLK *739:RESET_B 0.0002101
28 *740:CLK *739:RESET_B 7.20028e-05
29 *741:CLK tl_o[41] 0
30 *741:CLK *896:A 5.6489e-05
31 *741:CLK *463:22 0.00052152
32 *757:CLK *637:B 2.58757e-05
33 *761:CLK *761:RESET_B 0
34 *353:6 *463:22 4.80635e-06
35 *353:10 *463:22 0.000123106
36 *353:16 *759:RESET_B 6.31809e-05
37 *353:16 *356:156 0
38 *353:16 *463:22 0.000164843
39 *353:32 *637:B 2.58616e-05
40 *353:75 *356:163 0
41 *353:96 *463:22 3.22623e-05
42 *353:100 *643:B 0
43 *353:100 *481:31 0.000148114
44 *353:106 *646:A 0.000193552
45 *353:106 *757:RESET_B 0
46 *353:106 *902:A 0.000157808
47 *353:106 *481:31 4.94624e-05
48 *353:110 *761:RESET_B 0
49 *353:110 *356:255 0
50 *518:A *353:26 3.86835e-05
51 *585:A2 *742:CLK 6.50586e-05
52 *587:B *742:CLK 0.000200251
53 *587:C *742:CLK 1.87469e-05
54 *588:A *742:CLK 3.31733e-05
55 *609:A2 *742:CLK 3.21568e-05
56 *610:B *761:CLK 0
57 *635:B *741:CLK 9.53216e-05
58 *635:B *353:10 1.41976e-05
59 *635:B *353:96 9.97706e-05
60 *635:B *353:100 4.87198e-05
61 *635:B *353:106 1.41205e-05
62 *641:B *741:CLK 0.00011818
63 *641:B *353:106 5.28741e-05
64 *641:C *353:106 1.37189e-05
65 *644:B *353:10 0.000118166
66 *644:B *353:16 3.61993e-05
67 *648:B1 *761:CLK 0
68 *739:D *739:CLK 6.72397e-05
69 *754:D *353:75 2.78772e-05
70 *757:D *353:106 0
71 *758:D *353:106 9.94284e-06
72 *53:18 *741:CLK 0
73 *53:38 *741:CLK 0
74 *53:48 *761:CLK 0
75 *53:77 *742:CLK 1.69932e-05
76 *53:94 *742:CLK 6.23397e-05
77 *53:120 *353:16 0.000252327
78 *53:133 *353:16 0.000145753
79 *53:133 *353:75 0.00017559
80 *53:152 *353:75 0.000160135
81 *54:12 *742:CLK 0
82 *54:25 *353:32 0
83 *54:68 *353:24 0.000178545
84 *54:68 *353:26 5.4704e-05
85 *54:95 *739:CLK 0.000141193
86 *126:150 *353:24 0.000196346
87 *126:150 *353:26 0.000188012
88 *126:152 *353:26 0.000239153
89 *126:158 *353:26 0.000136572
90 *126:158 *353:32 0.000190174
91 *176:24 *353:32 0.000207069
*RES
1 *708:X *353:6 9.82786 
2 *353:6 *353:10 7.81268 
3 *353:10 *353:16 13.1476 
4 *353:16 *353:18 4.5 
5 *353:18 *353:24 11.4894 
6 *353:24 *353:26 10.137 
7 *353:26 *353:32 12.5986 
8 *353:32 *742:CLK 26.3422 
9 *353:32 *757:CLK 9.97254 
10 *353:26 *760:CLK 13.7491 
11 *353:24 *759:CLK 13.7491 
12 *353:18 *754:CLK 9.24915 
13 *353:16 *353:75 10.8998 
14 *353:75 *739:CLK 23.8376 
15 *353:75 *740:CLK 11.0817 
16 *353:10 *705:A 9.24915 
17 *353:6 *353:96 1.278 
18 *353:96 *353:100 7.1625 
19 *353:100 *353:106 12.4593 
20 *353:106 *353:110 10.8998 
21 *353:110 *761:CLK 17.2421 
22 *353:110 *748:CLK 13.7491 
23 *353:106 *758:CLK 9.24915 
24 *353:100 *756:CLK 13.7491 
25 *353:96 *741:CLK 31.1942 
*END

*D_NET *354 0.0160712
*CONN
*I *750:CLK I *D sky130_fd_sc_hd__dfrtp_1
*I *747:CLK I *D sky130_fd_sc_hd__dfrtp_1
*I *733:CLK I *D sky130_fd_sc_hd__dfrtp_1
*I *721:CLK I *D sky130_fd_sc_hd__dfrtp_1
*I *772:CLK I *D sky130_fd_sc_hd__dfrtp_1
*I *746:CLK I *D sky130_fd_sc_hd__dfrtp_1
*I *720:CLK I *D sky130_fd_sc_hd__dfrtp_1
*I *732:CLK I *D sky130_fd_sc_hd__dfrtp_1
*I *735:CLK I *D sky130_fd_sc_hd__dfrtp_1
*I *736:CLK I *D sky130_fd_sc_hd__dfrtp_1
*I *749:CLK I *D sky130_fd_sc_hd__dfrtp_1
*I *751:CLK I *D sky130_fd_sc_hd__dfrtp_1
*I *734:CLK I *D sky130_fd_sc_hd__dfrtp_1
*I *738:CLK I *D sky130_fd_sc_hd__dfrtp_1
*I *737:CLK I *D sky130_fd_sc_hd__dfrtp_1
*I *709:X O *D sky130_fd_sc_hd__clkbuf_8
*CAP
1 *750:CLK 0.000250088
2 *747:CLK 0.000236995
3 *733:CLK 0
4 *721:CLK 0.000268812
5 *772:CLK 0.000652166
6 *746:CLK 0
7 *720:CLK 0.00017747
8 *732:CLK 0
9 *735:CLK 0
10 *736:CLK 0
11 *749:CLK 8.19352e-06
12 *751:CLK 0.000275667
13 *734:CLK 0
14 *738:CLK 4.25254e-05
15 *737:CLK 0.000445704
16 *709:X 0.00011962
17 *354:147 0.000585218
18 *354:117 0.00125108
19 *354:108 0.000776383
20 *354:106 0.000410131
21 *354:97 0.000378663
22 *354:88 0.000356548
23 *354:55 0.000647428
24 *354:48 0.000868412
25 *354:22 0.000606357
26 *354:20 0.000751395
27 *354:18 0.00025016
28 *354:16 0.000639044
29 *354:12 0.000578502
30 *354:8 0.000398152
31 *721:CLK *720:D 0.000123176
32 *721:CLK *721:RESET_B 2.57986e-05
33 *750:CLK *548:B 4.62703e-05
34 *751:CLK *453:10 0
35 *354:18 *356:630 0
36 *354:88 *356:630 0
37 *354:97 *356:637 0
38 *354:106 *720:D 0
39 *354:106 *720:RESET_B 0
40 *354:106 *721:RESET_B 0
41 *354:106 *356:637 0
42 *354:106 *356:644 0
43 *354:117 *721:D 2.99287e-05
44 *544:A *354:18 1.79196e-05
45 *544:A *354:88 8.44589e-05
46 *544:A *354:97 2.55129e-05
47 *546:A *747:CLK 0.000131217
48 *547:B1_N *747:CLK 0.000120245
49 *547:B1_N *354:8 3.89332e-06
50 *548:A *747:CLK 1.02267e-05
51 *548:C *354:8 0
52 *548:C *354:147 0
53 *549:A *750:CLK 2.44969e-05
54 *549:A *354:8 5.96936e-05
55 *549:A *354:147 6.18656e-05
56 *549:B *747:CLK 5.04829e-06
57 *557:A *354:16 0.000254493
58 *557:B *354:16 2.65831e-05
59 *558:A *354:16 0.000126139
60 *559:B1_N *354:16 0.000386284
61 *561:A *354:16 3.79454e-05
62 *561:A *354:18 0.000111343
63 *561:A *354:20 1.07248e-05
64 *565:B *737:CLK 0.000467999
65 *567:A1 *354:48 6.08467e-05
66 *567:A2 *354:48 6.08467e-05
67 *569:A *354:22 0.00012136
68 *569:A *354:48 0.000188486
69 *602:A *750:CLK 1.50924e-05
70 *617:A *750:CLK 0.000116698
71 *620:A *749:CLK 2.30636e-05
72 *620:A *751:CLK 0.000130783
73 *620:A *354:48 3.79159e-05
74 *620:A *354:55 0.000255524
75 *692:A *354:117 0.000224381
76 *719:A *721:CLK 0.00033061
77 *732:D *354:97 9.0984e-05
78 *733:D *747:CLK 2.58757e-05
79 *734:D *354:48 4.24488e-05
80 *734:D *354:55 6.69545e-05
81 *735:D *354:88 5.71059e-05
82 *737:D *737:CLK 4.66889e-05
83 *738:D *738:CLK 4.89392e-05
84 *750:D *750:CLK 5.71849e-05
85 *53:369 *750:CLK 4.62298e-05
86 *54:207 *354:12 9.44554e-05
87 *54:207 *354:16 2.83289e-05
88 *56:226 *354:48 0.000466249
89 *65:52 *354:8 1.07248e-05
90 *70:63 *737:CLK 6.84737e-05
91 *70:63 *354:22 8.70662e-06
92 *70:74 *354:20 5.01524e-05
93 *70:74 *354:22 8.48137e-05
94 *70:119 *354:18 2.04806e-05
95 *70:119 *354:20 2.47808e-05
*RES
1 *709:X *354:8 16.8269 
2 *354:8 *354:12 9.10562 
3 *354:12 *354:16 17.9793 
4 *354:16 *354:18 3.493 
5 *354:18 *354:20 3.493 
6 *354:20 *354:22 3.90826 
7 *354:22 *737:CLK 27.142 
8 *354:22 *738:CLK 15.0271 
9 *354:20 *354:48 20.1977 
10 *354:48 *734:CLK 9.24915 
11 *354:48 *354:55 11.2609 
12 *354:55 *751:CLK 23.8722 
13 *354:55 *749:CLK 9.97254 
14 *354:18 *736:CLK 13.7491 
15 *354:16 *354:88 4.2258 
16 *354:88 *735:CLK 13.7491 
17 *354:88 *354:97 6.81502 
18 *354:97 *732:CLK 13.7491 
19 *354:97 *354:106 3.493 
20 *354:106 *354:108 4.5 
21 *354:108 *720:CLK 13.3002 
22 *354:108 *354:117 14.5885 
23 *354:117 *746:CLK 9.24915 
24 *354:117 *772:CLK 24.3922 
25 *354:106 *721:CLK 22.5417 
26 *354:12 *733:CLK 9.24915 
27 *354:8 *354:147 2.6625 
28 *354:147 *747:CLK 20.5973 
29 *354:147 *750:CLK 20.4599 
*END

*D_NET *355 0.0152515
*CONN
*I *729:CLK I *D sky130_fd_sc_hd__dfrtp_1
*I *731:CLK I *D sky130_fd_sc_hd__dfrtp_1
*I *745:CLK I *D sky130_fd_sc_hd__dfrtp_1
*I *744:CLK I *D sky130_fd_sc_hd__dfrtp_1
*I *724:CLK I *D sky130_fd_sc_hd__dfrtp_1
*I *706:A I *D sky130_fd_sc_hd__clkbuf_8
*I *726:CLK I *D sky130_fd_sc_hd__dfrtp_1
*I *728:CLK I *D sky130_fd_sc_hd__dfrtp_1
*I *723:CLK I *D sky130_fd_sc_hd__dfrtp_1
*I *722:CLK I *D sky130_fd_sc_hd__dfrtp_1
*I *727:CLK I *D sky130_fd_sc_hd__dfrtp_1
*I *725:CLK I *D sky130_fd_sc_hd__dfrtp_1
*I *730:CLK I *D sky130_fd_sc_hd__dfrtp_1
*I *755:CLK I *D sky130_fd_sc_hd__dfrtp_1
*I *710:X O *D sky130_fd_sc_hd__clkbuf_8
*CAP
1 *729:CLK 0.000119358
2 *731:CLK 0
3 *745:CLK 0.000343475
4 *744:CLK 0
5 *724:CLK 0.000432715
6 *706:A 0.00049636
7 *726:CLK 0.000193284
8 *728:CLK 0
9 *723:CLK 0.00018515
10 *722:CLK 0
11 *727:CLK 0
12 *725:CLK 0.000265529
13 *730:CLK 0
14 *755:CLK 0.0001011
15 *710:X 0
16 *355:144 0.000459211
17 *355:133 0.00065393
18 *355:127 0.000143949
19 *355:112 0.000873326
20 *355:59 0.000724075
21 *355:53 0.00111735
22 *355:37 0.000859801
23 *355:35 0.00069411
24 *355:31 0.000437305
25 *355:27 0.000725998
26 *355:10 0.000623923
27 *355:8 0.000474966
28 *355:4 0.00013638
29 *723:CLK *722:RESET_B 7.86597e-05
30 *723:CLK *723:RESET_B 2.41274e-06
31 *724:CLK *724:RESET_B 4.6401e-05
32 *745:CLK *597:A 3.86121e-05
33 *745:CLK *481:133 7.92757e-06
34 *355:31 *728:RESET_B 8.08598e-05
35 *355:35 *728:RESET_B 0.00011815
36 *355:53 *727:RESET_B 6.08467e-05
37 *355:53 *356:8 0.000143406
38 *498:B1_N *723:CLK 0.000266846
39 *504:A *355:53 0.00011818
40 *505:B *355:37 0.000100905
41 *505:B *355:53 1.41291e-05
42 *508:A *355:35 6.9375e-05
43 *510:A *706:A 1.32866e-05
44 *510:A *724:CLK 2.16355e-05
45 *510:A *355:133 0.000132826
46 *511:A1 *706:A 4.89251e-05
47 *520:B *355:35 0.000303679
48 *523:A2 *355:53 0
49 *524:A *355:53 0.000277488
50 *529:B *355:35 1.94615e-05
51 *532:A *706:A 4.89392e-05
52 *532:B *706:A 1.63652e-05
53 *533:B *706:A 6.71644e-05
54 *533:B *355:112 5.99359e-05
55 *533:B *355:133 6.08467e-05
56 *536:A *725:CLK 0
57 *537:A *725:CLK 0.000143027
58 *539:A1 *729:CLK 4.52897e-05
59 *539:A2 *729:CLK 0.00012503
60 *541:A *755:CLK 9.14834e-05
61 *541:A *355:10 0
62 *563:B1_N *745:CLK 1.53438e-05
63 *598:B *745:CLK 0.000176909
64 *598:C *745:CLK 6.50586e-05
65 *632:C *745:CLK 0
66 *632:C *355:27 0
67 *632:C *355:133 8.70662e-06
68 *632:C *355:144 6.14147e-05
69 *722:D *355:37 7.48633e-05
70 *724:D *724:CLK 3.00829e-05
71 *731:D *755:CLK 2.44829e-05
72 *731:D *355:10 4.08057e-05
73 *731:D *355:27 1.45944e-05
74 *731:D *355:112 3.35066e-05
75 *744:D *745:CLK 2.95039e-05
76 *755:D *355:27 4.61732e-05
77 *53:225 *355:133 0.000161342
78 *56:42 *745:CLK 0
79 *56:42 *355:144 0
80 *56:65 *355:27 0
81 *56:102 *729:CLK 0.000415335
82 *56:102 *355:8 6.3657e-05
83 *56:108 *729:CLK 6.24474e-06
84 *65:62 *745:CLK 5.56461e-05
85 *65:70 *745:CLK 4.80635e-06
86 *65:72 *706:A 1.6352e-05
87 *65:76 *729:CLK 6.91171e-05
88 *65:76 *355:8 1.41307e-05
89 *65:89 *729:CLK 0.000122174
90 *70:202 *355:27 5.85954e-05
91 *70:202 *355:35 6.0233e-06
92 *70:206 *355:35 0.000149
93 *70:237 *355:53 0
94 *72:10 *725:CLK 0
95 *125:16 *745:CLK 0.000746873
96 *126:51 *745:CLK 5.73392e-05
*RES
1 *710:X *355:4 9.24915 
2 *355:4 *355:8 5.2234 
3 *355:8 *355:10 3.07775 
4 *355:10 *755:CLK 16.8692 
5 *355:10 *355:27 14.6721 
6 *355:27 *355:31 7.993 
7 *355:31 *355:35 14.2218 
8 *355:35 *355:37 6.26943 
9 *355:37 *355:53 24.0091 
10 *355:53 *355:59 14.817 
11 *355:59 *730:CLK 13.7491 
12 *355:59 *725:CLK 20.5642 
13 *355:53 *727:CLK 9.24915 
14 *355:37 *722:CLK 9.24915 
15 *355:35 *723:CLK 14.4094 
16 *355:31 *728:CLK 13.7491 
17 *355:27 *726:CLK 13.8548 
18 *355:8 *355:112 10.6589 
19 *355:112 *706:A 26.9052 
20 *355:112 *355:127 0.988641 
21 *355:127 *355:133 8.7164 
22 *355:133 *724:CLK 23.3462 
23 *355:133 *355:144 3.493 
24 *355:144 *744:CLK 13.7491 
25 *355:144 *745:CLK 27.5573 
26 *355:127 *731:CLK 9.24915 
27 *355:4 *729:CLK 16.7001 
*END

*D_NET *356 0.0449416
*CONN
*I *721:RESET_B I *D sky130_fd_sc_hd__dfrtp_1
*I *720:RESET_B I *D sky130_fd_sc_hd__dfrtp_1
*I *732:RESET_B I *D sky130_fd_sc_hd__dfrtp_1
*I *735:RESET_B I *D sky130_fd_sc_hd__dfrtp_1
*I *736:RESET_B I *D sky130_fd_sc_hd__dfrtp_1
*I *746:RESET_B I *D sky130_fd_sc_hd__dfrtp_1
*I *724:RESET_B I *D sky130_fd_sc_hd__dfrtp_1
*I *738:RESET_B I *D sky130_fd_sc_hd__dfrtp_1
*I *764:RESET_B I *D sky130_fd_sc_hd__dfrtp_1
*I *750:RESET_B I *D sky130_fd_sc_hd__dfrtp_1
*I *733:RESET_B I *D sky130_fd_sc_hd__dfrtp_1
*I *734:RESET_B I *D sky130_fd_sc_hd__dfrtp_1
*I *737:RESET_B I *D sky130_fd_sc_hd__dfrtp_1
*I *765:RESET_B I *D sky130_fd_sc_hd__dfrtp_1
*I *751:RESET_B I *D sky130_fd_sc_hd__dfrtp_1
*I *747:RESET_B I *D sky130_fd_sc_hd__dfrtp_1
*I *749:RESET_B I *D sky130_fd_sc_hd__dfrtp_1
*I *744:RESET_B I *D sky130_fd_sc_hd__dfrtp_1
*I *731:RESET_B I *D sky130_fd_sc_hd__dfrtp_1
*I *755:RESET_B I *D sky130_fd_sc_hd__dfrtp_1
*I *772:RESET_B I *D sky130_fd_sc_hd__dfrtp_1
*I *768:RESET_B I *D sky130_fd_sc_hd__dfrtp_1
*I *767:RESET_B I *D sky130_fd_sc_hd__dfrtp_1
*I *766:RESET_B I *D sky130_fd_sc_hd__dfrtp_1
*I *745:RESET_B I *D sky130_fd_sc_hd__dfrtp_1
*I *769:RESET_B I *D sky130_fd_sc_hd__dfrtp_1
*I *743:RESET_B I *D sky130_fd_sc_hd__dfrtp_1
*I *729:RESET_B I *D sky130_fd_sc_hd__dfrtp_1
*I *741:RESET_B I *D sky130_fd_sc_hd__dfrtp_1
*I *756:RESET_B I *D sky130_fd_sc_hd__dfrtp_1
*I *758:RESET_B I *D sky130_fd_sc_hd__dfrtp_1
*I *748:RESET_B I *D sky130_fd_sc_hd__dfrtp_1
*I *742:RESET_B I *D sky130_fd_sc_hd__dfrtp_1
*I *761:RESET_B I *D sky130_fd_sc_hd__dfrtp_1
*I *771:RESET_B I *D sky130_fd_sc_hd__dfrtp_1
*I *762:RESET_B I *D sky130_fd_sc_hd__dfrtp_1
*I *770:RESET_B I *D sky130_fd_sc_hd__dfrtp_1
*I *763:RESET_B I *D sky130_fd_sc_hd__dfrtp_1
*I *753:RESET_B I *D sky130_fd_sc_hd__dfrtp_1
*I *752:RESET_B I *D sky130_fd_sc_hd__dfrtp_1
*I *740:RESET_B I *D sky130_fd_sc_hd__dfrtp_1
*I *739:RESET_B I *D sky130_fd_sc_hd__dfrtp_1
*I *754:RESET_B I *D sky130_fd_sc_hd__dfrtp_1
*I *757:RESET_B I *D sky130_fd_sc_hd__dfrtp_1
*I *759:RESET_B I *D sky130_fd_sc_hd__dfrtp_1
*I *760:RESET_B I *D sky130_fd_sc_hd__dfrtp_1
*I *726:RESET_B I *D sky130_fd_sc_hd__dfrtp_1
*I *723:RESET_B I *D sky130_fd_sc_hd__dfrtp_1
*I *722:RESET_B I *D sky130_fd_sc_hd__dfrtp_1
*I *728:RESET_B I *D sky130_fd_sc_hd__dfrtp_1
*I *725:RESET_B I *D sky130_fd_sc_hd__dfrtp_1
*I *730:RESET_B I *D sky130_fd_sc_hd__dfrtp_1
*I *727:RESET_B I *D sky130_fd_sc_hd__dfrtp_1
*I *711:X O *D sky130_fd_sc_hd__buf_4
*CAP
1 *721:RESET_B 0.000421104
2 *720:RESET_B 3.39021e-05
3 *732:RESET_B 0
4 *735:RESET_B 0
5 *736:RESET_B 0.000490133
6 *746:RESET_B 0.000279074
7 *724:RESET_B 0.00032592
8 *738:RESET_B 0.000430702
9 *764:RESET_B 0.000154227
10 *750:RESET_B 0.000545567
11 *733:RESET_B 0
12 *734:RESET_B 0
13 *737:RESET_B 0.000316007
14 *765:RESET_B 0.000420392
15 *751:RESET_B 0
16 *747:RESET_B 0.00027607
17 *749:RESET_B 0
18 *744:RESET_B 0.000704781
19 *731:RESET_B 0.000119511
20 *755:RESET_B 0.000239367
21 *772:RESET_B 0.000360338
22 *768:RESET_B 0.000532943
23 *767:RESET_B 0
24 *766:RESET_B 0.000262975
25 *745:RESET_B 0.000771357
26 *769:RESET_B 0.000273266
27 *743:RESET_B 0
28 *729:RESET_B 0.000316209
29 *741:RESET_B 0.000438791
30 *756:RESET_B 0.00010602
31 *758:RESET_B 0
32 *748:RESET_B 0
33 *742:RESET_B 0.000329381
34 *761:RESET_B 0.000498576
35 *771:RESET_B 0.00046532
36 *762:RESET_B 0.000376602
37 *770:RESET_B 7.52058e-05
38 *763:RESET_B 0.000565618
39 *753:RESET_B 3.0922e-05
40 *752:RESET_B 0.00047465
41 *740:RESET_B 0.000338917
42 *739:RESET_B 0.000698928
43 *754:RESET_B 0.000438791
44 *757:RESET_B 0.000466144
45 *759:RESET_B 0.000434666
46 *760:RESET_B 0.000252536
47 *726:RESET_B 0.000612608
48 *723:RESET_B 0.000252939
49 *722:RESET_B 0.000127785
50 *728:RESET_B 0.00131966
51 *725:RESET_B 0.000293955
52 *730:RESET_B 5.37279e-05
53 *727:RESET_B 0.00089195
54 *711:X 0.000311392
55 *356:644 0.000548977
56 *356:637 0.000378519
57 *356:630 0.000587442
58 *356:574 0.000756086
59 *356:538 0.000560705
60 *356:531 0.000592273
61 *356:517 0.000781449
62 *356:469 0.000424051
63 *356:462 0.000478932
64 *356:433 0.000568726
65 *356:421 0.000392171
66 *356:374 0.000350427
67 *356:372 0.000682849
68 *356:331 0.000557129
69 *356:283 0.000209311
70 *356:255 0.000299929
71 *356:249 0.000511391
72 *356:213 0.000496262
73 *356:199 0.000723382
74 *356:189 0.000668619
75 *356:179 0.00064133
76 *356:165 0.000492059
77 *356:163 0.00059844
78 *356:156 0.000467421
79 *356:120 0.000812817
80 *356:73 0.000784404
81 *356:18 0.000509005
82 *356:8 0.000571582
83 *721:RESET_B *721:D 0
84 *741:RESET_B *896:A 0.000200955
85 *741:RESET_B *370:6 6.64392e-05
86 *744:RESET_B *631:A 0
87 *745:RESET_B *361:14 0.000114518
88 *746:RESET_B *548:B 0
89 *746:RESET_B *603:B 0
90 *747:RESET_B *453:10 8.06693e-05
91 *755:RESET_B *631:A 0
92 *755:RESET_B *371:12 0.00011818
93 *759:RESET_B *637:B 4.39919e-05
94 *759:RESET_B *643:B 0
95 *760:RESET_B *637:B 9.5713e-05
96 *762:RESET_B tl_o[38] 3.50379e-05
97 *764:RESET_B *906:A 0.000179271
98 *765:RESET_B tl_o[55] 2.75652e-05
99 *765:RESET_B *909:A 0
100 *766:RESET_B tl_o[56] 0.000264645
101 *768:RESET_B tl_o[50] 2.36582e-05
102 *768:RESET_B *664:B 0
103 *768:RESET_B *669:B 4.90082e-05
104 *769:RESET_B tl_o[39] 0
105 *770:RESET_B *675:B 2.43423e-05
106 *770:RESET_B *911:A 1.41976e-05
107 *356:8 *504:B 0
108 *356:8 *711:A 1.79196e-05
109 *356:156 *481:29 0
110 *356:163 *481:14 0
111 *356:179 *481:14 0
112 *356:179 *481:111 0
113 *356:189 *481:111 0
114 *356:199 tl_o[38] 1.79807e-05
115 *356:199 *358:99 1.88515e-05
116 *356:213 tl_o[38] 7.7907e-05
117 *356:249 *637:B 2.77705e-05
118 *356:249 *899:A 0.0004607
119 *356:249 *902:A 6.27718e-05
120 *356:283 *902:A 0.000144659
121 *356:372 *904:A 1.19856e-05
122 *356:433 *631:A 0
123 *356:462 *481:133 0.000108264
124 *356:469 *453:10 0
125 *486:B *747:RESET_B 9.99386e-06
126 *486:C *747:RESET_B 0.000182199
127 *497:A *356:73 0.000153225
128 *498:A1 *356:73 0.000247246
129 *498:A2 *356:73 0
130 *498:B1_N *723:RESET_B 2.72592e-05
131 *509:B *356:73 4.87343e-05
132 *513:A *724:RESET_B 0.000156823
133 *514:A *725:RESET_B 0
134 *517:A *725:RESET_B 0.000205081
135 *521:A *726:RESET_B 5.62448e-05
136 *521:A *356:73 1.51695e-05
137 *521:B *728:RESET_B 0.000112228
138 *524:B *356:8 9.60366e-05
139 *525:B *356:8 6.80864e-05
140 *528:B *356:73 0
141 *529:B *356:73 0
142 *533:A *744:RESET_B 9.12416e-06
143 *533:A *755:RESET_B 0.000169667
144 *533:A *356:433 0.000128452
145 *533:B *731:RESET_B 9.92656e-05
146 *546:A *750:RESET_B 0
147 *547:B1_N *750:RESET_B 4.92552e-05
148 *547:B1_N *356:538 3.41725e-05
149 *557:A *356:630 0
150 *563:B1_N *356:517 7.04109e-05
151 *565:A *724:RESET_B 1.36876e-05
152 *565:A *738:RESET_B 2.44969e-05
153 *567:A1 *736:RESET_B 5.37082e-05
154 *567:B1_N *738:RESET_B 5.52256e-05
155 *571:A2 *729:RESET_B 4.31603e-05
156 *573:A *731:RESET_B 1.00766e-05
157 *573:B *356:517 0
158 *575:A *356:331 0.000141833
159 *585:A2 *723:RESET_B 9.3307e-05
160 *598:A *356:517 0.000164777
161 *599:A *744:RESET_B 6.45975e-05
162 *601:A *744:RESET_B 0.000112647
163 *601:C *744:RESET_B 6.50586e-05
164 *617:A *746:RESET_B 3.28678e-05
165 *618:A *737:RESET_B 5.14655e-05
166 *618:A *356:574 3.18216e-05
167 *621:B *744:RESET_B 6.01639e-05
168 *621:B *356:517 0
169 *623:B *356:179 0
170 *626:B *753:RESET_B 7.83848e-06
171 *633:B *356:120 5.51483e-06
172 *633:C *356:120 0.000162612
173 *636:A *728:RESET_B 0.000259225
174 *636:A *356:73 5.53939e-05
175 *636:B *728:RESET_B 0.000104378
176 *638:A *760:RESET_B 0
177 *638:A *356:73 1.91246e-05
178 *641:C *757:RESET_B 5.37479e-05
179 *644:B *759:RESET_B 1.79672e-05
180 *647:B *757:RESET_B 9.13394e-06
181 *664:A *768:RESET_B 0
182 *665:B *766:RESET_B 0
183 *665:B *356:374 4.96202e-06
184 *673:A *769:RESET_B 0.000380504
185 *673:A *356:331 0.000127194
186 *677:B *762:RESET_B 9.76996e-05
187 *677:B *763:RESET_B 6.50727e-05
188 *677:B *356:213 0.000255249
189 *716:A *762:RESET_B 9.98363e-05
190 *716:A *771:RESET_B 2.62333e-05
191 *719:A *721:RESET_B 9.35753e-06
192 *721:CLK *721:RESET_B 2.57986e-05
193 *723:CLK *722:RESET_B 7.86597e-05
194 *723:CLK *723:RESET_B 2.41274e-06
195 *724:CLK *724:RESET_B 4.6401e-05
196 *726:D *356:73 7.11151e-05
197 *727:D *356:8 9.40857e-05
198 *728:D *728:RESET_B 4.78554e-05
199 *729:D *731:RESET_B 6.08467e-05
200 *729:D *755:RESET_B 1.03594e-05
201 *729:D *356:433 8.26183e-05
202 *735:D *356:630 0
203 *737:D *356:574 6.27782e-05
204 *739:CLK *739:RESET_B 0.0002101
205 *740:D *356:163 3.62414e-05
206 *740:CLK *739:RESET_B 7.20028e-05
207 *741:D *741:RESET_B 0.000105894
208 *750:D *746:RESET_B 0
209 *752:CLK *745:RESET_B 0.00012041
210 *757:D *757:RESET_B 0.000208561
211 *757:D *759:RESET_B 0
212 *761:D *761:RESET_B 0
213 *761:CLK *761:RESET_B 0
214 *762:D *762:RESET_B 4.54296e-05
215 *763:D *763:RESET_B 0.000171273
216 *763:D *356:199 0
217 *763:CLK *763:RESET_B 4.53374e-05
218 *763:CLK *356:372 5.98634e-05
219 *767:D *356:374 3.00073e-05
220 *771:CLK *772:RESET_B 0.000167413
221 *861:A *762:RESET_B 0
222 *861:A *771:RESET_B 3.13499e-05
223 *864:A *768:RESET_B 7.12632e-06
224 *866:A *765:RESET_B 0
225 *867:A *766:RESET_B 0
226 *915:A *356:331 3.16415e-05
227 *53:18 *356:331 6.50727e-05
228 *53:38 *756:RESET_B 0.000145029
229 *53:38 *761:RESET_B 2.5386e-05
230 *53:38 *356:255 7.92228e-05
231 *53:38 *356:283 0.000268968
232 *53:48 *742:RESET_B 0.00010083
233 *53:48 *761:RESET_B 5.53934e-05
234 *53:120 *759:RESET_B 5.67546e-05
235 *53:152 *356:163 0
236 *53:152 *356:179 0
237 *53:177 *356:462 0
238 *53:181 *356:462 2.1032e-05
239 *53:203 *744:RESET_B 2.29201e-05
240 *53:320 *747:RESET_B 0
241 *53:320 *356:462 3.75637e-05
242 *53:320 *356:469 8.78055e-05
243 *53:429 *768:RESET_B 0
244 *54:68 *729:RESET_B 0
245 *54:85 *729:RESET_B 0
246 *54:151 *356:462 0.000290905
247 *54:177 *738:RESET_B 7.83848e-06
248 *54:199 *736:RESET_B 3.1877e-05
249 *54:199 *738:RESET_B 8.23435e-05
250 *56:38 *356:517 0
251 *56:42 *724:RESET_B 0
252 *56:108 *356:421 3.27897e-05
253 *56:110 *755:RESET_B 0
254 *56:112 *726:RESET_B 3.30446e-05
255 *56:112 *755:RESET_B 0
256 *56:239 *736:RESET_B 0.000189496
257 *65:14 *736:RESET_B 6.57892e-05
258 *65:25 *736:RESET_B 0.000246801
259 *65:25 *356:630 0
260 *65:52 *356:538 0
261 *65:70 *724:RESET_B 4.73076e-05
262 *65:89 *356:421 0.000201059
263 *65:91 *729:RESET_B 1.37421e-05
264 *65:103 *356:73 0
265 *65:167 *725:RESET_B 2.39535e-05
266 *70:95 *736:RESET_B 4.59816e-06
267 *70:166 *724:RESET_B 7.7321e-05
268 *70:237 *356:8 0
269 *72:10 *725:RESET_B 0
270 *72:10 *356:8 0
271 *72:16 *356:8 0
272 *72:92 *724:RESET_B 0
273 *72:159 *736:RESET_B 5.37479e-05
274 *126:18 *747:RESET_B 2.58616e-05
275 *126:186 *356:120 0.000352545
276 *126:194 *759:RESET_B 7.64213e-06
277 *127:96 *768:RESET_B 0
278 *127:96 *356:374 0
279 *127:139 *765:RESET_B 0
280 *127:139 *768:RESET_B 0.000111159
281 *127:141 *765:RESET_B 0
282 *127:155 *771:RESET_B 1.22347e-05
283 *176:24 *728:RESET_B 1.39052e-05
284 *210:10 *744:RESET_B 5.36767e-05
285 *216:10 *737:RESET_B 1.50924e-05
286 *218:10 *729:RESET_B 0
287 *346:12 *356:331 8.60833e-06
288 *352:96 *766:RESET_B 0
289 *352:96 *768:RESET_B 0
290 *352:96 *356:374 0
291 *353:16 *759:RESET_B 6.31809e-05
292 *353:16 *356:156 0
293 *353:75 *356:163 0
294 *353:106 *757:RESET_B 0
295 *353:110 *761:RESET_B 0
296 *353:110 *356:255 0
297 *354:18 *356:630 0
298 *354:88 *356:630 0
299 *354:97 *356:637 0
300 *354:106 *720:RESET_B 0
301 *354:106 *721:RESET_B 0
302 *354:106 *356:637 0
303 *354:106 *356:644 0
304 *355:31 *728:RESET_B 8.08598e-05
305 *355:35 *728:RESET_B 0.00011815
306 *355:53 *727:RESET_B 6.08467e-05
307 *355:53 *356:8 0.000143406
*RES
1 *711:X *356:8 23.4709 
2 *356:8 *727:RESET_B 6.80281 
3 *356:8 *356:18 3.90826 
4 *356:18 *730:RESET_B 5.71772 
5 *356:18 *725:RESET_B 12.5327 
6 *727:RESET_B *728:RESET_B 24.7907 
7 *728:RESET_B *356:73 20.798 
8 *356:73 *722:RESET_B 3.05032 
9 *356:73 *723:RESET_B 5.26873 
10 *728:RESET_B *726:RESET_B 12.4409 
11 *726:RESET_B *356:120 13.0964 
12 *356:120 *760:RESET_B 6.332 
13 *356:120 *759:RESET_B 11.7303 
14 *760:RESET_B *757:RESET_B 14.3778 
15 *759:RESET_B *356:156 8.82351 
16 *356:156 *754:RESET_B 4.5 
17 *356:156 *356:163 6.81502 
18 *356:163 *356:165 4.5 
19 *356:165 *739:RESET_B 10.6219 
20 *356:165 *740:RESET_B 1.1936 
21 *356:163 *356:179 6.81502 
22 *356:179 *752:RESET_B 5.139 
23 *356:179 *356:189 6.81502 
24 *356:189 *753:RESET_B 5.139 
25 *356:189 *356:199 8.47603 
26 *356:199 *763:RESET_B 9.21413 
27 *356:199 *356:213 5.15401 
28 *356:213 *770:RESET_B 6.24821 
29 *356:213 *762:RESET_B 12.5086 
30 *762:RESET_B *771:RESET_B 11.8862 
31 *757:RESET_B *356:249 12.3488 
32 *356:249 *356:255 3.15103 
33 *356:255 *761:RESET_B 9.23876 
34 *761:RESET_B *742:RESET_B 8.15026 
35 *356:255 *748:RESET_B 4.5 
36 *356:249 *356:283 4.73876 
37 *356:283 *758:RESET_B 4.5 
38 *356:283 *756:RESET_B 8.06628 
39 *754:RESET_B *741:RESET_B 10.5375 
40 *739:RESET_B *729:RESET_B 15.815 
41 *740:RESET_B *356:331 11.8231 
42 *356:331 *743:RESET_B 4.5 
43 *356:331 *769:RESET_B 12.5086 
44 *752:RESET_B *745:RESET_B 9.25947 
45 *763:RESET_B *356:372 11.7942 
46 *356:372 *356:374 2.24725 
47 *356:374 *766:RESET_B 12.0478 
48 *356:374 *767:RESET_B 4.5 
49 *356:372 *768:RESET_B 11.315 
50 *771:RESET_B *772:RESET_B 8.70487 
51 *729:RESET_B *356:421 6.80281 
52 *356:421 *755:RESET_B 11.5416 
53 *356:421 *356:433 2.6625 
54 *356:433 *731:RESET_B 7.93613 
55 *356:433 *744:RESET_B 14.4753 
56 *745:RESET_B *356:462 13.3913 
57 *356:462 *749:RESET_B 4.5 
58 *356:462 *356:469 4.73876 
59 *356:469 *747:RESET_B 12.435 
60 *356:469 *751:RESET_B 4.5 
61 *768:RESET_B *765:RESET_B 15.3998 
62 *744:RESET_B *356:517 14.063 
63 *356:517 *737:RESET_B 7.91422 
64 *356:517 *356:531 6.6074 
65 *356:531 *734:RESET_B 4.5 
66 *356:531 *356:538 6.81502 
67 *356:538 *733:RESET_B 4.5 
68 *356:538 *750:RESET_B 11.315 
69 *765:RESET_B *764:RESET_B 13.3235 
70 *737:RESET_B *356:574 8.65953 
71 *356:574 *738:RESET_B 11.0258 
72 *356:574 *724:RESET_B 14.1696 
73 *750:RESET_B *746:RESET_B 15.815 
74 *738:RESET_B *736:RESET_B 16.8693 
75 *736:RESET_B *356:630 11.315 
76 *356:630 *735:RESET_B 4.5 
77 *356:630 *356:637 6.81502 
78 *356:637 *732:RESET_B 4.5 
79 *356:637 *356:644 2.45487 
80 *356:644 *720:RESET_B 5.61141 
81 *356:644 *721:RESET_B 14.107 
*END

*D_NET *357 0.000607806
*CONN
*P tl_o[2] O
*I *773:LO O *D sky130_fd_sc_hd__conb_1
*CAP
1 tl_o[2] 0.000221807
2 *773:LO 0.000221807
3 tl_o[2] tl_o[60] 4.85568e-05
4 tl_o[2] tl_o[8] 0.000115635
*RES
1 *773:LO tl_o[2] 19.0786 
*END

*D_NET *358 0.0141992
*CONN
*I *707:A I *D sky130_fd_sc_hd__clkbuf_8
*I *708:A I *D sky130_fd_sc_hd__clkbuf_8
*I *709:A I *D sky130_fd_sc_hd__clkbuf_8
*I *710:A I *D sky130_fd_sc_hd__clkbuf_8
*I *712:X O *D sky130_fd_sc_hd__clkbuf_8
*CAP
1 *707:A 0
2 *708:A 0
3 *709:A 0
4 *710:A 4.23611e-05
5 *712:X 0
6 *358:99 0.00111738
7 *358:79 0.00111196
8 *358:69 0.00321642
9 *358:55 0.00108659
10 *358:35 0.00109803
11 *358:17 0.00357456
12 *358:13 0.00243681
13 *358:6 1.74326e-05
14 *358:35 *540:B 0.000105729
15 *358:79 *643:B 1.31444e-06
16 *548:C *358:55 2.11692e-06
17 *553:B *358:55 2.56512e-05
18 *558:A *358:55 3.74661e-05
19 *578:A2 *358:17 0
20 *578:A2 *358:69 0
21 *618:B *358:55 3.03608e-05
22 *56:24 *358:55 1.26255e-05
23 *56:61 *710:A 6.35256e-05
24 *56:61 *358:35 2.08618e-05
25 *65:76 *710:A 7.13874e-05
26 *65:76 *358:35 9.24682e-05
27 *65:167 *358:35 2.86353e-06
28 *70:172 *358:17 0
29 *70:172 *358:35 1.2394e-05
30 *204:22 *358:17 0
31 *204:22 *358:69 0
32 *356:199 *358:99 1.88515e-05
*RES
1 *712:X *358:6 13.7491 
2 *358:6 *358:13 3.7474 
3 *358:13 *358:17 3.44788 
4 *358:17 *358:35 15.0795 
5 *358:35 *710:A 11.2023 
6 *358:17 *358:55 8.28202 
7 *358:55 *709:A 13.7491 
8 *358:13 *358:69 2.45351 
9 *358:69 *358:79 6.77814 
10 *358:79 *708:A 13.7491 
11 *358:69 *358:99 6.54867 
12 *358:99 *707:A 13.7491 
*END

*D_NET *359 0.00404836
*CONN
*I *879:A I *D sky130_fd_sc_hd__clkdlybuf4s50_1
*I *886:A I *D sky130_fd_sc_hd__clkdlybuf4s50_1
*I *882:A I *D sky130_fd_sc_hd__clkdlybuf4s50_1
*I *884:A I *D sky130_fd_sc_hd__clkdlybuf4s50_1
*I *881:A I *D sky130_fd_sc_hd__clkdlybuf4s50_1
*I *590:B I *D sky130_fd_sc_hd__nand2_1
*I *880:A I *D sky130_fd_sc_hd__clkdlybuf4s50_1
*I *885:A I *D sky130_fd_sc_hd__clkdlybuf4s50_1
*I *883:A I *D sky130_fd_sc_hd__clkdlybuf4s50_1
*I *743:Q O *D sky130_fd_sc_hd__dfrtp_1
*CAP
1 *879:A 0.000322947
2 *886:A 0
3 *882:A 5.89804e-05
4 *884:A 0
5 *881:A 0
6 *590:B 2.06324e-05
7 *880:A 8.91155e-05
8 *885:A 0.000131861
9 *883:A 0
10 *743:Q 0
11 *359:79 0.000463374
12 *359:68 0.000331612
13 *359:59 0.000355934
14 *359:48 0.00033309
15 *359:37 0.000155242
16 *359:17 0.000344349
17 *359:10 0.000280186
18 *359:4 0.000182061
19 *879:A tl_o[24] 0
20 *879:A tl_o[53] 0
21 *879:A *663:B 1.67286e-05
22 *879:A *907:A 3.30446e-05
23 *880:A tl_o[28] 0.000217031
24 *885:A tl_o[30] 0
25 *359:59 tl_o[25] 0
26 *359:59 tl_o[26] 0
27 *359:68 tl_o[29] 0
28 *359:79 *663:B 5.36206e-05
29 *581:B1 *885:A 0.000161204
30 *590:A *359:48 6.50586e-05
31 *592:A *359:37 2.65831e-05
32 *592:A *359:48 3.14978e-05
33 *665:B *879:A 0
34 *666:A *879:A 0.000149688
35 *127:27 *359:17 0.000118116
36 *127:42 *885:A 5.42307e-05
37 *127:42 *359:10 0
38 *127:53 *359:10 0
39 *127:53 *359:59 0
40 *127:53 *359:68 0
41 *127:64 *879:A 0
42 *127:81 *879:A 5.21759e-05
*RES
1 *743:Q *359:4 9.24915 
2 *359:4 *359:10 12.493 
3 *359:10 *883:A 9.24915 
4 *359:10 *359:17 3.49641 
5 *359:17 *885:A 22.1574 
6 *359:17 *880:A 12.191 
7 *359:4 *359:37 0.723396 
8 *359:37 *590:B 9.82786 
9 *359:37 *359:48 3.52053 
10 *359:48 *881:A 9.24915 
11 *359:48 *359:59 9.68626 
12 *359:59 *884:A 13.7491 
13 *359:59 *359:68 3.07775 
14 *359:68 *882:A 15.0271 
15 *359:68 *359:79 3.90826 
16 *359:79 *886:A 13.7491 
17 *359:79 *879:A 22.5549 
*END

*D_NET *360 0.00161028
*CONN
*I *887:A I *D sky130_fd_sc_hd__clkdlybuf4s50_1
*I *597:B I *D sky130_fd_sc_hd__nand2_1
*I *744:Q O *D sky130_fd_sc_hd__dfrtp_1
*CAP
1 *887:A 0
2 *597:B 0.000223738
3 *744:Q 0.000172959
4 *360:12 0.000396696
5 *360:12 *631:A 0.000195139
6 *601:C *360:12 7.14746e-05
7 *618:A *597:B 8.08839e-05
8 *621:B *597:B 0.000172293
9 *621:B *360:12 6.50586e-05
10 *126:30 *360:12 0.000232035
*RES
1 *744:Q *360:12 24.5418 
2 *360:12 *597:B 24.8233 
3 *360:12 *887:A 9.24915 
*END

*D_NET *361 0.00116932
*CONN
*I *888:A I *D sky130_fd_sc_hd__clkdlybuf4s50_1
*I *600:B I *D sky130_fd_sc_hd__nand2_1
*I *745:Q O *D sky130_fd_sc_hd__dfrtp_1
*CAP
1 *888:A 0
2 *600:B 0.000143773
3 *745:Q 0.000200519
4 *361:14 0.000344292
5 *600:B *481:121 1.0759e-05
6 *600:B *481:125 7.28831e-05
7 *361:14 *481:125 0.000113713
8 *361:14 *481:133 0
9 *601:B *600:B 6.08467e-05
10 *745:RESET_B *361:14 0.000114518
11 *53:177 *361:14 0.000108019
*RES
1 *745:Q *361:14 23.0524 
2 *361:14 *600:B 13.3484 
3 *361:14 *888:A 9.24915 
*END

*D_NET *362 0.000967038
*CONN
*I *889:A I *D sky130_fd_sc_hd__clkdlybuf4s50_1
*I *603:B I *D sky130_fd_sc_hd__nand2_1
*I *746:Q O *D sky130_fd_sc_hd__dfrtp_1
*CAP
1 *889:A 0.000224301
2 *603:B 0.000194348
3 *746:Q 0
4 *362:6 0.000418649
5 *603:B *616:A 6.50586e-05
6 *603:B *616:B 6.46815e-05
7 *889:A port_o 0
8 *746:RESET_B *603:B 0
*RES
1 *746:Q *362:6 13.7491 
2 *362:6 *603:B 18.7961 
3 *362:6 *889:A 19.3184 
*END

*D_NET *363 0.00185354
*CONN
*I *890:A I *D sky130_fd_sc_hd__clkdlybuf4s50_1
*I *606:B I *D sky130_fd_sc_hd__nand2_1
*I *747:Q O *D sky130_fd_sc_hd__dfrtp_1
*CAP
1 *890:A 0.000192982
2 *606:B 0.000173222
3 *747:Q 4.29605e-05
4 *363:8 0.000409165
5 *606:B *481:198 0.000141956
6 *486:B *606:B 7.68538e-06
7 *486:C *606:B 0.000117421
8 *486:C *890:A 6.56589e-05
9 *605:A *606:B 5.46928e-05
10 *607:A *606:B 3.75603e-05
11 *607:B *606:B 2.65667e-05
12 *53:320 *606:B 2.36813e-05
13 *53:369 *890:A 7.19887e-05
14 *55:14 *890:A 0.000164842
15 *56:16 *606:B 0.000260374
16 *126:18 *363:8 6.27782e-05
17 *126:132 *606:B 0
*RES
1 *747:Q *363:8 14.4725 
2 *363:8 *606:B 21.1807 
3 *363:8 *890:A 19.9053 
*END

*D_NET *364 0.00208085
*CONN
*I *891:A I *D sky130_fd_sc_hd__clkdlybuf4s50_1
*I *613:B I *D sky130_fd_sc_hd__nand2_1
*I *749:Q O *D sky130_fd_sc_hd__dfrtp_1
*CAP
1 *891:A 0.000353159
2 *613:B 0.000291285
3 *749:Q 0.000644444
4 *613:B *619:A 6.32945e-05
5 *891:A *619:A 7.58194e-05
6 *891:A *454:14 0.000373878
7 *614:B *613:B 6.27782e-05
8 *770:D *891:A 2.16355e-05
9 *53:177 *613:B 3.00829e-05
10 *53:181 *613:B 5.23435e-05
11 *53:320 *613:B 7.26748e-05
12 *126:132 *613:B 3.94515e-05
*RES
1 *749:Q *613:B 33.4107 
2 *749:Q *891:A 38.1179 
*END

*D_NET *365 0.00135425
*CONN
*I *892:A I *D sky130_fd_sc_hd__clkdlybuf4s50_1
*I *616:B I *D sky130_fd_sc_hd__nand2_1
*I *750:Q O *D sky130_fd_sc_hd__dfrtp_1
*CAP
1 *892:A 7.40415e-05
2 *616:B 8.32198e-05
3 *750:Q 9.14549e-05
4 *365:10 0.000248716
5 *616:B *616:A 7.36575e-05
6 *616:B *481:206 4.19058e-05
7 *892:A *603:A 0
8 *892:A *481:206 9.50664e-05
9 *603:B *616:B 6.46815e-05
10 *617:B *616:B 2.99287e-05
11 *126:110 *616:B 0.000414822
12 *126:110 *892:A 9.626e-05
13 *126:110 *365:10 4.04935e-05
*RES
1 *750:Q *365:10 20.4964 
2 *365:10 *616:B 14.4335 
3 *365:10 *892:A 12.2151 
*END

*D_NET *366 0.000600438
*CONN
*I *893:A I *D sky130_fd_sc_hd__clkdlybuf4s50_1
*I *619:B I *D sky130_fd_sc_hd__nand2_1
*I *751:Q O *D sky130_fd_sc_hd__dfrtp_1
*CAP
1 *893:A 4.93056e-05
2 *619:B 0.00017078
3 *751:Q 0.000220085
4 *619:B *481:198 6.65546e-05
5 *620:B *619:B 9.37126e-05
*RES
1 *751:Q *619:B 31.4388 
2 *751:Q *893:A 19.8004 
*END

*D_NET *367 0.0014159
*CONN
*I *894:A I *D sky130_fd_sc_hd__clkdlybuf4s50_1
*I *622:B I *D sky130_fd_sc_hd__nand2_1
*I *752:Q O *D sky130_fd_sc_hd__dfrtp_1
*CAP
1 *894:A 0.00043709
2 *622:B 0
3 *752:Q 4.2196e-05
4 *367:8 0.000479286
5 *894:A *481:8 2.404e-05
6 *367:8 *481:8 7.32658e-06
7 *915:A *894:A 0.000425962
*RES
1 *752:Q *367:8 10.5513 
2 *367:8 *622:B 9.24915 
3 *367:8 *894:A 20.0036 
*END

*D_NET *368 0.00033323
*CONN
*P tl_o[3] O
*I *774:LO O *D sky130_fd_sc_hd__conb_1
*CAP
1 tl_o[3] 9.91695e-05
2 *774:LO 9.91695e-05
3 tl_o[3] tl_o[48] 0.000118109
4 *688:A tl_o[3] 1.67821e-05
*RES
1 *774:LO tl_o[3] 17.8657 
*END

*D_NET *369 0.000774473
*CONN
*I *625:B I *D sky130_fd_sc_hd__nand2_1
*I *895:A I *D sky130_fd_sc_hd__clkdlybuf4s50_1
*I *753:Q O *D sky130_fd_sc_hd__dfrtp_1
*CAP
1 *625:B 0.000104202
2 *895:A 0
3 *753:Q 3.72661e-05
4 *369:8 0.000141469
5 *625:B tl_o[40] 6.64392e-05
6 *625:B *625:A 0.000314305
7 *626:B *625:B 8.07824e-05
8 *626:B *369:8 3.00084e-05
*RES
1 *753:Q *369:8 10.5513 
2 *369:8 *895:A 9.24915 
3 *369:8 *625:B 13.8548 
*END

*D_NET *370 0.00245204
*CONN
*I *896:A I *D sky130_fd_sc_hd__clkdlybuf4s50_1
*I *628:B I *D sky130_fd_sc_hd__nand2_1
*I *754:Q O *D sky130_fd_sc_hd__dfrtp_1
*CAP
1 *896:A 0.000306663
2 *628:B 0.000239029
3 *754:Q 4.08315e-05
4 *370:6 0.000586524
5 *628:B *577:A 0.00011887
6 *628:B *628:A 0.000162834
7 *628:B *481:25 6.41795e-05
8 *628:B *481:29 2.69435e-05
9 *896:A tl_o[46] 2.02035e-05
10 *577:B *628:B 6.1821e-05
11 *578:B1 *628:B 0.000474465
12 *629:A *628:B 0
13 *629:B *628:B 2.57986e-05
14 *741:RESET_B *896:A 0.000200955
15 *741:RESET_B *370:6 6.64392e-05
16 *741:CLK *896:A 5.6489e-05
*RES
1 *754:Q *370:6 9.97254 
2 *370:6 *628:B 28.0867 
3 *370:6 *896:A 25.3751 
*END

*D_NET *371 0.00074132
*CONN
*I *897:A I *D sky130_fd_sc_hd__clkdlybuf4s50_1
*I *631:B I *D sky130_fd_sc_hd__nand2_1
*I *755:Q O *D sky130_fd_sc_hd__dfrtp_1
*CAP
1 *897:A 0
2 *631:B 9.17192e-05
3 *755:Q 0.000138714
4 *371:12 0.000230433
5 *371:12 *631:A 0.000130777
6 *632:B *631:B 3.14978e-05
7 *755:RESET_B *371:12 0.00011818
8 *56:112 *371:12 0
*RES
1 *755:Q *371:12 21.7744 
2 *371:12 *631:B 12.2392 
3 *371:12 *897:A 9.24915 
*END

*D_NET *372 0.00354231
*CONN
*I *634:B I *D sky130_fd_sc_hd__nand2_1
*I *898:A I *D sky130_fd_sc_hd__clkdlybuf4s50_1
*I *756:Q O *D sky130_fd_sc_hd__dfrtp_1
*CAP
1 *634:B 0.000672917
2 *898:A 0.000309328
3 *756:Q 6.54195e-05
4 *372:8 0.00104766
5 *634:B *640:A 7.58194e-05
6 *634:B *640:B 0.000629879
7 *634:B *463:22 0.000136576
8 *634:B *481:80 2.99287e-05
9 *898:A *482:A 0.000461702
10 *898:A *640:B 4.86461e-05
11 *372:8 *640:B 0
12 *372:8 *463:22 8.62625e-06
13 *483:B *634:B 3.20069e-06
14 *53:38 *634:B 1.16596e-05
15 *53:38 *372:8 4.09467e-05
*RES
1 *756:Q *372:8 15.5811 
2 *372:8 *898:A 22.671 
3 *372:8 *634:B 26.7214 
*END

*D_NET *373 0.00321358
*CONN
*I *637:B I *D sky130_fd_sc_hd__nand2_1
*I *899:A I *D sky130_fd_sc_hd__clkdlybuf4s50_1
*I *757:Q O *D sky130_fd_sc_hd__dfrtp_1
*CAP
1 *637:B 0.000957565
2 *899:A 0.000157195
3 *757:Q 0.00111476
4 *638:A *637:B 0
5 *757:D *637:B 9.50523e-05
6 *757:CLK *637:B 2.58757e-05
7 *759:RESET_B *637:B 4.39919e-05
8 *760:RESET_B *637:B 9.5713e-05
9 *53:94 *637:B 0.000163195
10 *53:109 *637:B 4.29019e-05
11 *53:120 *637:B 3.00174e-06
12 *353:32 *637:B 2.58616e-05
13 *356:249 *637:B 2.77705e-05
14 *356:249 *899:A 0.0004607
*RES
1 *757:Q *899:A 24.2372 
2 *757:Q *637:B 44.883 
*END

*D_NET *374 0.00265805
*CONN
*I *640:B I *D sky130_fd_sc_hd__nand2_1
*I *900:A I *D sky130_fd_sc_hd__clkdlybuf4s50_1
*I *758:Q O *D sky130_fd_sc_hd__dfrtp_1
*CAP
1 *640:B 0.00044492
2 *900:A 0
3 *758:Q 0.000187659
4 *374:10 0.00063258
5 *640:B tl_o[45] 0
6 *640:B *482:A 0.000100501
7 *640:B *640:A 6.92705e-05
8 *640:B *463:22 0.000217116
9 *483:B *640:B 0.000148932
10 *634:B *640:B 0.000629879
11 *699:A *640:B 0.000178543
12 *898:A *640:B 4.86461e-05
13 *372:8 *640:B 0
*RES
1 *758:Q *374:10 17.2744 
2 *374:10 *900:A 13.7491 
3 *374:10 *640:B 30.4668 
*END

*D_NET *375 0.00113363
*CONN
*I *901:A I *D sky130_fd_sc_hd__clkdlybuf4s50_1
*I *643:B I *D sky130_fd_sc_hd__nand2_1
*I *759:Q O *D sky130_fd_sc_hd__dfrtp_1
*CAP
1 *901:A 0.000107281
2 *643:B 0.000372016
3 *759:Q 0
4 *375:4 0.000479296
5 *643:B *637:A 6.27782e-05
6 *643:B *481:29 0
7 *643:B *481:31 0
8 *635:A *643:B 6.08467e-05
9 *635:B *643:B 0
10 *757:D *643:B 5.00956e-05
11 *759:RESET_B *643:B 0
12 *353:100 *643:B 0
13 *358:79 *643:B 1.31444e-06
*RES
1 *759:Q *375:4 9.24915 
2 *375:4 *643:B 26.2351 
3 *375:4 *901:A 12.0704 
*END

*D_NET *376 0.00273695
*CONN
*I *646:B I *D sky130_fd_sc_hd__nand2_1
*I *902:A I *D sky130_fd_sc_hd__clkdlybuf4s50_1
*I *760:Q O *D sky130_fd_sc_hd__dfrtp_1
*CAP
1 *646:B 3.08953e-05
2 *902:A 0.00105398
3 *760:Q 0.00108487
4 *902:A *646:A 1.4106e-05
5 *641:C *646:B 3.00829e-05
6 *641:C *902:A 2.68666e-06
7 *647:B *646:B 3.00829e-05
8 *647:B *902:A 0.000114271
9 *758:D *902:A 1.07378e-05
10 *353:106 *902:A 0.000157808
11 *356:249 *902:A 6.27718e-05
12 *356:283 *902:A 0.000144659
*RES
1 *760:Q *902:A 47.6911 
2 *760:Q *646:B 19.8004 
*END

*D_NET *377 0.000318247
*CONN
*P tl_o[48] O
*I *787:LO O *D sky130_fd_sc_hd__conb_1
*CAP
1 tl_o[48] 7.64812e-05
2 *787:LO 7.64812e-05
3 tl_o[3] tl_o[48] 0.000118109
4 *690:A tl_o[48] 4.71755e-05
*RES
1 *787:LO tl_o[48] 17.8657 
*END

*D_NET *378 0.00103404
*CONN
*I *650:B I *D sky130_fd_sc_hd__nand2_1
*I *903:A I *D sky130_fd_sc_hd__clkdlybuf4s50_1
*I *762:Q O *D sky130_fd_sc_hd__dfrtp_1
*CAP
1 *650:B 8.6442e-05
2 *903:A 0.000208127
3 *762:Q 7.03648e-05
4 *378:12 0.000364934
5 *378:12 tl_o[57] 0
6 *650:A *650:B 4.31603e-06
7 *653:A *650:B 3.65423e-05
8 *653:B *650:B 6.64392e-05
9 *653:B *903:A 1.55025e-05
10 *762:D *378:12 7.28157e-05
11 *127:155 *650:B 7.5301e-06
12 *127:155 *903:A 0.00010103
*RES
1 *762:Q *378:12 20.2446 
2 *378:12 *903:A 14.4335 
3 *378:12 *650:B 11.6605 
*END

*D_NET *379 0.000368767
*CONN
*P tl_o[4] O
*I *775:LO O *D sky130_fd_sc_hd__conb_1
*CAP
1 tl_o[4] 0.00012806
2 *775:LO 0.00012806
3 *691:A tl_o[4] 0
4 *694:A tl_o[4] 0.000112647
*RES
1 *775:LO tl_o[4] 18.6962 
*END

*D_NET *380 0.000804747
*CONN
*I *904:A I *D sky130_fd_sc_hd__clkdlybuf4s50_1
*I *654:B I *D sky130_fd_sc_hd__nand2_1
*I *763:Q O *D sky130_fd_sc_hd__dfrtp_1
*CAP
1 *904:A 7.63571e-05
2 *654:B 0.000180355
3 *763:Q 0
4 *380:4 0.000256712
5 *655:A *654:B 8.36586e-06
6 *656:A *654:B 7.04109e-05
7 *656:B *654:B 7.40084e-05
8 *675:A *654:B 2.58616e-05
9 *763:CLK *654:B 3.81056e-05
10 *763:CLK *904:A 1.41976e-05
11 *53:429 *654:B 2.16355e-05
12 *352:107 *654:B 2.67514e-05
13 *356:372 *904:A 1.19856e-05
*RES
1 *763:Q *380:4 9.24915 
2 *380:4 *654:B 22.913 
3 *380:4 *904:A 11.5399 
*END

*D_NET *381 0.00214984
*CONN
*I *905:A I *D sky130_fd_sc_hd__clkdlybuf4s50_1
*I *657:B I *D sky130_fd_sc_hd__nand2_1
*I *764:Q O *D sky130_fd_sc_hd__dfrtp_1
*CAP
1 *905:A 9.12791e-05
2 *657:B 0.000130426
3 *764:Q 0.000774302
4 *381:6 0.000996006
5 *657:B *658:B 7.34948e-06
6 *905:A *658:B 1.71317e-05
7 *905:A *906:A 0
8 *659:A *657:B 7.40769e-05
9 *661:A *657:B 0
10 *764:D *381:6 3.50813e-05
11 *764:CLK *657:B 1.40978e-05
12 *764:CLK *381:6 1.00937e-05
*RES
1 *764:Q *381:6 20.51 
2 *381:6 *657:B 12.2392 
3 *381:6 *905:A 20.4964 
*END

*D_NET *382 0.00147333
*CONN
*I *906:A I *D sky130_fd_sc_hd__clkdlybuf4s50_1
*I *660:B I *D sky130_fd_sc_hd__nand2_1
*I *765:Q O *D sky130_fd_sc_hd__dfrtp_1
*CAP
1 *906:A 0.000423319
2 *660:B 3.50899e-05
3 *765:Q 0.000458409
4 *906:A tl_o[52] 0
5 *660:A *660:B 5.62489e-05
6 *662:A *660:B 5.36612e-05
7 *662:A *906:A 0.000267328
8 *764:RESET_B *906:A 0.000179271
9 *905:A *906:A 0
*RES
1 *765:Q *660:B 20.355 
2 *765:Q *906:A 37.2874 
*END

*D_NET *383 0.00108781
*CONN
*I *907:A I *D sky130_fd_sc_hd__clkdlybuf4s50_1
*I *663:B I *D sky130_fd_sc_hd__nand2_1
*I *766:Q O *D sky130_fd_sc_hd__dfrtp_1
*CAP
1 *907:A 7.71187e-05
2 *663:B 0.000203873
3 *766:Q 0
4 *383:6 0.000280991
5 *879:A *663:B 1.67286e-05
6 *879:A *907:A 3.30446e-05
7 *127:64 *663:B 0.000243676
8 *127:64 *907:A 0.000115976
9 *127:81 *907:A 6.27782e-05
10 *359:79 *663:B 5.36206e-05
*RES
1 *766:Q *383:6 13.7491 
2 *383:6 *663:B 20.484 
3 *383:6 *907:A 16.7198 
*END

*D_NET *384 0.000667455
*CONN
*I *908:A I *D sky130_fd_sc_hd__clkdlybuf4s50_1
*I *666:B I *D sky130_fd_sc_hd__nand2_1
*I *767:Q O *D sky130_fd_sc_hd__dfrtp_1
*CAP
1 *908:A 6.97611e-05
2 *666:B 5.19363e-05
3 *767:Q 0
4 *384:4 0.000121697
5 *666:A *666:B 7.1802e-05
6 *668:A *666:B 7.34948e-06
7 *668:A *908:A 0.00016198
8 *668:B *908:A 6.08467e-05
9 *127:96 *908:A 0.000122083
*RES
1 *767:Q *384:4 9.24915 
2 *384:4 *666:B 10.9612 
3 *384:4 *908:A 21.2198 
*END

*D_NET *385 0.00166264
*CONN
*I *909:A I *D sky130_fd_sc_hd__clkdlybuf4s50_1
*I *669:B I *D sky130_fd_sc_hd__nand2_1
*I *768:Q O *D sky130_fd_sc_hd__dfrtp_1
*CAP
1 *909:A 9.06633e-05
2 *669:B 0.000233681
3 *768:Q 0.000302999
4 *385:8 0.000627343
5 *669:B *664:B 1.43832e-05
6 *765:RESET_B *909:A 0
7 *768:D *385:8 4.57112e-05
8 *768:RESET_B *669:B 4.90082e-05
9 *53:429 *669:B 0
10 *53:444 *669:B 1.41976e-05
11 *127:105 *669:B 0.000209636
12 *127:139 *669:B 3.34572e-05
13 *127:139 *909:A 4.15595e-05
*RES
1 *768:Q *385:8 18.3548 
2 *385:8 *669:B 20.4599 
3 *385:8 *909:A 16.4116 
*END

*D_NET *386 0.00115245
*CONN
*I *672:B I *D sky130_fd_sc_hd__nand2_1
*I *910:A I *D sky130_fd_sc_hd__clkdlybuf4s50_1
*I *769:Q O *D sky130_fd_sc_hd__dfrtp_1
*CAP
1 *672:B 0.000411122
2 *910:A 4.03837e-05
3 *769:Q 0.000451506
4 *672:B *673:B 0.000113909
5 *674:A *672:B 0.000130496
6 *867:A *672:B 5.03545e-06
*RES
1 *769:Q *910:A 19.8004 
2 *769:Q *672:B 37.842 
*END

*D_NET *387 0.00082293
*CONN
*I *911:A I *D sky130_fd_sc_hd__clkdlybuf4s50_1
*I *675:B I *D sky130_fd_sc_hd__nand2_1
*I *770:Q O *D sky130_fd_sc_hd__dfrtp_1
*CAP
1 *911:A 5.6858e-05
2 *675:B 0.000261805
3 *770:Q 0.000318663
4 *675:B tl_o[36] 0
5 *675:B tl_o[38] 0.000147065
6 *770:RESET_B *675:B 2.43423e-05
7 *770:RESET_B *911:A 1.41976e-05
*RES
1 *770:Q *675:B 32.548 
2 *770:Q *911:A 19.8004 
*END

*D_NET *388 0.000856101
*CONN
*I *678:B I *D sky130_fd_sc_hd__nand2_1
*I *912:A I *D sky130_fd_sc_hd__clkdlybuf4s50_1
*I *771:Q O *D sky130_fd_sc_hd__dfrtp_1
*CAP
1 *678:B 0.000110944
2 *912:A 0
3 *771:Q 0.00015081
4 *388:12 0.000261754
5 *678:A *678:B 1.57614e-05
6 *680:A *678:B 2.65831e-05
7 *683:A *678:B 1.00846e-05
8 *716:A *388:12 1.18938e-05
9 *861:A *388:12 4.47578e-05
10 *127:155 *388:12 0.000223511
*RES
1 *771:Q *388:12 22.1896 
2 *388:12 *912:A 9.24915 
3 *388:12 *678:B 12.2392 
*END

*D_NET *389 0.00015888
*CONN
*P tl_o[59] O
*I *788:LO O *D sky130_fd_sc_hd__conb_1
*CAP
1 tl_o[59] 3.58037e-05
2 *788:LO 3.58037e-05
3 tl_o[59] tl_o[16] 4.69062e-05
4 tl_o[59] tl_o[18] 4.03661e-05
*RES
1 *788:LO tl_o[59] 17.6362 
*END

*D_NET *390 0.000492181
*CONN
*P tl_o[5] O
*I *776:LO O *D sky130_fd_sc_hd__conb_1
*CAP
1 tl_o[5] 0.000107211
2 *776:LO 0.000107211
3 tl_o[5] tl_o[61] 0
4 tl_o[11] tl_o[5] 0.000123441
5 *591:A tl_o[5] 0.000154317
*RES
1 *776:LO tl_o[5] 18.0187 
*END

*D_NET *391 0.000597157
*CONN
*P tl_o[60] O
*I *789:LO O *D sky130_fd_sc_hd__conb_1
*CAP
1 tl_o[60] 0.000154499
2 *789:LO 0.000154499
3 tl_o[60] tl_o[64] 0.000115635
4 tl_o[60] tl_o[8] 0.000123966
5 tl_o[2] tl_o[60] 4.85568e-05
*RES
1 *789:LO tl_o[60] 18.2481 
*END

*D_NET *392 0.000345415
*CONN
*P tl_o[61] O
*I *790:LO O *D sky130_fd_sc_hd__conb_1
*CAP
1 tl_o[61] 0.000147068
2 *790:LO 0.000147068
3 tl_o[61] tl_o[64] 5.12785e-05
4 tl_o[11] tl_o[61] 0
5 tl_o[5] tl_o[61] 0
*RES
1 *790:LO tl_o[61] 18.0187 
*END

*D_NET *393 0.00059487
*CONN
*I *913:A I *D sky130_fd_sc_hd__clkdlybuf4s50_1
*I *683:B I *D sky130_fd_sc_hd__nand2_1
*I *772:Q O *D sky130_fd_sc_hd__dfrtp_1
*CAP
1 *913:A 0
2 *683:B 0.000116715
3 *772:Q 0.000106616
4 *393:10 0.000223331
5 *393:10 *454:14 6.13428e-05
6 *683:A *683:B 5.80492e-05
7 *684:A *683:B 3.01683e-06
8 *684:B *683:B 2.57986e-05
*RES
1 *772:Q *393:10 20.9116 
2 *393:10 *683:B 12.7938 
3 *393:10 *913:A 9.24915 
*END

*D_NET *394 0.000589722
*CONN
*P tl_o[63] O
*I *791:LO O *D sky130_fd_sc_hd__conb_1
*CAP
1 tl_o[63] 0.000148051
2 *791:LO 0.000148051
3 tl_o[13] tl_o[63] 0.000112013
4 tl_o[15] tl_o[63] 0.000123966
5 *593:A tl_o[63] 5.76395e-05
*RES
1 *791:LO tl_o[63] 18.2481 
*END

*D_NET *395 0.000339577
*CONN
*P tl_o[64] O
*I *792:LO O *D sky130_fd_sc_hd__conb_1
*CAP
1 tl_o[64] 8.63317e-05
2 *792:LO 8.63317e-05
3 tl_o[60] tl_o[64] 0.000115635
4 tl_o[61] tl_o[64] 5.12785e-05
*RES
1 *792:LO tl_o[64] 18.2809 
*END

*D_NET *396 0.00247479
*CONN
*I *914:A I *D sky130_fd_sc_hd__clkdlybuf4s50_1
*I *579:A I *D sky130_fd_sc_hd__inv_1
*I *483:A I *D sky130_fd_sc_hd__nor2_4
*I *741:Q O *D sky130_fd_sc_hd__dfrtp_1
*CAP
1 *914:A 5.48947e-05
2 *579:A 0.000387987
3 *483:A 8.75205e-05
4 *741:Q 0.000491667
5 *396:8 0.00091228
6 *483:A *581:A1 0
7 *741:D *396:8 0.00019321
8 *53:18 *483:A 0.000144997
9 *53:18 *579:A 0.000181501
10 *335:12 *579:A 2.07356e-05
*RES
1 *741:Q *396:8 20.5732 
2 *396:8 *483:A 16.4116 
3 *396:8 *579:A 23.5538 
4 *741:Q *914:A 19.8004 
*END

*D_NET *397 0.000707418
*CONN
*P tl_o[6] O
*I *777:LO O *D sky130_fd_sc_hd__conb_1
*CAP
1 tl_o[6] 0.000215929
2 *777:LO 0.000215929
3 tl_o[10] tl_o[6] 0.000105988
4 tl_o[12] tl_o[6] 0.000130893
5 *536:C tl_o[6] 0
6 *591:A tl_o[6] 2.32075e-05
7 *686:A tl_o[6] 1.54716e-05
*RES
1 *777:LO tl_o[6] 19.0786 
*END

*D_NET *398 0.000349457
*CONN
*P tl_o[7] O
*I *778:LO O *D sky130_fd_sc_hd__conb_1
*CAP
1 tl_o[7] 5.60798e-05
2 *778:LO 5.60798e-05
3 tl_o[13] tl_o[7] 0.000118109
4 *686:A tl_o[7] 0.000119188
*RES
1 *778:LO tl_o[7] 17.8657 
*END

*D_NET *399 0.000342046
*CONN
*P tl_o[8] O
*I *779:LO O *D sky130_fd_sc_hd__conb_1
*CAP
1 tl_o[8] 5.1222e-05
2 *779:LO 5.1222e-05
3 tl_o[2] tl_o[8] 0.000115635
4 tl_o[60] tl_o[8] 0.000123966
*RES
1 *779:LO tl_o[8] 17.8657 
*END

*D_NET *400 0.000205921
*CONN
*P tl_o[9] O
*I *780:LO O *D sky130_fd_sc_hd__conb_1
*CAP
1 tl_o[9] 6.14275e-05
2 *780:LO 6.14275e-05
3 tl_o[9] tl_o[45] 2.16518e-05
4 tl_o[9] tl_o[47] 6.14144e-05
*RES
1 *780:LO tl_o[9] 17.7127 
*END

*D_NET *401 0.000313229
*CONN
*I *721:D I *D sky130_fd_sc_hd__dfrtp_1
*I *720:Q O *D sky130_fd_sc_hd__dfrtp_1
*CAP
1 *721:D 0.00014165
2 *720:Q 0.00014165
3 *721:RESET_B *721:D 0
4 *354:117 *721:D 2.99287e-05
*RES
1 *720:Q *721:D 30.4689 
*END

*D_NET *402 0.00048747
*CONN
*I *516:B I *D sky130_fd_sc_hd__nand3_1
*I *686:X O *D sky130_fd_sc_hd__clkdlybuf4s50_1
*CAP
1 *516:B 0.000211199
2 *686:X 0.000211199
3 *516:A *516:B 6.50727e-05
*RES
1 *686:X *516:B 23.1039 
*END

*D_NET *403 0.00105093
*CONN
*I *720:D I *D sky130_fd_sc_hd__dfrtp_1
*I *719:X O *D sky130_fd_sc_hd__clkdlybuf4s50_1
*CAP
1 *720:D 0.000450824
2 *719:X 0.000450824
3 *719:A *720:D 2.61012e-05
4 *721:CLK *720:D 0.000123176
5 *354:106 *720:D 0
*RES
1 *719:X *720:D 35.7363 
*END

*D_NET *404 0.000484918
*CONN
*I *572:B I *D sky130_fd_sc_hd__nand3_1
*I *687:X O *D sky130_fd_sc_hd__clkdlybuf4s50_1
*CAP
1 *572:B 0.000193299
2 *687:X 0.000193299
3 *72:107 *572:B 2.60709e-05
4 *131:6 *572:B 7.22498e-05
*RES
1 *687:X *572:B 32.2721 
*END

*D_NET *405 0.000472711
*CONN
*I *568:B I *D sky130_fd_sc_hd__nand3_1
*I *688:X O *D sky130_fd_sc_hd__clkdlybuf4s50_1
*CAP
1 *568:B 0.000201204
2 *688:X 0.000201204
3 *70:74 *568:B 2.47163e-05
4 *72:118 *568:B 5.03545e-06
5 *72:127 *568:B 4.05509e-05
*RES
1 *688:X *568:B 31.1629 
*END

*D_NET *406 0.000751132
*CONN
*I *564:B I *D sky130_fd_sc_hd__nand3_1
*I *689:X O *D sky130_fd_sc_hd__clkdlybuf4s50_1
*CAP
1 *564:B 0.000294313
2 *689:X 0.000294313
3 *568:A *564:B 1.43698e-05
4 *70:54 *564:B 1.03594e-05
5 *70:63 *564:B 0.000137777
*RES
1 *689:X *564:B 33.1026 
*END

*D_NET *407 0.000181225
*CONN
*I *560:B I *D sky130_fd_sc_hd__nand3_1
*I *690:X O *D sky130_fd_sc_hd__clkdlybuf4s50_1
*CAP
1 *560:B 9.06127e-05
2 *690:X 9.06127e-05
*RES
1 *690:X *560:B 20.3309 
*END

*D_NET *408 0.000411688
*CONN
*I *556:B I *D sky130_fd_sc_hd__nand3_1
*I *691:X O *D sky130_fd_sc_hd__clkdlybuf4s50_1
*CAP
1 *556:B 8.5565e-05
2 *691:X 8.5565e-05
3 *72:140 *556:B 0.00011818
4 *72:159 *556:B 0.000122378
*RES
1 *691:X *556:B 21.4401 
*END

*D_NET *409 0.00193119
*CONN
*I *552:B I *D sky130_fd_sc_hd__nand3_1
*I *692:X O *D sky130_fd_sc_hd__clkdlybuf4s50_1
*CAP
1 *552:B 0.000608375
2 *692:X 0.000608375
3 *542:A *552:B 0.000109951
4 *543:A1 *552:B 7.444e-06
5 *543:A2 *552:B 4.39919e-05
6 *548:A *552:B 4.21124e-05
7 *548:C *552:B 6.11359e-06
8 *552:A *552:B 2.65831e-05
9 *558:A *552:B 4.70005e-05
10 *746:D *552:B 0
11 *65:48 *552:B 0.000283447
12 *72:159 *552:B 1.64789e-05
13 *211:10 *552:B 0.000131318
*RES
1 *692:X *552:B 44.0598 
*END

*D_NET *410 0.0017879
*CONN
*I *548:B I *D sky130_fd_sc_hd__nand3_1
*I *693:X O *D sky130_fd_sc_hd__clkdlybuf4s50_1
*CAP
1 *548:B 0.000615161
2 *693:X 0.000615161
3 *548:B port_o 0
4 *543:A1 *548:B 2.47163e-05
5 *604:A *548:B 0.000143804
6 *692:A *548:B 0
7 *746:D *548:B 6.14128e-05
8 *746:RESET_B *548:B 0
9 *750:D *548:B 0.000281378
10 *750:CLK *548:B 4.62703e-05
*RES
1 *693:X *548:B 43.3418 
*END

*D_NET *411 0.000281702
*CONN
*I *544:B I *D sky130_fd_sc_hd__nand3_1
*I *694:X O *D sky130_fd_sc_hd__clkdlybuf4s50_1
*CAP
1 *544:B 0.000140851
2 *694:X 0.000140851
*RES
1 *694:X *544:B 30.0537 
*END

*D_NET *412 0.00119434
*CONN
*I *540:B I *D sky130_fd_sc_hd__nand3_1
*I *695:X O *D sky130_fd_sc_hd__clkdlybuf4s50_1
*CAP
1 *540:B 0.000376548
2 *695:X 0.000376548
3 *502:A *540:B 0.000122518
4 *56:61 *540:B 6.08467e-05
5 *65:167 *540:B 0
6 *70:180 *540:B 0.000141422
7 *70:202 *540:B 1.07248e-05
8 *358:35 *540:B 0.000105729
*RES
1 *695:X *540:B 35.321 
*END

*D_NET *413 0.00163641
*CONN
*I *512:B I *D sky130_fd_sc_hd__nand3_1
*I *696:X O *D sky130_fd_sc_hd__clkdlybuf4s50_1
*CAP
1 *512:B 0.000585106
2 *696:X 0.000585106
3 *495:A *512:B 0.000173037
4 *532:C *512:B 3.18748e-06
5 *72:92 *512:B 0.000289976
*RES
1 *696:X *512:B 38.9217 
*END

*D_NET *414 0.00129694
*CONN
*I *508:B I *D sky130_fd_sc_hd__nand3_1
*I *697:X O *D sky130_fd_sc_hd__clkdlybuf4s50_1
*CAP
1 *508:B 0.000355095
2 *697:X 0.000355095
3 *497:A *508:B 0
4 *498:B1_N *508:B 0.00017419
5 *505:A *508:B 2.65831e-05
6 *509:B *508:B 0
7 *528:B *508:B 0.000344013
8 *722:D *508:B 4.19662e-05
*RES
1 *697:X *508:B 36.4246 
*END

*D_NET *415 0.000532155
*CONN
*I *504:B I *D sky130_fd_sc_hd__nand3_1
*I *698:X O *D sky130_fd_sc_hd__clkdlybuf4s50_1
*CAP
1 *504:B 0.000189465
2 *698:X 0.000189465
3 *504:B *711:A 0
4 *594:A *504:B 0.000153225
5 *722:D *504:B 0
6 *356:8 *504:B 0
*RES
1 *698:X *504:B 32.6523 
*END

*D_NET *416 0.00100341
*CONN
*I *482:A I *D sky130_fd_sc_hd__inv_1
*I *699:X O *D sky130_fd_sc_hd__clkdlybuf4s50_1
*CAP
1 *482:A 8.29753e-05
2 *699:X 8.29753e-05
3 *482:A *463:22 0
4 *640:B *482:A 0.000100501
5 *699:A *482:A 0.000275256
6 *898:A *482:A 0.000461702
*RES
1 *699:X *482:A 24.5567 
*END

*D_NET *417 0.00116533
*CONN
*I *682:B I *D sky130_fd_sc_hd__nand3_1
*I *485:A I *D sky130_fd_sc_hd__nor2_1
*I *700:X O *D sky130_fd_sc_hd__clkdlybuf4s50_1
*CAP
1 *682:B 0.000101062
2 *485:A 5.54864e-05
3 *700:X 0.000136682
4 *417:6 0.00029323
5 *485:A *485:B 1.63255e-05
6 *682:B tl_o[35] 0.000120779
7 *679:A *417:6 0.000259134
8 *682:C *682:B 1.07248e-05
9 *684:A *682:B 1.61631e-05
10 *684:B *682:B 6.08467e-05
11 *700:A *485:A 5.79081e-05
12 *700:A *417:6 7.01935e-06
13 *55:14 *682:B 2.99643e-05
*RES
1 *700:X *417:6 13.3002 
2 *417:6 *485:A 11.1059 
3 *417:6 *682:B 21.7985 
*END

*D_NET *418 0.00139944
*CONN
*I *485:B I *D sky130_fd_sc_hd__nor2_1
*I *681:A I *D sky130_fd_sc_hd__nor2_1
*I *713:X O *D sky130_fd_sc_hd__clkdlybuf4s50_1
*CAP
1 *485:B 5.97072e-05
2 *681:A 0.000279471
3 *713:X 0
4 *418:4 0.000339178
5 *485:B tl_o[34] 1.04731e-05
6 *681:A tl_o[32] 7.70736e-05
7 *681:A tl_o[37] 4.19058e-05
8 *681:A *681:B 0.000202257
9 *681:A *453:10 9.71323e-06
10 *485:A *485:B 1.63255e-05
11 *682:C *681:A 6.50586e-05
12 *713:A *485:B 1.50924e-05
13 *772:D *681:A 0.000127194
14 *55:14 *681:A 0.000155995
*RES
1 *713:X *418:4 9.24915 
2 *418:4 *681:A 29.1365 
3 *418:4 *485:B 11.13 
*END

*D_NET *419 0.000958187
*CONN
*I *681:B I *D sky130_fd_sc_hd__nor2_1
*I *714:X O *D sky130_fd_sc_hd__clkdlybuf4s50_1
*CAP
1 *681:B 0.000158887
2 *714:X 0.000158887
3 *681:B tl_o[37] 0.000114271
4 *681:B *453:10 0.000323885
5 *681:A *681:B 0.000202257
6 *55:14 *681:B 0
*RES
1 *714:X *681:B 34.9002 
*END

*D_NET *420 0.000882519
*CONN
*I *679:B I *D sky130_fd_sc_hd__nand2_1
*I *715:X O *D sky130_fd_sc_hd__clkdlybuf4s50_1
*CAP
1 *679:B 0.00031105
2 *715:X 0.00031105
3 *679:A *679:B 5.37008e-05
4 *715:A *679:B 0.000206718
*RES
1 *715:X *679:B 26.4556 
*END

*D_NET *421 0.000111419
*CONN
*I *676:B I *D sky130_fd_sc_hd__nand2_1
*I *716:X O *D sky130_fd_sc_hd__clkdlybuf4s50_1
*CAP
1 *676:B 2.43238e-05
2 *716:X 2.43238e-05
3 *53:395 *676:B 6.27718e-05
*RES
1 *716:X *676:B 19.2217 
*END

*D_NET *422 0.000675507
*CONN
*I *581:A1 I *D sky130_fd_sc_hd__o21ai_0
*I *717:X O *D sky130_fd_sc_hd__clkdlybuf4s50_1
*CAP
1 *581:A1 0.000185517
2 *717:X 0.000185517
3 *483:A *581:A1 0
4 *335:12 *581:A1 0.000304473
*RES
1 *717:X *581:A1 33.0676 
*END

*D_NET *423 0.000335696
*CONN
*I *711:A I *D sky130_fd_sc_hd__buf_4
*I *718:X O *D sky130_fd_sc_hd__buf_2
*CAP
1 *711:A 0.000158888
2 *718:X 0.000158888
3 *504:B *711:A 0
4 *356:8 *711:A 1.79196e-05
*RES
1 *718:X *711:A 30.8842 
*END

*D_NET *425 0.00147145
*CONN
*I *586:B I *D sky130_fd_sc_hd__nand2_1
*I *585:B1 I *D sky130_fd_sc_hd__a21oi_1
*I *609:B1 I *D sky130_fd_sc_hd__a21oi_1
*I *484:A I *D sky130_fd_sc_hd__nor2_8
*I *859:X O *D sky130_fd_sc_hd__clkdlybuf4s50_1
*CAP
1 *586:B 0.000126352
2 *585:B1 5.04937e-05
3 *609:B1 0
4 *484:A 0.000335459
5 *859:X 0.000170802
6 *425:32 0.000131099
7 *425:26 0.000371615
8 *484:B *484:A 0
9 *585:A2 *585:B1 0.000107842
10 *588:A *586:B 0
11 *588:A *425:32 0
12 *609:A1 *585:B1 0.000122378
13 *54:12 *425:32 5.54078e-05
*RES
1 *859:X *484:A 31.4388 
2 *484:A *425:26 12.7697 
3 *425:26 *425:32 11.2472 
4 *425:32 *609:B1 9.24915 
5 *425:32 *585:B1 11.6364 
6 *425:26 *586:B 12.2151 
*END

*D_NET *426 0.000387787
*CONN
*I *652:B I *D sky130_fd_sc_hd__nand2_1
*I *860:X O *D sky130_fd_sc_hd__clkdlybuf4s50_1
*CAP
1 *652:B 0.000192251
2 *860:X 0.000192251
3 *652:B tl_o[57] 0
4 *53:476 *652:B 3.28433e-06
*RES
1 *860:X *652:B 31.0235 
*END

*D_NET *427 0.000406988
*CONN
*I *655:B I *D sky130_fd_sc_hd__nand2_1
*I *861:X O *D sky130_fd_sc_hd__clkdlybuf4s50_1
*CAP
1 *655:B 0.000161447
2 *861:X 0.000161447
3 *655:B tl_o[57] 5.62448e-05
4 *53:406 *655:B 2.78496e-05
*RES
1 *861:X *655:B 31.0235 
*END

*D_NET *428 0.0011343
*CONN
*I *658:B I *D sky130_fd_sc_hd__nand2_1
*I *862:X O *D sky130_fd_sc_hd__clkdlybuf4s50_1
*CAP
1 *658:B 0.000421879
2 *862:X 0.000421879
3 *657:B *658:B 7.34948e-06
4 *659:A *658:B 1.41291e-05
5 *659:B *658:B 1.41291e-05
6 *661:A *658:B 0.000179253
7 *764:D *658:B 2.85531e-06
8 *863:A *658:B 0
9 *905:A *658:B 1.71317e-05
10 *53:491 *658:B 5.56942e-05
*RES
1 *862:X *658:B 35.4738 
*END

*D_NET *429 0.00148417
*CONN
*I *661:B I *D sky130_fd_sc_hd__nand2_1
*I *863:X O *D sky130_fd_sc_hd__clkdlybuf4s50_1
*CAP
1 *661:B 0.000530034
2 *863:X 0.000530034
3 *863:A *661:B 0.00033614
4 *53:476 *661:B 0
5 *204:22 *661:B 8.79588e-05
*RES
1 *863:X *661:B 38.0884 
*END

*D_NET *430 0.000374008
*CONN
*I *664:B I *D sky130_fd_sc_hd__nand2_1
*I *864:X O *D sky130_fd_sc_hd__clkdlybuf4s50_1
*CAP
1 *664:B 0.00015046
2 *864:X 0.00015046
3 *664:A *664:B 5.8705e-05
4 *669:B *664:B 1.43832e-05
5 *768:RESET_B *664:B 0
*RES
1 *864:X *664:B 30.8842 
*END

*D_NET *431 0.00010475
*CONN
*I *667:B I *D sky130_fd_sc_hd__nand2_1
*I *865:X O *D sky130_fd_sc_hd__clkdlybuf4s50_1
*CAP
1 *667:B 2.00341e-05
2 *865:X 2.00341e-05
3 *53:444 *667:B 6.46815e-05
*RES
1 *865:X *667:B 19.2217 
*END

*D_NET *432 0.000326221
*CONN
*I *670:B I *D sky130_fd_sc_hd__nand2_1
*I *866:X O *D sky130_fd_sc_hd__clkdlybuf4s50_1
*CAP
1 *670:B 9.24909e-05
2 *866:X 9.24909e-05
3 *670:A *670:B 5.03545e-06
4 *866:A *670:B 0.000136204
*RES
1 *866:X *670:B 30.1608 
*END

*D_NET *433 0.000944536
*CONN
*I *673:B I *D sky130_fd_sc_hd__nand2_1
*I *867:X O *D sky130_fd_sc_hd__clkdlybuf4s50_1
*CAP
1 *673:B 0.000258553
2 *867:X 0.000258553
3 *672:B *673:B 0.000113909
4 *674:A *673:B 0.000250743
5 *674:B *673:B 6.27782e-05
*RES
1 *867:X *673:B 27.0826 
*END

*D_NET *434 0.000599708
*CONN
*P port_o O
*I *868:X O *D sky130_fd_sc_hd__clkdlybuf4s50_1
*CAP
1 port_o 0.000299854
2 *868:X 0.000299854
3 *548:B port_o 0
4 *889:A port_o 0
*RES
1 *868:X port_o 21.2786 
*END

*D_NET *435 0.000603088
*CONN
*P tl_o[0] O
*I *869:X O *D sky130_fd_sc_hd__clkdlybuf4s50_1
*CAP
1 tl_o[0] 0.000155818
2 *869:X 0.000155818
3 tl_o[0] tl_o[46] 0.000159178
4 *699:A tl_o[0] 0.000132275
*RES
1 *869:X tl_o[0] 18.8492 
*END

*D_NET *436 0.00148137
*CONN
*P tl_o[16] O
*I *870:X O *D sky130_fd_sc_hd__clkdlybuf4s50_1
*CAP
1 tl_o[16] 0.000575045
2 *870:X 0.000575045
3 tl_o[16] tl_o[18] 0.000178591
4 tl_o[16] tl_o[19] 8.55839e-05
5 tl_o[59] tl_o[16] 4.69062e-05
6 *350:38 tl_o[16] 2.02035e-05
*RES
1 *870:X tl_o[16] 19.2425 
*END

*D_NET *437 0.000444353
*CONN
*P tl_o[17] O
*I *871:X O *D sky130_fd_sc_hd__clkdlybuf4s50_1
*CAP
1 tl_o[17] 0.000110177
2 *871:X 0.000110177
3 tl_o[17] tl_o[20] 0.000123966
4 tl_o[17] tl_o[44] 0.000100032
*RES
1 *871:X tl_o[17] 18.6962 
*END

*D_NET *438 0.00136012
*CONN
*P tl_o[18] O
*I *872:X O *D sky130_fd_sc_hd__clkdlybuf4s50_1
*CAP
1 tl_o[18] 0.000470992
2 *872:X 0.000470992
3 tl_o[18] tl_o[21] 0.000118125
4 tl_o[18] tl_o[22] 4.78787e-05
5 tl_o[16] tl_o[18] 0.000178591
6 tl_o[59] tl_o[18] 4.03661e-05
7 *350:38 tl_o[18] 3.31733e-05
*RES
1 *872:X tl_o[18] 19.5048 
*END

*D_NET *439 0.000566649
*CONN
*P tl_o[19] O
*I *873:X O *D sky130_fd_sc_hd__clkdlybuf4s50_1
*CAP
1 tl_o[19] 0.0001993
2 *873:X 0.0001993
3 tl_o[14] tl_o[19] 8.24651e-05
4 tl_o[16] tl_o[19] 8.55839e-05
*RES
1 *873:X tl_o[19] 19.6218 
*END

*D_NET *440 0.00196009
*CONN
*P tl_o[1] O
*I *874:X O *D sky130_fd_sc_hd__clkdlybuf4s50_1
*CAP
1 tl_o[1] 0.000656039
2 *874:X 0.000656039
3 tl_o[1] tl_o[46] 0
4 tl_o[1] tl_o[65] 0.000100032
5 *699:A tl_o[1] 1.71854e-05
6 *717:A tl_o[1] 0.000522927
7 *53:18 tl_o[1] 7.86825e-06
*RES
1 *874:X tl_o[1] 19.625 
*END

*D_NET *441 0.000743814
*CONN
*P tl_o[20] O
*I *875:X O *D sky130_fd_sc_hd__clkdlybuf4s50_1
*CAP
1 tl_o[20] 0.000234361
2 *875:X 0.000234361
3 tl_o[20] tl_o[23] 0.000141815
4 tl_o[20] tl_o[44] 9.31146e-06
5 tl_o[17] tl_o[20] 0.000123966
*RES
1 *875:X tl_o[20] 20.5102 
*END

*D_NET *442 0.00055272
*CONN
*P tl_o[21] O
*I *876:X O *D sky130_fd_sc_hd__clkdlybuf4s50_1
*CAP
1 tl_o[21] 0.000162633
2 *876:X 0.000162633
3 tl_o[21] tl_o[22] 0.00010933
4 tl_o[21] tl_o[23] 0
5 tl_o[18] tl_o[21] 0.000118125
*RES
1 *876:X tl_o[21] 19.942 
*END

*D_NET *443 0.00173744
*CONN
*P tl_o[22] O
*I *877:X O *D sky130_fd_sc_hd__clkdlybuf4s50_1
*CAP
1 tl_o[22] 0.000547281
2 *877:X 0.000547281
3 tl_o[22] tl_o[23] 0.000365039
4 tl_o[22] tl_o[44] 0
5 tl_o[18] tl_o[22] 4.78787e-05
6 tl_o[21] tl_o[22] 0.00010933
7 *350:10 tl_o[22] 0.00012063
8 *350:38 tl_o[22] 0
*RES
1 *877:X tl_o[22] 24.4441 
*END

*D_NET *444 0.00149501
*CONN
*P tl_o[23] O
*I *878:X O *D sky130_fd_sc_hd__clkdlybuf4s50_1
*CAP
1 tl_o[23] 0.00049408
2 *878:X 0.00049408
3 tl_o[23] tl_o[44] 0
4 tl_o[20] tl_o[23] 0.000141815
5 tl_o[21] tl_o[23] 0
6 tl_o[22] tl_o[23] 0.000365039
*RES
1 *878:X tl_o[23] 23.8759 
*END

*D_NET *445 0.000609754
*CONN
*P tl_o[24] O
*I *879:X O *D sky130_fd_sc_hd__clkdlybuf4s50_1
*CAP
1 tl_o[24] 0.000263359
2 *879:X 0.000263359
3 tl_o[24] tl_o[31] 4.02608e-05
4 tl_o[24] tl_o[40] 4.27752e-05
5 *879:A tl_o[24] 0
*RES
1 *879:X tl_o[24] 22.6192 
*END

*D_NET *446 0.000620996
*CONN
*P tl_o[25] O
*I *880:X O *D sky130_fd_sc_hd__clkdlybuf4s50_1
*CAP
1 tl_o[25] 0.000269783
2 *880:X 0.000269783
3 tl_o[25] tl_o[26] 4.10643e-05
4 tl_o[25] tl_o[28] 0
5 tl_o[25] tl_o[39] 4.03661e-05
6 *359:59 tl_o[25] 0
*RES
1 *880:X tl_o[25] 22.6192 
*END

*D_NET *447 0.000503644
*CONN
*P tl_o[26] O
*I *881:X O *D sky130_fd_sc_hd__clkdlybuf4s50_1
*CAP
1 tl_o[26] 0.000146752
2 *881:X 0.000146752
3 tl_o[26] tl_o[28] 0.000122887
4 tl_o[26] tl_o[30] 3.07192e-06
5 tl_o[26] tl_o[39] 4.31177e-05
6 tl_o[25] tl_o[26] 4.10643e-05
7 *359:59 tl_o[26] 0
*RES
1 *881:X tl_o[26] 18.0187 
*END

*D_NET *448 0.000624638
*CONN
*P tl_o[27] O
*I *882:X O *D sky130_fd_sc_hd__clkdlybuf4s50_1
*CAP
1 tl_o[27] 0.000200504
2 *882:X 0.000200504
3 tl_o[27] tl_o[29] 0.000100032
4 tl_o[27] tl_o[31] 0.000113049
5 tl_o[27] tl_o[39] 1.05503e-05
6 tl_o[27] tl_o[40] 0
*RES
1 *882:X tl_o[27] 19.2644 
*END

*D_NET *449 0.00118538
*CONN
*P tl_o[28] O
*I *883:X O *D sky130_fd_sc_hd__clkdlybuf4s50_1
*CAP
1 tl_o[28] 0.000336635
2 *883:X 0.000336635
3 tl_o[28] tl_o[30] 0.000172189
4 tl_o[25] tl_o[28] 0
5 tl_o[26] tl_o[28] 0.000122887
6 *880:A tl_o[28] 0.000217031
7 *127:42 tl_o[28] 0
*RES
1 *883:X tl_o[28] 24.0695 
*END

*D_NET *450 0.000437921
*CONN
*P tl_o[29] O
*I *884:X O *D sky130_fd_sc_hd__clkdlybuf4s50_1
*CAP
1 tl_o[29] 0.000106961
2 *884:X 0.000106961
3 tl_o[29] tl_o[39] 0.000123966
4 tl_o[27] tl_o[29] 0.000100032
5 *359:68 tl_o[29] 0
*RES
1 *884:X tl_o[29] 18.6962 
*END

*D_NET *451 0.000805217
*CONN
*P tl_o[30] O
*I *885:X O *D sky130_fd_sc_hd__clkdlybuf4s50_1
*CAP
1 tl_o[30] 0.000248841
2 *885:X 0.000248841
3 tl_o[26] tl_o[30] 3.07192e-06
4 tl_o[28] tl_o[30] 0.000172189
5 *717:A tl_o[30] 0.000132275
6 *885:A tl_o[30] 0
7 *127:42 tl_o[30] 0
*RES
1 *885:X tl_o[30] 20.5102 
*END

*D_NET *452 0.000337578
*CONN
*P tl_o[31] O
*I *886:X O *D sky130_fd_sc_hd__clkdlybuf4s50_1
*CAP
1 tl_o[31] 8.20901e-05
2 *886:X 8.20901e-05
3 tl_o[31] tl_o[40] 2.00885e-05
4 tl_o[24] tl_o[31] 4.02608e-05
5 tl_o[27] tl_o[31] 0.000113049
*RES
1 *886:X tl_o[31] 17.8657 
*END

*D_NET *453 0.00400368
*CONN
*P tl_o[32] O
*I *887:X O *D sky130_fd_sc_hd__clkdlybuf4s50_1
*CAP
1 tl_o[32] 0.000214482
2 *887:X 0.00101561
3 *453:10 0.00123009
4 *453:10 *481:206 0.000611988
5 *620:A *453:10 0
6 *681:A tl_o[32] 7.70736e-05
7 *681:A *453:10 9.71323e-06
8 *681:B *453:10 0.000323885
9 *713:A tl_o[32] 0.000142213
10 *714:A tl_o[32] 0.000214722
11 *747:RESET_B *453:10 8.06693e-05
12 *751:CLK *453:10 0
13 *53:195 *453:10 1.49175e-05
14 *54:151 *453:10 2.02222e-05
15 *55:14 *453:10 0
16 *56:16 *453:10 4.81001e-05
17 *356:469 *453:10 0
*RES
1 *887:X *453:10 43.0977 
2 *453:10 tl_o[32] 8.98288 
*END

*D_NET *454 0.00423475
*CONN
*P tl_o[33] O
*I *888:X O *D sky130_fd_sc_hd__clkdlybuf4s50_1
*CAP
1 tl_o[33] 0.000284529
2 *888:X 0.00138832
3 *454:14 0.00167285
4 tl_o[33] tl_o[37] 0
5 tl_o[33] tl_o[62] 0
6 *454:14 tl_o[36] 0
7 *454:14 tl_o[37] 0
8 *454:14 tl_o[62] 0
9 *454:14 *481:121 6.28634e-05
10 *454:14 *481:198 0
11 *486:A *454:14 0
12 *620:B *454:14 3.00705e-05
13 *752:CLK *454:14 7.09558e-05
14 *753:CLK *454:14 0.00010076
15 *770:D *454:14 0.000141654
16 *771:D *454:14 4.41394e-05
17 *891:A *454:14 0.000373878
18 *126:132 *454:14 0
19 *126:142 *454:14 3.39313e-06
20 *393:10 *454:14 6.13428e-05
*RES
1 *888:X *454:14 49.3904 
2 *454:14 tl_o[33] 6.95547 
*END

*D_NET *455 0.00143924
*CONN
*P tl_o[34] O
*I *889:X O *D sky130_fd_sc_hd__clkdlybuf4s50_1
*CAP
1 tl_o[34] 0.000536053
2 *889:X 0.000536053
3 tl_o[34] tl_o[35] 0.000110522
4 *485:B tl_o[34] 1.04731e-05
5 *700:A tl_o[34] 0.000159461
6 *713:A tl_o[34] 8.66761e-05
*RES
1 *889:X tl_o[34] 24.7807 
*END

*D_NET *456 0.00205591
*CONN
*P tl_o[35] O
*I *890:X O *D sky130_fd_sc_hd__clkdlybuf4s50_1
*CAP
1 tl_o[35] 0.000404494
2 *890:X 0.000404494
3 tl_o[35] tl_o[37] 0.000165085
4 tl_o[34] tl_o[35] 0.000110522
5 *679:A tl_o[35] 0.000112153
6 *682:B tl_o[35] 0.000120779
7 *682:C tl_o[35] 0.000149673
8 *53:509 tl_o[35] 0.000540004
9 *55:14 tl_o[35] 4.87031e-05
*RES
1 *890:X tl_o[35] 31.2447 
*END

*D_NET *457 0.00241144
*CONN
*P tl_o[36] O
*I *891:X O *D sky130_fd_sc_hd__clkdlybuf4s50_1
*CAP
1 tl_o[36] 0.00092
2 *891:X 0.00092
3 tl_o[36] tl_o[38] 0
4 tl_o[36] tl_o[62] 0.000194318
5 *675:B tl_o[36] 0
6 *680:B tl_o[36] 0.000121019
7 *770:D tl_o[36] 6.92705e-05
8 *770:CLK tl_o[36] 8.64539e-05
9 *771:D tl_o[36] 4.27547e-05
10 *771:CLK tl_o[36] 5.76223e-05
11 *454:14 tl_o[36] 0
*RES
1 *891:X tl_o[36] 38.6121 
*END

*D_NET *458 0.00225811
*CONN
*P tl_o[37] O
*I *892:X O *D sky130_fd_sc_hd__clkdlybuf4s50_1
*CAP
1 tl_o[37] 0.000691248
2 *892:X 0.000691248
3 tl_o[33] tl_o[37] 0
4 tl_o[35] tl_o[37] 0.000165085
5 *679:A tl_o[37] 0.000121019
6 *681:A tl_o[37] 4.19058e-05
7 *681:B tl_o[37] 0.000114271
8 *682:C tl_o[37] 1.19705e-05
9 *53:509 tl_o[37] 0.00042136
10 *454:14 tl_o[37] 0
*RES
1 *892:X tl_o[37] 34.3287 
*END

*D_NET *459 0.00325836
*CONN
*P tl_o[38] O
*I *893:X O *D sky130_fd_sc_hd__clkdlybuf4s50_1
*CAP
1 tl_o[38] 0.00111126
2 *893:X 0.00111126
3 tl_o[36] tl_o[38] 0
4 *675:B tl_o[38] 0.000147065
5 *680:B tl_o[38] 0
6 *716:A tl_o[38] 0.000616658
7 *762:RESET_B tl_o[38] 3.50379e-05
8 *770:CLK tl_o[38] 7.74658e-05
9 *771:CLK tl_o[38] 6.37349e-05
10 *356:199 tl_o[38] 1.79807e-05
11 *356:213 tl_o[38] 7.7907e-05
*RES
1 *893:X tl_o[38] 44.7072 
*END

*D_NET *460 0.00148358
*CONN
*P tl_o[39] O
*I *894:X O *D sky130_fd_sc_hd__clkdlybuf4s50_1
*CAP
1 tl_o[39] 0.00063279
2 *894:X 0.00063279
3 tl_o[25] tl_o[39] 4.03661e-05
4 tl_o[26] tl_o[39] 4.31177e-05
5 tl_o[27] tl_o[39] 1.05503e-05
6 tl_o[29] tl_o[39] 0.000123966
7 *717:A tl_o[39] 0
8 *769:RESET_B tl_o[39] 0
*RES
1 *894:X tl_o[39] 19.2425 
*END

*D_NET *461 0.00247479
*CONN
*P tl_o[40] O
*I *895:X O *D sky130_fd_sc_hd__clkdlybuf4s50_1
*CAP
1 tl_o[40] 0.000994638
2 *895:X 0.000994638
3 tl_o[40] tl_o[53] 0.000113213
4 tl_o[40] *625:A 4.58907e-05
5 tl_o[24] tl_o[40] 4.27752e-05
6 tl_o[27] tl_o[40] 0
7 tl_o[31] tl_o[40] 2.00885e-05
8 *625:B tl_o[40] 6.64392e-05
9 *626:B tl_o[40] 4.99786e-05
10 *766:D tl_o[40] 0.00014713
*RES
1 *895:X tl_o[40] 39.0438 
*END

*D_NET *462 0.00282002
*CONN
*P tl_o[41] O
*I *896:X O *D sky130_fd_sc_hd__clkdlybuf4s50_1
*CAP
1 tl_o[41] 0.000527356
2 *896:X 0.000527356
3 tl_o[41] tl_o[42] 0.000328353
4 tl_o[41] tl_o[46] 0.00142909
5 *741:CLK tl_o[41] 0
6 *53:18 tl_o[41] 7.86825e-06
*RES
1 *896:X tl_o[41] 19.8378 
*END

*D_NET *463 0.00653175
*CONN
*P tl_o[42] O
*I *897:X O *D sky130_fd_sc_hd__clkdlybuf4s50_1
*CAP
1 tl_o[42] 0.00070901
2 *897:X 0.00136968
3 *463:22 0.00207869
4 tl_o[42] tl_o[43] 4.39785e-05
5 tl_o[42] tl_o[45] 4.40348e-05
6 *463:22 *640:A 0.000222081
7 *463:22 *481:80 6.64392e-05
8 tl_o[41] tl_o[42] 0.000328353
9 *482:A *463:22 0
10 *518:A *463:22 7.74892e-05
11 *519:A1 *463:22 6.50727e-05
12 *519:A2 *463:22 0.00011818
13 *519:B1_N *463:22 5.95039e-05
14 *521:A *463:22 2.81584e-05
15 *634:B *463:22 0.000136576
16 *640:B *463:22 0.000217116
17 *644:B *463:22 4.25236e-05
18 *741:CLK *463:22 0.00052152
19 *53:38 *463:22 6.9709e-05
20 *353:6 *463:22 4.80635e-06
21 *353:10 *463:22 0.000123106
22 *353:16 *463:22 0.000164843
23 *353:96 *463:22 3.22623e-05
24 *372:8 *463:22 8.62625e-06
*RES
1 *897:X *463:22 49.8018 
2 *463:22 tl_o[42] 5.19125 
*END

*D_NET *464 0.000154136
*CONN
*P tl_o[43] O
*I *898:X O *D sky130_fd_sc_hd__clkdlybuf4s50_1
*CAP
1 tl_o[43] 3.16258e-05
2 *898:X 3.16258e-05
3 tl_o[43] tl_o[45] 4.69062e-05
4 tl_o[42] tl_o[43] 4.39785e-05
*RES
1 *898:X tl_o[43] 17.6362 
*END

*D_NET *465 0.00143261
*CONN
*P tl_o[44] O
*I *899:X O *D sky130_fd_sc_hd__clkdlybuf4s50_1
*CAP
1 tl_o[44] 0.000579286
2 *899:X 0.000579286
3 tl_o[44] tl_o[47] 0.000164692
4 tl_o[17] tl_o[44] 0.000100032
5 tl_o[20] tl_o[44] 9.31146e-06
6 tl_o[22] tl_o[44] 0
7 tl_o[23] tl_o[44] 0
*RES
1 *899:X tl_o[44] 19.0895 
*END

*D_NET *466 0.000436529
*CONN
*P tl_o[45] O
*I *900:X O *D sky130_fd_sc_hd__clkdlybuf4s50_1
*CAP
1 tl_o[45] 0.000161968
2 *900:X 0.000161968
3 tl_o[45] tl_o[47] 0
4 tl_o[42] tl_o[45] 4.40348e-05
5 tl_o[43] tl_o[45] 4.69062e-05
6 tl_o[9] tl_o[45] 2.16518e-05
7 *640:B tl_o[45] 0
*RES
1 *900:X tl_o[45] 18.0187 
*END

*D_NET *467 0.0029907
*CONN
*P tl_o[46] O
*I *901:X O *D sky130_fd_sc_hd__clkdlybuf4s50_1
*CAP
1 tl_o[46] 0.000678537
2 *901:X 0.000678537
3 tl_o[0] tl_o[46] 0.000159178
4 tl_o[1] tl_o[46] 0
5 tl_o[41] tl_o[46] 0.00142909
6 *699:A tl_o[46] 2.51528e-05
7 *896:A tl_o[46] 2.02035e-05
*RES
1 *901:X tl_o[46] 20.2369 
*END

*D_NET *468 0.000669991
*CONN
*P tl_o[47] O
*I *902:X O *D sky130_fd_sc_hd__clkdlybuf4s50_1
*CAP
1 tl_o[47] 0.000221942
2 *902:X 0.000221942
3 tl_o[44] tl_o[47] 0.000164692
4 tl_o[45] tl_o[47] 0
5 tl_o[9] tl_o[47] 6.14144e-05
*RES
1 *902:X tl_o[47] 18.9257 
*END

*D_NET *469 0.00177275
*CONN
*P tl_o[49] O
*I *903:X O *D sky130_fd_sc_hd__clkdlybuf4s50_1
*CAP
1 tl_o[49] 0.000646199
2 *903:X 0.000646199
3 *653:B tl_o[49] 5.68113e-05
4 *860:A tl_o[49] 0
5 *53:476 tl_o[49] 5.74984e-05
6 *127:155 tl_o[49] 0.000161234
7 *204:22 tl_o[49] 0.000204805
*RES
1 *903:X tl_o[49] 31.4157 
*END

*D_NET *470 0.00191949
*CONN
*P tl_o[50] O
*I *904:X O *D sky130_fd_sc_hd__clkdlybuf4s50_1
*CAP
1 tl_o[50] 0.000606977
2 *904:X 0.000606977
3 *768:RESET_B tl_o[50] 2.36582e-05
4 *864:A tl_o[50] 0.000438734
5 *865:A tl_o[50] 0.000243146
6 *867:A tl_o[50] 0
7 *352:107 tl_o[50] 0
*RES
1 *904:X tl_o[50] 20.1495 
*END

*D_NET *471 0.000329822
*CONN
*P tl_o[51] O
*I *905:X O *D sky130_fd_sc_hd__clkdlybuf4s50_1
*CAP
1 tl_o[51] 0.000164911
2 *905:X 0.000164911
*RES
1 *905:X tl_o[51] 17.9566 
*END

*D_NET *472 0.000937343
*CONN
*P tl_o[52] O
*I *906:X O *D sky130_fd_sc_hd__clkdlybuf4s50_1
*CAP
1 tl_o[52] 0.000468672
2 *906:X 0.000468672
3 *906:A tl_o[52] 0
*RES
1 *906:X tl_o[52] 24.6048 
*END

*D_NET *473 0.000542221
*CONN
*P tl_o[53] O
*I *907:X O *D sky130_fd_sc_hd__clkdlybuf4s50_1
*CAP
1 tl_o[53] 0.000140272
2 *907:X 0.000140272
3 tl_o[53] tl_o[56] 0.000148465
4 tl_o[40] tl_o[53] 0.000113213
5 *879:A tl_o[53] 0
*RES
1 *907:X tl_o[53] 18.0187 
*END

*D_NET *474 0.000575991
*CONN
*P tl_o[54] O
*I *908:X O *D sky130_fd_sc_hd__clkdlybuf4s50_1
*CAP
1 tl_o[54] 0.000173054
2 *908:X 0.000173054
3 *668:A tl_o[54] 0
4 *668:B tl_o[54] 4.16488e-05
5 *865:A tl_o[54] 8.99541e-05
6 *867:A tl_o[54] 9.82797e-05
*RES
1 *908:X tl_o[54] 19.6218 
*END

*D_NET *475 0.00121519
*CONN
*P tl_o[55] O
*I *909:X O *D sky130_fd_sc_hd__clkdlybuf4s50_1
*CAP
1 tl_o[55] 0.000527263
2 *909:X 0.000527263
3 *765:RESET_B tl_o[55] 2.75652e-05
4 *864:A tl_o[55] 1.98816e-05
5 *866:A tl_o[55] 0.000113213
*RES
1 *909:X tl_o[55] 20.1386 
*END

*D_NET *476 0.00262751
*CONN
*P tl_o[56] O
*I *910:X O *D sky130_fd_sc_hd__clkdlybuf4s50_1
*CAP
1 tl_o[56] 0.000859892
2 *910:X 0.000859892
3 tl_o[53] tl_o[56] 0.000148465
4 *665:B tl_o[56] 3.74723e-05
5 *766:D tl_o[56] 2.48716e-05
6 *766:RESET_B tl_o[56] 0.000264645
7 *867:A tl_o[56] 0.000432273
*RES
1 *910:X tl_o[56] 28.7168 
*END

*D_NET *477 0.00225328
*CONN
*P tl_o[57] O
*I *911:X O *D sky130_fd_sc_hd__clkdlybuf4s50_1
*CAP
1 tl_o[57] 0.000787421
2 *911:X 0.000787421
3 *652:B tl_o[57] 0
4 *653:B tl_o[57] 0
5 *655:B tl_o[57] 5.62448e-05
6 *675:A tl_o[57] 3.00174e-06
7 *762:D tl_o[57] 0
8 *860:A tl_o[57] 0.000147152
9 *861:A tl_o[57] 0.000472035
10 *53:476 tl_o[57] 0
11 *378:12 tl_o[57] 0
*RES
1 *911:X tl_o[57] 37.3664 
*END

*D_NET *478 0.00123312
*CONN
*P tl_o[58] O
*I *912:X O *D sky130_fd_sc_hd__clkdlybuf4s50_1
*CAP
1 tl_o[58] 0.000448321
2 *912:X 0.000448321
3 *715:A tl_o[58] 0.000142213
4 *716:A tl_o[58] 0
5 *861:A tl_o[58] 0.000194261
*RES
1 *912:X tl_o[58] 24.7751 
*END

*D_NET *479 0.000825529
*CONN
*P tl_o[62] O
*I *913:X O *D sky130_fd_sc_hd__clkdlybuf4s50_1
*CAP
1 tl_o[62] 0.00028097
2 *913:X 0.00028097
3 tl_o[33] tl_o[62] 0
4 tl_o[36] tl_o[62] 0.000194318
5 *683:A tl_o[62] 6.92705e-05
6 *454:14 tl_o[62] 0
*RES
1 *913:X tl_o[62] 22.002 
*END

*D_NET *480 0.000444024
*CONN
*P tl_o[65] O
*I *914:X O *D sky130_fd_sc_hd__clkdlybuf4s50_1
*CAP
1 tl_o[65] 0.000115472
2 *914:X 0.000115472
3 tl_o[1] tl_o[65] 0.000100032
4 *699:A tl_o[65] 0.000113049
*RES
1 *914:X tl_o[65] 18.6962 
*END

*D_NET *481 0.0198009
*CONN
*I *622:A I *D sky130_fd_sc_hd__nand2_1
*I *625:A I *D sky130_fd_sc_hd__nand2_1
*I *606:A I *D sky130_fd_sc_hd__nand2_1
*I *603:A I *D sky130_fd_sc_hd__nand2_1
*I *616:A I *D sky130_fd_sc_hd__nand2_1
*I *619:A I *D sky130_fd_sc_hd__nand2_1
*I *613:A I *D sky130_fd_sc_hd__nand2_1
*I *600:A I *D sky130_fd_sc_hd__nand2_1
*I *631:A I *D sky130_fd_sc_hd__nand2_1
*I *597:A I *D sky130_fd_sc_hd__nand2_1
*I *577:A I *D sky130_fd_sc_hd__nand2_1
*I *640:A I *D sky130_fd_sc_hd__nand2_1
*I *634:A I *D sky130_fd_sc_hd__nand2_1
*I *643:A I *D sky130_fd_sc_hd__nand2_1
*I *637:A I *D sky130_fd_sc_hd__nand2_1
*I *646:A I *D sky130_fd_sc_hd__nand2_1
*I *628:A I *D sky130_fd_sc_hd__nand2_1
*I *915:X O *D sky130_fd_sc_hd__buf_4
*CAP
1 *622:A 0
2 *625:A 0.000338218
3 *606:A 0
4 *603:A 1.56432e-05
5 *616:A 9.6129e-05
6 *619:A 0.000105837
7 *613:A 4.29156e-05
8 *600:A 0
9 *631:A 0.000779115
10 *597:A 0.000155287
11 *577:A 0.000130537
12 *640:A 0.000109698
13 *634:A 0
14 *643:A 0
15 *637:A 0.000210749
16 *646:A 0.000151766
17 *628:A 4.89473e-05
18 *915:X 6.93723e-05
19 *481:206 0.000663837
20 *481:198 0.00097431
21 *481:179 0.000635465
22 *481:166 0.000276106
23 *481:133 0.00157462
24 *481:125 0.000746714
25 *481:121 0.000837204
26 *481:111 0.00105418
27 *481:80 0.000155596
28 *481:52 0.000374458
29 *481:31 0.000467034
30 *481:29 0.000582428
31 *481:25 0.000692838
32 *481:14 0.000660472
33 *481:10 0.000545258
34 *481:8 6.93723e-05
35 tl_o[40] *625:A 4.58907e-05
36 *486:B *481:198 0.000370815
37 *539:B1_N *631:A 0
38 *541:A *631:A 0
39 *573:A *631:A 0.000159354
40 *573:B *631:A 0.000105561
41 *577:B *577:A 1.92876e-05
42 *600:B *481:121 1.0759e-05
43 *600:B *481:125 7.28831e-05
44 *601:C *631:A 4.54443e-05
45 *603:B *616:A 6.50586e-05
46 *605:A *481:198 1.01044e-05
47 *606:B *481:198 0.000141956
48 *613:B *619:A 6.32945e-05
49 *616:B *616:A 7.36575e-05
50 *616:B *481:206 4.19058e-05
51 *619:B *481:198 6.65546e-05
52 *620:B *481:198 8.64054e-06
53 *621:B *631:A 2.64881e-05
54 *623:B *481:14 0.000127194
55 *625:B *625:A 0.000314305
56 *628:B *577:A 0.00011887
57 *628:B *628:A 0.000162834
58 *628:B *481:25 6.41795e-05
59 *628:B *481:29 2.69435e-05
60 *634:B *640:A 7.58194e-05
61 *634:B *481:80 2.99287e-05
62 *635:A *637:A 0.000141854
63 *635:A *481:52 0.000165159
64 *635:C *637:A 0.000215892
65 *635:C *481:52 3.32903e-05
66 *638:A *637:A 0.000109421
67 *638:B *637:A 2.06999e-05
68 *640:B *640:A 6.92705e-05
69 *641:B *646:A 0
70 *641:C *646:A 4.24488e-05
71 *643:B *637:A 6.27782e-05
72 *643:B *481:29 0
73 *643:B *481:31 0
74 *644:B *637:A 2.68666e-06
75 *729:D *631:A 2.02354e-05
76 *744:RESET_B *631:A 0
77 *745:CLK *597:A 3.86121e-05
78 *745:CLK *481:133 7.92757e-06
79 *753:CLK *481:121 4.2372e-05
80 *755:RESET_B *631:A 0
81 *756:D *481:52 0.00015888
82 *769:D *625:A 0.000262495
83 *891:A *619:A 7.58194e-05
84 *892:A *603:A 0
85 *892:A *481:206 9.50664e-05
86 *894:A *481:8 2.404e-05
87 *902:A *646:A 1.4106e-05
88 *915:A *481:8 0.000122378
89 *915:A *481:14 0
90 *915:A *481:111 0
91 *53:177 *481:166 0.000133878
92 *53:203 *631:A 3.81741e-05
93 *53:215 *631:A 0.000127266
94 *53:341 *481:198 2.18589e-05
95 *56:16 *481:206 5.41227e-05
96 *126:20 *481:206 0
97 *126:51 *481:133 1.4091e-06
98 *126:132 *613:A 2.18679e-05
99 *126:132 *481:166 8.72115e-06
100 *126:132 *481:179 4.35596e-05
101 *126:132 *481:198 0.000171251
102 *126:142 *481:121 4.86994e-05
103 *126:142 *481:125 0.000114584
104 *126:142 *481:166 5.65046e-05
105 *126:186 *637:A 6.27718e-05
106 *210:10 *631:A 2.53202e-05
107 *352:33 *481:121 7.01531e-05
108 *352:35 *481:121 0.000353789
109 *353:100 *481:31 0.000148114
110 *353:106 *646:A 0.000193552
111 *353:106 *481:31 4.94624e-05
112 *356:156 *481:29 0
113 *356:163 *481:14 0
114 *356:179 *481:14 0
115 *356:179 *481:111 0
116 *356:189 *481:111 0
117 *356:433 *631:A 0
118 *356:462 *481:133 0.000108264
119 *360:12 *631:A 0.000195139
120 *361:14 *481:125 0.000113713
121 *361:14 *481:133 0
122 *367:8 *481:8 7.32658e-06
123 *371:12 *631:A 0.000130777
124 *453:10 *481:206 0.000611988
125 *454:14 *481:121 6.28634e-05
126 *454:14 *481:198 0
127 *463:22 *640:A 0.000222081
128 *463:22 *481:80 6.64392e-05
*RES
1 *915:X *481:8 11.6605 
2 *481:8 *481:10 4.5 
3 *481:10 *481:14 15.0523 
4 *481:14 *628:A 11.0817 
5 *481:14 *481:25 3.37585 
6 *481:25 *481:29 13.3913 
7 *481:29 *481:31 4.32351 
8 *481:31 *646:A 17.6896 
9 *481:31 *481:52 10.0313 
10 *481:52 *637:A 16.893 
11 *481:52 *643:A 9.24915 
12 *481:29 *481:80 5.95619 
13 *481:80 *634:A 9.24915 
14 *481:80 *640:A 22.0998 
15 *481:25 *577:A 12.0704 
16 *481:10 *481:111 2.24725 
17 *481:111 *481:121 20.8246 
18 *481:121 *481:125 4.07513 
19 *481:125 *481:133 18.6259 
20 *481:133 *597:A 12.0704 
21 *481:133 *631:A 40.0865 
22 *481:125 *600:A 9.24915 
23 *481:121 *481:166 8.20063 
24 *481:166 *613:A 14.8606 
25 *481:166 *481:179 2.45487 
26 *481:179 *619:A 16.7151 
27 *481:179 *481:198 18.7178 
28 *481:198 *481:206 25.6824 
29 *481:206 *616:A 12.2151 
30 *481:206 *603:A 9.82786 
31 *481:198 *606:A 9.24915 
32 *481:111 *625:A 24.0875 
33 *481:8 *622:A 9.24915 
*END
