*SPEF "ieee 1481-1999"
*DESIGN "gpio"
*DATE "00:08:27 Wednesday September 16, 2026"
*VENDOR "The OpenROAD Project"
*PROGRAM "OpenROAD"
*VERSION "26Q3-1305-gf552262465"
*DESIGN_FLOW "NAME_SCOPE LOCAL" "PIN_CAP NONE"
*DIVIDER /
*DELIMITER :
*BUS_DELIMITER []
*T_UNIT 1 NS
*C_UNIT 1 PF
*R_UNIT 1 OHM
*L_UNIT 1 HENRY

*NAME_MAP
*1 _000_
*2 _001_
*3 _002_
*4 _003_
*5 _004_
*6 _005_
*7 _006_
*8 _007_
*9 _008_
*10 _009_
*11 _010_
*12 _011_
*13 _012_
*14 _013_
*15 _014_
*16 _015_
*17 _016_
*18 _017_
*19 _018_
*20 _019_
*21 _020_
*22 _021_
*23 _022_
*24 _023_
*25 _024_
*26 _025_
*27 _026_
*28 _027_
*29 _028_
*30 _029_
*31 _030_
*32 _031_
*33 _032_
*34 _033_
*35 _034_
*36 _035_
*37 _036_
*38 _037_
*39 _038_
*40 _039_
*41 _040_
*42 _041_
*43 _042_
*44 _043_
*45 _044_
*46 _045_
*47 _046_
*49 _048_
*50 _049_
*51 _050_
*52 _051_
*53 _052_
*55 _054_
*56 _055_
*57 _056_
*58 _057_
*59 _058_
*60 _059_
*61 _060_
*62 _061_
*63 _062_
*64 _063_
*65 _064_
*66 _065_
*67 _066_
*68 _067_
*69 _068_
*70 _069_
*71 _070_
*72 _071_
*73 _072_
*74 _073_
*75 _074_
*76 _075_
*77 _076_
*78 _077_
*79 _078_
*81 _080_
*82 _081_
*83 _082_
*84 _083_
*85 _084_
*86 _085_
*87 _086_
*88 _087_
*89 _088_
*90 _089_
*91 _090_
*92 _091_
*94 _093_
*95 _094_
*96 _095_
*97 _096_
*98 _097_
*99 _098_
*100 _099_
*101 _100_
*102 _101_
*103 _102_
*104 _103_
*105 _104_
*106 _105_
*107 _106_
*108 _107_
*109 _108_
*110 _109_
*111 _110_
*112 _111_
*113 _112_
*114 _113_
*115 _114_
*116 _115_
*117 _116_
*118 _117_
*119 _118_
*120 _119_
*121 _120_
*122 _121_
*123 _122_
*124 _123_
*125 _124_
*126 _125_
*127 _126_
*128 _127_
*129 _128_
*130 _129_
*131 _130_
*132 _131_
*133 _132_
*134 _133_
*135 _134_
*136 _135_
*137 _136_
*138 _137_
*139 _138_
*140 _139_
*141 _140_
*142 _141_
*143 _142_
*144 _143_
*145 _144_
*146 _145_
*147 _146_
*148 _147_
*149 _148_
*150 _149_
*151 _150_
*152 _151_
*153 _152_
*154 _153_
*155 _154_
*156 _155_
*178 cio_gpio_en_o[0]
*177 cio_gpio_en_o[1]
*176 cio_gpio_en_o[2]
*175 cio_gpio_en_o[3]
*221 cio_gpio_i[0]
*220 cio_gpio_i[1]
*219 cio_gpio_i[2]
*218 cio_gpio_i[3]
*171 cio_gpio_o[0]
*378 cio_gpio_o[1]
*377 cio_gpio_o[2]
*376 cio_gpio_o[3]
*169 clk_i
*427 clknet_0_clk_i
*428 clknet_4_0_0_clk_i
*48 clknet_4_10_0_clk_i
*412 clknet_4_11_0_clk_i
*439 clknet_4_12_0_clk_i
*440 clknet_4_13_0_clk_i
*441 clknet_4_14_0_clk_i
*442 clknet_4_15_0_clk_i
*422 clknet_4_1_0_clk_i
*411 clknet_4_2_0_clk_i
*436 clknet_4_3_0_clk_i
*433 clknet_4_4_0_clk_i
*425 clknet_4_5_0_clk_i
*424 clknet_4_6_0_clk_i
*426 clknet_4_7_0_clk_i
*423 clknet_4_8_0_clk_i
*54 clknet_4_9_0_clk_i
*170 core_rst_ni
*172 hw2reg_10_
*173 hw2reg_11_
*174 hw2reg_12_
*182 hw2reg_9_
*375 intr_gpio_o[0]
*311 intr_gpio_o[1]
*310 intr_gpio_o[2]
*309 intr_gpio_o[3]
*187 net
*308 net100
*312 net101
*313 net102
*314 net103
*315 net104
*316 net105
*317 net106
*318 net107
*432 net155
*431 net156
*430 net157
*429 net158
*434 net159
*435 net160
*410 net161
*409 net162
*414 net163
*416 net164
*413 net165
*418 net166
*417 net167
*437 net168
*438 net169
*415 net170
*421 net171
*420 net172
*419 net173
*443 net174
*444 net175
*445 net176
*446 net177
*447 net178
*448 net179
*449 net180
*450 net181
*451 net182
*452 net183
*453 net184
*454 net185
*455 net186
*456 net187
*457 net188
*458 net189
*459 net190
*460 net191
*461 net192
*462 net193
*463 net194
*464 net195
*465 net196
*466 net197
*467 net198
*468 net199
*469 net200
*470 net201
*471 net202
*472 net203
*473 net204
*474 net205
*475 net206
*476 net207
*477 net208
*478 net209
*479 net210
*407 net36
*188 net37
*199 net38
*161 net40
*162 net41
*163 net42
*164 net43
*243 net44
*244 net45
*245 net46
*246 net47
*247 net48
*248 net49
*249 net50
*250 net51
*251 net52
*252 net53
*253 net54
*254 net55
*255 net56
*256 net57
*257 net58
*258 net59
*265 net60
*272 net61
*273 net62
*274 net63
*275 net64
*277 net65
*278 net66
*279 net67
*280 net68
*281 net69
*282 net70
*283 net71
*284 net72
*320 net73
*157 net74
*158 net75
*159 net76
*160 net77
*165 net78
*166 net79
*167 net80
*168 net81
*183 net82
*184 net83
*185 net84
*186 net85
*286 net86
*287 net87
*288 net88
*289 net89
*290 net90
*291 net91
*292 net92
*293 net93
*294 net94
*295 net95
*296 net96
*297 net97
*298 net98
*307 net99
*223 reg2hw_0_
*224 reg2hw_10_
*225 reg2hw_11_
*226 reg2hw_12_
*227 reg2hw_13_
*228 reg2hw_14_
*229 reg2hw_15_
*230 reg2hw_16_
*231 reg2hw_17_
*232 reg2hw_18_
*233 reg2hw_19_
*234 reg2hw_1_
*235 reg2hw_2_
*236 reg2hw_3_
*237 reg2hw_4_
*238 reg2hw_5_
*239 reg2hw_6_
*240 reg2hw_7_
*241 reg2hw_8_
*242 reg2hw_9_
*216 reg_req_i[0]
*215 reg_req_i[10]
*214 reg_req_i[11]
*213 reg_req_i[12]
*212 reg_req_i[13]
*211 reg_req_i[14]
*209 reg_req_i[15]
*208 reg_req_i[16]
*207 reg_req_i[17]
*206 reg_req_i[18]
*205 reg_req_i[19]
*204 reg_req_i[1]
*203 reg_req_i[20]
*202 reg_req_i[21]
*201 reg_req_i[22]
*200 reg_req_i[23]
*259 reg_req_i[24]
*260 reg_req_i[25]
*261 reg_req_i[26]
*262 reg_req_i[27]
*263 reg_req_i[28]
*264 reg_req_i[29]
*198 reg_req_i[2]
*266 reg_req_i[30]
*267 reg_req_i[31]
*268 reg_req_i[32]
*269 reg_req_i[33]
*270 reg_req_i[34]
*271 reg_req_i[35]
*197 reg_req_i[36]
*196 reg_req_i[37]
*195 reg_req_i[38]
*194 reg_req_i[39]
*276 reg_req_i[3]
*193 reg_req_i[40]
*192 reg_req_i[41]
*191 reg_req_i[4]
*393 reg_req_i[5]
*299 reg_req_i[6]
*222 reg_req_i[7]
*181 reg_req_i[8]
*180 reg_req_i[9]
*285 reg_rsp_o[0]
*190 reg_rsp_o[10]
*306 reg_rsp_o[11]
*305 reg_rsp_o[12]
*304 reg_rsp_o[13]
*303 reg_rsp_o[14]
*302 reg_rsp_o[15]
*301 reg_rsp_o[16]
*300 reg_rsp_o[17]
*189 reg_rsp_o[18]
*392 reg_rsp_o[19]
*391 reg_rsp_o[1]
*389 reg_rsp_o[20]
*388 reg_rsp_o[21]
*387 reg_rsp_o[22]
*386 reg_rsp_o[23]
*385 reg_rsp_o[24]
*384 reg_rsp_o[25]
*383 reg_rsp_o[26]
*382 reg_rsp_o[27]
*381 reg_rsp_o[28]
*380 reg_rsp_o[29]
*401 reg_rsp_o[2]
*400 reg_rsp_o[30]
*399 reg_rsp_o[31]
*398 reg_rsp_o[32]
*397 reg_rsp_o[33]
*396 reg_rsp_o[3]
*395 reg_rsp_o[4]
*394 reg_rsp_o[5]
*390 reg_rsp_o[6]
*210 reg_rsp_o[7]
*93 reg_rsp_o[8]
*80 reg_rsp_o[9]
*319 reg_rst_ni
*179 rst_ni
*321 u_core_reset_sync_intq
*322 u_gpio_core_data_in_q_0_
*323 u_gpio_core_data_in_q_1_
*324 u_gpio_core_data_in_q_2_
*325 u_gpio_core_data_in_q_3_
*326 u_gpio_core_filter_rst_ni
*327 u_gpio_core_gen_input_filter_0__u_filter_diff_ctr_d_0_
*328 u_gpio_core_gen_input_filter_0__u_filter_diff_ctr_d_1_
*329 u_gpio_core_gen_input_filter_0__u_filter_diff_ctr_d_2_
*330 u_gpio_core_gen_input_filter_0__u_filter_diff_ctr_d_3_
*331 u_gpio_core_gen_input_filter_0__u_filter_diff_ctr_q_0_
*332 u_gpio_core_gen_input_filter_0__u_filter_diff_ctr_q_1_
*333 u_gpio_core_gen_input_filter_0__u_filter_diff_ctr_q_2_
*334 u_gpio_core_gen_input_filter_0__u_filter_diff_ctr_q_3_
*335 u_gpio_core_gen_input_filter_0__u_filter_filter_q
*336 u_gpio_core_gen_input_filter_0__u_filter_filter_synced
*337 u_gpio_core_gen_input_filter_0__u_filter_gen_async_prim_flop_2sync_intq
*338 u_gpio_core_gen_input_filter_0__u_filter_stored_value_q
*339 u_gpio_core_gen_input_filter_1__u_filter_diff_ctr_d_0_
*340 u_gpio_core_gen_input_filter_1__u_filter_diff_ctr_d_1_
*341 u_gpio_core_gen_input_filter_1__u_filter_diff_ctr_d_2_
*342 u_gpio_core_gen_input_filter_1__u_filter_diff_ctr_d_3_
*343 u_gpio_core_gen_input_filter_1__u_filter_diff_ctr_q_0_
*344 u_gpio_core_gen_input_filter_1__u_filter_diff_ctr_q_1_
*345 u_gpio_core_gen_input_filter_1__u_filter_diff_ctr_q_2_
*346 u_gpio_core_gen_input_filter_1__u_filter_diff_ctr_q_3_
*347 u_gpio_core_gen_input_filter_1__u_filter_filter_q
*348 u_gpio_core_gen_input_filter_1__u_filter_filter_synced
*349 u_gpio_core_gen_input_filter_1__u_filter_gen_async_prim_flop_2sync_intq
*350 u_gpio_core_gen_input_filter_1__u_filter_stored_value_q
*351 u_gpio_core_gen_input_filter_2__u_filter_diff_ctr_d_0_
*352 u_gpio_core_gen_input_filter_2__u_filter_diff_ctr_d_1_
*353 u_gpio_core_gen_input_filter_2__u_filter_diff_ctr_d_2_
*354 u_gpio_core_gen_input_filter_2__u_filter_diff_ctr_d_3_
*355 u_gpio_core_gen_input_filter_2__u_filter_diff_ctr_q_0_
*356 u_gpio_core_gen_input_filter_2__u_filter_diff_ctr_q_1_
*357 u_gpio_core_gen_input_filter_2__u_filter_diff_ctr_q_2_
*358 u_gpio_core_gen_input_filter_2__u_filter_diff_ctr_q_3_
*359 u_gpio_core_gen_input_filter_2__u_filter_filter_q
*360 u_gpio_core_gen_input_filter_2__u_filter_filter_synced
*361 u_gpio_core_gen_input_filter_2__u_filter_gen_async_prim_flop_2sync_intq
*362 u_gpio_core_gen_input_filter_2__u_filter_stored_value_q
*363 u_gpio_core_gen_input_filter_3__u_filter_diff_ctr_d_0_
*364 u_gpio_core_gen_input_filter_3__u_filter_diff_ctr_d_1_
*365 u_gpio_core_gen_input_filter_3__u_filter_diff_ctr_d_2_
*366 u_gpio_core_gen_input_filter_3__u_filter_diff_ctr_d_3_
*367 u_gpio_core_gen_input_filter_3__u_filter_diff_ctr_q_0_
*368 u_gpio_core_gen_input_filter_3__u_filter_diff_ctr_q_1_
*369 u_gpio_core_gen_input_filter_3__u_filter_diff_ctr_q_2_
*370 u_gpio_core_gen_input_filter_3__u_filter_diff_ctr_q_3_
*371 u_gpio_core_gen_input_filter_3__u_filter_filter_q
*372 u_gpio_core_gen_input_filter_3__u_filter_filter_synced
*373 u_gpio_core_gen_input_filter_3__u_filter_gen_async_prim_flop_2sync_intq
*374 u_gpio_core_gen_input_filter_3__u_filter_stored_value_q
*379 u_gpio_core_state_rst_ni
*402 u_gpio_reg_u_reg_core_data_in_qs_0_
*403 u_gpio_reg_u_reg_core_data_in_qs_1_
*404 u_gpio_reg_u_reg_core_data_in_qs_2_
*405 u_gpio_reg_u_reg_core_data_in_qs_3_
*406 u_reg_reset_sync_intq
*915 FILLER_0_0
*928 FILLER_0_125
*929 FILLER_0_132
*930 FILLER_0_139
*917 FILLER_0_14
*931 FILLER_0_146
*932 FILLER_0_153
*933 FILLER_0_160
*934 FILLER_0_167
*935 FILLER_0_195
*936 FILLER_0_202
*937 FILLER_0_209
*918 FILLER_0_21
*938 FILLER_0_216
*939 FILLER_0_223
*940 FILLER_0_230
*919 FILLER_0_28
*920 FILLER_0_35
*921 FILLER_0_42
*922 FILLER_0_46
*923 FILLER_0_57
*924 FILLER_0_64
*916 FILLER_0_7
*925 FILLER_0_71
*926 FILLER_0_78
*927 FILLER_0_91
*1148 FILLER_10_0
*1156 FILLER_10_101
*1157 FILLER_10_108
*1158 FILLER_10_115
*1159 FILLER_10_128
*1160 FILLER_10_130
*1161 FILLER_10_139
*1150 FILLER_10_14
*1162 FILLER_10_154
*1163 FILLER_10_161
*1164 FILLER_10_198
*1165 FILLER_10_200
*1166 FILLER_10_206
*1167 FILLER_10_213
*1168 FILLER_10_215
*1169 FILLER_10_220
*1170 FILLER_10_224
*1151 FILLER_10_48
*1152 FILLER_10_55
*1153 FILLER_10_60
*1154 FILLER_10_65
*1155 FILLER_10_69
*1149 FILLER_10_7
*1171 FILLER_11_0
*1179 FILLER_11_102
*1180 FILLER_11_109
*1181 FILLER_11_111
*1173 FILLER_11_14
*1182 FILLER_11_156
*1183 FILLER_11_158
*1184 FILLER_11_174
*1185 FILLER_11_181
*1186 FILLER_11_185
*1187 FILLER_11_192
*1188 FILLER_11_207
*1174 FILLER_11_21
*1189 FILLER_11_214
*1190 FILLER_11_221
*1175 FILLER_11_50
*1176 FILLER_11_58
*1177 FILLER_11_62
*1172 FILLER_11_7
*1178 FILLER_11_95
*1191 FILLER_12_0
*1202 FILLER_12_106
*1203 FILLER_12_112
*1204 FILLER_12_123
*1205 FILLER_12_127
*1206 FILLER_12_134
*1207 FILLER_12_138
*1193 FILLER_12_14
*1208 FILLER_12_152
*1209 FILLER_12_156
*1210 FILLER_12_162
*1211 FILLER_12_169
*1212 FILLER_12_196
*1213 FILLER_12_203
*1214 FILLER_12_216
*1215 FILLER_12_223
*1194 FILLER_12_47
*1195 FILLER_12_49
*1196 FILLER_12_63
*1192 FILLER_12_7
*1197 FILLER_12_74
*1198 FILLER_12_81
*1199 FILLER_12_88
*1200 FILLER_12_92
*1201 FILLER_12_99
*1217 FILLER_13_11
*1228 FILLER_13_129
*1229 FILLER_13_136
*1230 FILLER_13_140
*1218 FILLER_13_16
*1231 FILLER_13_173
*1232 FILLER_13_175
*1219 FILLER_13_18
*1233 FILLER_13_221
*1234 FILLER_13_225
*1220 FILLER_13_23
*1221 FILLER_13_30
*1222 FILLER_13_37
*1223 FILLER_13_44
*1224 FILLER_13_72
*1225 FILLER_13_79
*1226 FILLER_13_86
*1227 FILLER_13_88
*1216 FILLER_13_9
*1239 FILLER_14_109
*1240 FILLER_14_120
*1241 FILLER_14_129
*1236 FILLER_14_14
*1242 FILLER_14_141
*1243 FILLER_14_143
*1244 FILLER_14_174
*1245 FILLER_14_181
*1246 FILLER_14_188
*1247 FILLER_14_195
*1248 FILLER_14_202
*1237 FILLER_14_73
*1238 FILLER_14_80
*1235 FILLER_14_9
*1249 FILLER_15_0
*1259 FILLER_15_104
*1260 FILLER_15_111
*1261 FILLER_15_118
*1262 FILLER_15_125
*1263 FILLER_15_132
*1251 FILLER_15_14
*1264 FILLER_15_170
*1265 FILLER_15_177
*1266 FILLER_15_188
*1252 FILLER_15_21
*1267 FILLER_15_219
*1253 FILLER_15_28
*1254 FILLER_15_35
*1250 FILLER_15_4
*1255 FILLER_15_42
*1256 FILLER_15_82
*1257 FILLER_15_89
*1258 FILLER_15_93
*1268 FILLER_16_13
*1282 FILLER_16_131
*1283 FILLER_16_138
*1284 FILLER_16_151
*1285 FILLER_16_195
*1269 FILLER_16_20
*1286 FILLER_16_202
*1270 FILLER_16_27
*1271 FILLER_16_34
*1272 FILLER_16_36
*1273 FILLER_16_41
*1274 FILLER_16_45
*1275 FILLER_16_51
*1276 FILLER_16_58
*1277 FILLER_16_65
*1278 FILLER_16_67
*1279 FILLER_16_79
*1280 FILLER_16_90
*1281 FILLER_16_95
*1299 FILLER_17_105
*1300 FILLER_17_112
*1301 FILLER_17_119
*1302 FILLER_17_126
*1303 FILLER_17_133
*1304 FILLER_17_137
*1305 FILLER_17_152
*1288 FILLER_17_16
*1306 FILLER_17_166
*1307 FILLER_17_183
*1289 FILLER_17_20
*1308 FILLER_17_215
*1309 FILLER_17_219
*1310 FILLER_17_224
*1290 FILLER_17_25
*1291 FILLER_17_32
*1292 FILLER_17_39
*1293 FILLER_17_53
*1294 FILLER_17_60
*1295 FILLER_17_67
*1296 FILLER_17_76
*1287 FILLER_17_9
*1297 FILLER_17_91
*1298 FILLER_17_98
*1311 FILLER_18_0
*1323 FILLER_18_108
*1324 FILLER_18_113
*1325 FILLER_18_120
*1313 FILLER_18_14
*1326 FILLER_18_154
*1327 FILLER_18_156
*1328 FILLER_18_199
*1329 FILLER_18_204
*1330 FILLER_18_208
*1314 FILLER_18_21
*1331 FILLER_18_218
*1332 FILLER_18_220
*1333 FILLER_18_229
*1315 FILLER_18_28
*1316 FILLER_18_35
*1317 FILLER_18_42
*1312 FILLER_18_7
*1318 FILLER_18_71
*1319 FILLER_18_75
*1320 FILLER_18_82
*1321 FILLER_18_89
*1322 FILLER_18_93
*1334 FILLER_19_0
*1341 FILLER_19_107
*1342 FILLER_19_116
*1343 FILLER_19_118
*1344 FILLER_19_129
*1345 FILLER_19_136
*1336 FILLER_19_14
*1346 FILLER_19_175
*1347 FILLER_19_195
*1337 FILLER_19_21
*1348 FILLER_19_224
*1338 FILLER_19_28
*1339 FILLER_19_35
*1340 FILLER_19_42
*1335 FILLER_19_7
*941 FILLER_1_0
*957 FILLER_1_103
*958 FILLER_1_105
*959 FILLER_1_118
*960 FILLER_1_124
*961 FILLER_1_126
*943 FILLER_1_14
*962 FILLER_1_162
*963 FILLER_1_171
*964 FILLER_1_177
*965 FILLER_1_184
*966 FILLER_1_191
*967 FILLER_1_198
*968 FILLER_1_205
*944 FILLER_1_21
*969 FILLER_1_212
*970 FILLER_1_219
*971 FILLER_1_226
*972 FILLER_1_233
*945 FILLER_1_28
*946 FILLER_1_35
*947 FILLER_1_42
*948 FILLER_1_44
*949 FILLER_1_49
*950 FILLER_1_56
*951 FILLER_1_63
*942 FILLER_1_7
*952 FILLER_1_70
*953 FILLER_1_77
*954 FILLER_1_81
*955 FILLER_1_86
*956 FILLER_1_91
*1349 FILLER_20_0
*1363 FILLER_20_112
*1364 FILLER_20_123
*1365 FILLER_20_130
*1351 FILLER_20_14
*1366 FILLER_20_145
*1367 FILLER_20_152
*1368 FILLER_20_183
*1369 FILLER_20_191
*1370 FILLER_20_205
*1352 FILLER_20_21
*1371 FILLER_20_223
*1353 FILLER_20_28
*1354 FILLER_20_35
*1355 FILLER_20_42
*1356 FILLER_20_49
*1357 FILLER_20_54
*1358 FILLER_20_61
*1359 FILLER_20_68
*1350 FILLER_20_7
*1360 FILLER_20_70
*1361 FILLER_20_79
*1362 FILLER_20_83
*1372 FILLER_21_0
*1376 FILLER_21_103
*1377 FILLER_21_110
*1378 FILLER_21_139
*1379 FILLER_21_146
*1380 FILLER_21_153
*1381 FILLER_21_160
*1382 FILLER_21_162
*1383 FILLER_21_199
*1384 FILLER_21_222
*1385 FILLER_21_228
*1373 FILLER_21_61
*1374 FILLER_21_68
*1375 FILLER_21_75
*1386 FILLER_22_0
*1387 FILLER_22_12
*1393 FILLER_22_129
*1394 FILLER_22_136
*1395 FILLER_22_156
*1396 FILLER_22_158
*1397 FILLER_22_169
*1398 FILLER_22_176
*1399 FILLER_22_180
*1400 FILLER_22_185
*1401 FILLER_22_187
*1402 FILLER_22_192
*1403 FILLER_22_199
*1404 FILLER_22_206
*1405 FILLER_22_217
*1388 FILLER_22_40
*1389 FILLER_22_68
*1390 FILLER_22_79
*1391 FILLER_22_91
*1392 FILLER_22_98
*1407 FILLER_23_11
*1415 FILLER_23_161
*1416 FILLER_23_168
*1417 FILLER_23_190
*1408 FILLER_23_21
*1418 FILLER_23_221
*1409 FILLER_23_28
*1410 FILLER_23_35
*1411 FILLER_23_42
*1412 FILLER_23_49
*1413 FILLER_23_83
*1406 FILLER_23_9
*1414 FILLER_23_90
*1419 FILLER_24_0
*1429 FILLER_24_102
*1430 FILLER_24_109
*1431 FILLER_24_116
*1432 FILLER_24_120
*1433 FILLER_24_149
*1434 FILLER_24_153
*1420 FILLER_24_16
*1435 FILLER_24_164
*1436 FILLER_24_171
*1437 FILLER_24_178
*1438 FILLER_24_182
*1439 FILLER_24_188
*1440 FILLER_24_195
*1421 FILLER_24_23
*1422 FILLER_24_30
*1423 FILLER_24_37
*1424 FILLER_24_44
*1425 FILLER_24_69
*1426 FILLER_24_92
*1427 FILLER_24_94
*1428 FILLER_24_98
*1446 FILLER_25_104
*1447 FILLER_25_109
*1448 FILLER_25_115
*1449 FILLER_25_122
*1450 FILLER_25_126
*1451 FILLER_25_132
*1452 FILLER_25_139
*1453 FILLER_25_143
*1442 FILLER_25_16
*1454 FILLER_25_163
*1455 FILLER_25_167
*1456 FILLER_25_173
*1457 FILLER_25_178
*1458 FILLER_25_183
*1459 FILLER_25_194
*1443 FILLER_25_20
*1460 FILLER_25_201
*1461 FILLER_25_208
*1462 FILLER_25_215
*1463 FILLER_25_222
*1464 FILLER_25_229
*1465 FILLER_25_233
*1444 FILLER_25_49
*1441 FILLER_25_9
*1445 FILLER_25_98
*1466 FILLER_26_0
*1480 FILLER_26_106
*1481 FILLER_26_110
*1482 FILLER_26_126
*1483 FILLER_26_136
*1468 FILLER_26_14
*1484 FILLER_26_143
*1485 FILLER_26_147
*1486 FILLER_26_178
*1487 FILLER_26_192
*1488 FILLER_26_199
*1489 FILLER_26_206
*1469 FILLER_26_21
*1490 FILLER_26_213
*1491 FILLER_26_220
*1492 FILLER_26_227
*1470 FILLER_26_28
*1471 FILLER_26_35
*1472 FILLER_26_42
*1473 FILLER_26_49
*1474 FILLER_26_51
*1475 FILLER_26_61
*1476 FILLER_26_67
*1467 FILLER_26_7
*1477 FILLER_26_76
*1478 FILLER_26_83
*1479 FILLER_26_87
*1493 FILLER_27_0
*1499 FILLER_27_106
*1500 FILLER_27_110
*1501 FILLER_27_124
*1502 FILLER_27_126
*1503 FILLER_27_136
*1495 FILLER_27_14
*1504 FILLER_27_168
*1505 FILLER_27_191
*1506 FILLER_27_198
*1507 FILLER_27_205
*1508 FILLER_27_212
*1509 FILLER_27_219
*1510 FILLER_27_226
*1511 FILLER_27_233
*1496 FILLER_27_54
*1494 FILLER_27_7
*1497 FILLER_27_83
*1498 FILLER_27_87
*1512 FILLER_28_0
*1526 FILLER_28_112
*1527 FILLER_28_116
*1528 FILLER_28_126
*1529 FILLER_28_137
*1514 FILLER_28_14
*1530 FILLER_28_144
*1531 FILLER_28_150
*1532 FILLER_28_157
*1533 FILLER_28_172
*1534 FILLER_28_179
*1535 FILLER_28_194
*1536 FILLER_28_201
*1537 FILLER_28_208
*1515 FILLER_28_21
*1538 FILLER_28_215
*1539 FILLER_28_222
*1540 FILLER_28_229
*1541 FILLER_28_233
*1516 FILLER_28_28
*1517 FILLER_28_35
*1518 FILLER_28_42
*1519 FILLER_28_49
*1520 FILLER_28_53
*1521 FILLER_28_60
*1522 FILLER_28_69
*1513 FILLER_28_7
*1523 FILLER_28_78
*1524 FILLER_28_85
*1525 FILLER_28_89
*973 FILLER_2_0
*987 FILLER_2_100
*988 FILLER_2_114
*989 FILLER_2_131
*990 FILLER_2_138
*975 FILLER_2_14
*991 FILLER_2_148
*992 FILLER_2_150
*993 FILLER_2_161
*994 FILLER_2_170
*995 FILLER_2_194
*996 FILLER_2_201
*997 FILLER_2_208
*976 FILLER_2_21
*998 FILLER_2_215
*999 FILLER_2_219
*1000 FILLER_2_225
*1001 FILLER_2_232
*977 FILLER_2_28
*978 FILLER_2_35
*979 FILLER_2_42
*980 FILLER_2_55
*981 FILLER_2_69
*974 FILLER_2_7
*982 FILLER_2_76
*983 FILLER_2_83
*984 FILLER_2_87
*985 FILLER_2_93
*986 FILLER_2_98
*1002 FILLER_3_0
*1011 FILLER_3_111
*1012 FILLER_3_118
*1013 FILLER_3_125
*1014 FILLER_3_129
*1004 FILLER_3_14
*1015 FILLER_3_167
*1016 FILLER_3_169
*1017 FILLER_3_179
*1018 FILLER_3_181
*1005 FILLER_3_21
*1019 FILLER_3_219
*1020 FILLER_3_226
*1006 FILLER_3_28
*1007 FILLER_3_35
*1008 FILLER_3_42
*1009 FILLER_3_44
*1003 FILLER_3_7
*1010 FILLER_3_72
*1021 FILLER_4_0
*1030 FILLER_4_136
*1023 FILLER_4_14
*1031 FILLER_4_167
*1032 FILLER_4_171
*1033 FILLER_4_181
*1034 FILLER_4_185
*1035 FILLER_4_191
*1024 FILLER_4_21
*1036 FILLER_4_219
*1037 FILLER_4_227
*1038 FILLER_4_229
*1025 FILLER_4_28
*1026 FILLER_4_35
*1027 FILLER_4_39
*1028 FILLER_4_67
*1022 FILLER_4_7
*1029 FILLER_4_95
*1039 FILLER_5_0
*1049 FILLER_5_106
*1050 FILLER_5_113
*1051 FILLER_5_120
*1052 FILLER_5_127
*1053 FILLER_5_134
*1054 FILLER_5_138
*1041 FILLER_5_14
*1055 FILLER_5_153
*1056 FILLER_5_160
*1057 FILLER_5_167
*1058 FILLER_5_174
*1059 FILLER_5_183
*1060 FILLER_5_187
*1061 FILLER_5_193
*1062 FILLER_5_200
*1063 FILLER_5_207
*1042 FILLER_5_21
*1064 FILLER_5_214
*1065 FILLER_5_221
*1066 FILLER_5_225
*1043 FILLER_5_28
*1044 FILLER_5_35
*1045 FILLER_5_42
*1046 FILLER_5_49
*1047 FILLER_5_64
*1048 FILLER_5_68
*1040 FILLER_5_7
*1067 FILLER_6_0
*1078 FILLER_6_118
*1079 FILLER_6_127
*1080 FILLER_6_139
*1069 FILLER_6_14
*1081 FILLER_6_146
*1082 FILLER_6_153
*1083 FILLER_6_160
*1084 FILLER_6_164
*1085 FILLER_6_178
*1086 FILLER_6_185
*1087 FILLER_6_199
*1088 FILLER_6_206
*1070 FILLER_6_21
*1089 FILLER_6_210
*1090 FILLER_6_216
*1091 FILLER_6_220
*1092 FILLER_6_225
*1071 FILLER_6_28
*1072 FILLER_6_35
*1073 FILLER_6_42
*1074 FILLER_6_49
*1075 FILLER_6_57
*1076 FILLER_6_61
*1068 FILLER_6_7
*1077 FILLER_6_89
*1093 FILLER_7_0
*1103 FILLER_7_104
*1104 FILLER_7_111
*1105 FILLER_7_121
*1106 FILLER_7_150
*1107 FILLER_7_157
*1108 FILLER_7_161
*1109 FILLER_7_190
*1110 FILLER_7_197
*1111 FILLER_7_204
*1112 FILLER_7_211
*1113 FILLER_7_218
*1114 FILLER_7_220
*1115 FILLER_7_229
*1095 FILLER_7_41
*1096 FILLER_7_48
*1097 FILLER_7_55
*1098 FILLER_7_61
*1099 FILLER_7_68
*1094 FILLER_7_7
*1100 FILLER_7_75
*1101 FILLER_7_85
*1102 FILLER_7_89
*1116 FILLER_8_0
*1124 FILLER_8_133
*1125 FILLER_8_140
*1126 FILLER_8_144
*1127 FILLER_8_182
*1128 FILLER_8_186
*1129 FILLER_8_229
*1119 FILLER_8_62
*1120 FILLER_8_69
*1117 FILLER_8_7
*1121 FILLER_8_75
*1122 FILLER_8_82
*1123 FILLER_8_86
*1118 FILLER_8_9
*1140 FILLER_9_104
*1141 FILLER_9_108
*1142 FILLER_9_150
*1143 FILLER_9_157
*1131 FILLER_9_16
*1144 FILLER_9_172
*1145 FILLER_9_204
*1146 FILLER_9_211
*1147 FILLER_9_222
*1132 FILLER_9_23
*1133 FILLER_9_30
*1134 FILLER_9_37
*1135 FILLER_9_39
*1136 FILLER_9_48
*1137 FILLER_9_54
*1138 FILLER_9_66
*1139 FILLER_9_72
*1130 FILLER_9_9
*480 _157_
*481 _158_
*482 _159_
*483 _160_
*484 _161_
*485 _162_
*486 _163_
*487 _164_
*488 _165_
*489 _166_
*490 _167_
*491 _168_
*492 _169_
*493 _170_
*494 _171_
*495 _172_
*496 _173_
*497 _174_
*498 _175_
*499 _176_
*500 _177_
*502 _179_
*503 _180_
*504 _181_
*505 _182_
*506 _183_
*508 _185_
*509 _186_
*510 _187_
*511 _188_
*512 _189_
*513 _190_
*514 _191_
*515 _192_
*516 _193_
*517 _194_
*518 _195_
*519 _196_
*520 _197_
*521 _198_
*522 _199_
*523 _200_
*524 _201_
*525 _202_
*526 _203_
*527 _204_
*528 _205_
*529 _206_
*530 _207_
*531 _208_
*532 _209_
*533 _210_
*534 _211_
*535 _212_
*536 _213_
*537 _214_
*538 _215_
*539 _216_
*540 _217_
*541 _218_
*542 _219_
*543 _220_
*544 _221_
*545 _222_
*546 _223_
*547 _224_
*548 _225_
*549 _226_
*550 _227_
*551 _228_
*553 _230_
*554 _231_
*555 _232_
*556 _233_
*557 _234_
*558 _235_
*559 _236_
*560 _237_
*561 _238_
*562 _239_
*563 _240_
*564 _241_
*565 _242_
*566 _243_
*567 _244_
*568 _245_
*569 _246_
*570 _247_
*571 _248_
*572 _249_
*573 _250_
*574 _251_
*575 _252_
*576 _253_
*577 _254_
*578 _255_
*579 _256_
*581 _258_
*582 _259_
*583 _260_
*584 _261_
*585 _262_
*586 _263_
*587 _264_
*588 _265_
*589 _266_
*590 _267_
*591 _268_
*592 _269_
*593 _270_
*594 _271_
*595 _272_
*596 _273_
*597 _274_
*598 _275_
*599 _276_
*600 _277_
*601 _278_
*602 _279_
*603 _280_
*604 _281_
*605 _282_
*606 _283_
*607 _284_
*608 _285_
*609 _286_
*610 _287_
*611 _288_
*612 _289_
*613 _290_
*614 _291_
*615 _292_
*616 _293_
*617 _294_
*618 _295_
*619 _296_
*620 _297_
*621 _298_
*622 _299_
*623 _300_
*624 _301_
*625 _302_
*626 _303_
*627 _304_
*628 _305_
*629 _306_
*630 _307_
*631 _308_
*632 _309_
*633 _310_
*634 _311_
*635 _312_
*636 _313_
*637 _314_
*638 _315_
*639 _316_
*640 _317_
*641 _318_
*642 _319_
*643 _320_
*644 _321_
*645 _322_
*646 _323_
*647 _324_
*648 _325_
*649 _326_
*650 _327_
*651 _328_
*652 _329_
*653 _330_
*654 _331_
*655 _332_
*656 _333_
*657 _334_
*658 _335_
*659 _336_
*660 _337_
*661 _338_
*662 _339_
*663 _340_
*664 _341_
*665 _342_
*666 _343_
*667 _344_
*668 _345_
*669 _346_
*670 _347_
*671 _348_
*672 _349_
*673 _350_
*674 _351_
*675 _352_
*676 _353_
*677 _354_
*678 _355_
*679 _356_
*680 _357_
*681 _358_
*682 _359_
*683 _360_
*684 _361_
*685 _362_
*686 _363_
*687 _364_
*688 _365_
*689 _366_
*690 _367_
*691 _368_
*692 _369_
*693 _370_
*694 _371_
*695 _372_
*696 _373_
*697 _374_
*698 _375_
*699 _376_
*700 _377_
*701 _378_
*702 _379_
*703 _380_
*704 _381_
*705 _382_
*706 _383_
*707 _384_
*708 _385_
*709 _386_
*710 _387_
*711 _388_
*712 _389_
*713 _390_
*714 _391_
*715 _392_
*838 _392__2
*717 _393_
*718 _394_
*719 _395_
*720 _396_
*721 _397_
*716 _397__3
*723 _398_
*722 _398__4
*725 _399_
*726 _400_
*727 _401_
*728 _402_
*729 _403_
*730 _404_
*731 _405_
*732 _406_
*733 _407_
*734 _408_
*735 _409_
*736 _410_
*737 _411_
*738 _412_
*739 _413_
*740 _414_
*741 _415_
*742 _416_
*743 _417_
*744 _418_
*745 _419_
*746 _420_
*747 _421_
*748 _422_
*749 _423_
*750 _424_
*751 _425_
*752 _426_
*753 _427_
*754 _428_
*755 _429_
*756 _430_
*757 _431_
*758 _432_
*724 _432__5
*759 _434__6
*856 clkbuf_0_clk_i
*857 clkbuf_4_0_0_clk_i
*501 clkbuf_4_10_0_clk_i
*841 clkbuf_4_11_0_clk_i
*868 clkbuf_4_12_0_clk_i
*869 clkbuf_4_13_0_clk_i
*870 clkbuf_4_14_0_clk_i
*871 clkbuf_4_15_0_clk_i
*851 clkbuf_4_1_0_clk_i
*840 clkbuf_4_2_0_clk_i
*865 clkbuf_4_3_0_clk_i
*862 clkbuf_4_4_0_clk_i
*854 clkbuf_4_5_0_clk_i
*853 clkbuf_4_6_0_clk_i
*855 clkbuf_4_7_0_clk_i
*852 clkbuf_4_8_0_clk_i
*507 clkbuf_4_9_0_clk_i
*872 clkload0
*873 clkload1
*874 clkload2
*875 clkload3
*876 clkload4
*877 clkload5
*878 hold152
*879 hold153
*880 hold154
*881 hold155
*882 hold156
*883 hold157
*884 hold158
*885 hold159
*886 hold160
*887 hold161
*888 hold162
*889 hold163
*890 hold164
*891 hold165
*892 hold166
*893 hold167
*894 hold168
*895 hold169
*896 hold170
*897 hold171
*898 hold172
*899 hold173
*900 hold174
*901 hold175
*902 hold176
*903 hold177
*904 hold178
*905 hold179
*906 hold180
*907 hold181
*908 hold182
*909 hold183
*910 hold184
*911 hold185
*912 hold186
*913 hold187
*914 hold188
*834 input10
*833 input11
*832 input12
*831 input13
*830 input14
*829 input15
*828 input16
*827 input17
*826 input18
*825 input19
*824 input20
*823 input21
*822 input22
*821 input23
*820 input24
*819 input25
*818 input26
*817 input27
*816 input28
*815 input29
*814 input30
*813 input31
*812 input32
*811 input33
*810 input34
*809 input35
*808 input36
*807 input37
*806 input38
*805 input39
*804 input40
*837 input7
*836 input8
*835 input9
*803 output41
*802 output42
*801 output43
*800 output44
*799 output45
*798 output46
*797 output47
*796 output48
*795 output49
*794 output50
*793 output51
*792 output52
*791 output53
*790 output54
*789 output55
*788 output56
*787 output57
*786 output58
*785 output59
*784 output60
*783 output61
*782 output62
*781 output63
*780 output64
*779 output65
*778 output66
*777 output67
*776 output68
*775 output69
*774 output70
*773 output71
*772 output72
*771 output73
*770 output74
*769 output75
*768 output76
*767 output77
*766 output78
*765 output79
*764 output80
*763 output81
*762 output82
*760 output83
*580 output84
*552 output85
*861 place133
*860 place134
*859 place135
*858 place136
*863 place137
*864 place138
*839 place139
*761 place140
*843 place141
*845 place142
*842 place143
*847 place144
*846 place145
*866 place146
*867 place147
*844 place148
*850 place149
*849 place150
*848 place151

*PORTS
cio_gpio_en_o[0] O
cio_gpio_en_o[1] O
cio_gpio_en_o[2] O
cio_gpio_en_o[3] O
cio_gpio_i[0] I
cio_gpio_i[1] I
cio_gpio_i[2] I
cio_gpio_i[3] I
cio_gpio_o[0] O
cio_gpio_o[1] O
cio_gpio_o[2] O
cio_gpio_o[3] O
clk_i I
intr_gpio_o[0] O
intr_gpio_o[1] O
intr_gpio_o[2] O
intr_gpio_o[3] O
reg_req_i[0] I
reg_req_i[10] I
reg_req_i[11] I
reg_req_i[12] I
reg_req_i[13] I
reg_req_i[14] I
reg_req_i[15] I
reg_req_i[16] I
reg_req_i[17] I
reg_req_i[18] I
reg_req_i[19] I
reg_req_i[1] I
reg_req_i[20] I
reg_req_i[21] I
reg_req_i[22] I
reg_req_i[23] I
reg_req_i[24] I
reg_req_i[25] I
reg_req_i[26] I
reg_req_i[27] I
reg_req_i[28] I
reg_req_i[29] I
reg_req_i[2] I
reg_req_i[30] I
reg_req_i[31] I
reg_req_i[32] I
reg_req_i[33] I
reg_req_i[34] I
reg_req_i[35] I
reg_req_i[36] I
reg_req_i[37] I
reg_req_i[38] I
reg_req_i[39] I
reg_req_i[3] I
reg_req_i[40] I
reg_req_i[41] I
reg_req_i[4] I
reg_req_i[5] I
reg_req_i[6] I
reg_req_i[7] I
reg_req_i[8] I
reg_req_i[9] I
reg_rsp_o[0] O
reg_rsp_o[10] O
reg_rsp_o[11] O
reg_rsp_o[12] O
reg_rsp_o[13] O
reg_rsp_o[14] O
reg_rsp_o[15] O
reg_rsp_o[16] O
reg_rsp_o[17] O
reg_rsp_o[18] O
reg_rsp_o[19] O
reg_rsp_o[1] O
reg_rsp_o[20] O
reg_rsp_o[21] O
reg_rsp_o[22] O
reg_rsp_o[23] O
reg_rsp_o[24] O
reg_rsp_o[25] O
reg_rsp_o[26] O
reg_rsp_o[27] O
reg_rsp_o[28] O
reg_rsp_o[29] O
reg_rsp_o[2] O
reg_rsp_o[30] O
reg_rsp_o[31] O
reg_rsp_o[32] O
reg_rsp_o[33] O
reg_rsp_o[3] O
reg_rsp_o[4] O
reg_rsp_o[5] O
reg_rsp_o[6] O
reg_rsp_o[7] O
reg_rsp_o[8] O
reg_rsp_o[9] O
rst_ni I

*D_NET *1 0.00222504
*CONN
*I *712:D I *D sg13g2_dfrbpq_1
*I *553:X O *D sg13g2_mux2_1
*CAP
1 *712:D 0
2 *553:X 0.000637656
3 *1:10 0.000637656
4 *1:10 *553:A0 0
5 *1:10 *574:S 0
6 *1:10 *584:A0 0
7 *1:10 *712:CLK 0.000106566
8 *1:10 *755:CLK 0.000128662
9 *1:10 *67:54 0
10 *1:10 *79:14 0
11 *1:10 *79:16 0
12 *1:10 *281:6 0
13 *1:10 *281:19 0
14 *1:10 *404:8 0
15 *1:10 *415:110 0.000234726
16 *1:10 *427:294 0
17 *1:10 *439:40 0.000479778
*RES
1 *553:X *1:10 46.908 
2 *1:10 *712:D 40 
*END

*D_NET *2 0.000912848
*CONN
*I *711:D I *D sg13g2_dfrbpq_1
*I *554:X O *D sg13g2_mux2_1
*CAP
1 *711:D 0.000150409
2 *554:X 0.000184959
3 *2:8 0.000335369
4 *711:D *419:46 0
5 *711:D *431:14 0.00024211
6 *2:8 *234:16 0
7 *2:8 *234:28 0
8 *2:8 *280:18 0
9 *2:8 *425:33 0
*RES
1 *554:X *2:8 41.5664 
2 *2:8 *711:D 41.3816 
*END

*D_NET *3 0.000628954
*CONN
*I *710:D I *D sg13g2_dfrbpq_1
*I *555:X O *D sg13g2_mux2_1
*CAP
1 *710:D 0
2 *555:X 0.000306777
3 *3:10 0.000306777
4 *3:10 *526:B1 0
5 *3:10 *710:RESET_B 1.54008e-05
6 *3:10 *710:CLK 0
7 *3:10 *286:10 0
8 *3:10 *427:234 0
*RES
1 *555:X *3:10 42.5256 
2 *3:10 *710:D 40 
*END

*D_NET *4 0.0030931
*CONN
*I *708:D I *D sg13g2_dfrbpq_1
*I *557:Y O *D sg13g2_o21ai_1
*CAP
1 *708:D 0.00111439
2 *557:Y 0.00111439
3 *708:D reg_rsp_o[16] 0
4 *708:D *557:B1 1.54008e-05
5 *708:D *557:A2 0.000143888
6 *708:D *645:A1 8.02269e-05
7 *708:D *670:B1 0
8 *708:D *673:B 0
9 *708:D *823:A 0
10 *708:D *29:10 0.000561666
11 *708:D *35:14 0
12 *708:D *35:27 0
13 *708:D *174:12 4.77425e-05
14 *708:D *374:12 1.54008e-05
15 *708:D *421:57 0
16 *708:D *430:38 0
17 *708:D *457:10 0
*RES
1 *557:Y *708:D 49.9968 
*END

*D_NET *5 9.45957e-05
*CONN
*I *707:D I *D sg13g2_dfrbpq_1
*I *559:Y O *D sg13g2_o21ai_1
*CAP
1 *707:D 4.72978e-05
2 *559:Y 4.72978e-05
*RES
1 *559:Y *707:D 40.5104 
*END

*D_NET *6 9.45957e-05
*CONN
*I *906:A I *D sg13g2_dlygate4sd3_1
*I *561:Y O *D sg13g2_o21ai_1
*CAP
1 *906:A 4.72978e-05
2 *561:Y 4.72978e-05
3 *906:A *561:B1 0
*RES
1 *561:Y *906:A 40.5104 
*END

*D_NET *7 0.00126772
*CONN
*I *704:D I *D sg13g2_dfrbpq_1
*I *563:Y O *D sg13g2_o21ai_1
*CAP
1 *704:D 0.000377399
2 *563:Y 0.000377399
3 *704:D *563:B1 0
4 *704:D *563:A1 0.000208069
5 *704:D *839:A 0.000304858
6 *704:D *413:77 0
7 *704:D *413:83 0
8 *704:D *421:31 0
*RES
1 *563:Y *704:D 43.5552 
*END

*D_NET *8 0.00057664
*CONN
*I *703:D I *D sg13g2_dfrbpq_1
*I *565:Y O *D sg13g2_o21ai_1
*CAP
1 *703:D 0.00028062
2 *565:Y 0.00028062
3 *703:D *565:B1 1.54008e-05
4 *703:D *169:20 0
5 *703:D *420:63 0
*RES
1 *565:Y *703:D 42.4464 
*END

*D_NET *9 0.000536246
*CONN
*I *901:A I *D sg13g2_dlygate4sd3_1
*I *567:Y O *D sg13g2_o21ai_1
*CAP
1 *901:A 0.000155538
2 *567:Y 0.000155538
3 *901:A *567:B1 1.54556e-05
4 *901:A *79:28 0.000209713
*RES
1 *567:Y *901:A 41.496 
*END

*D_NET *10 0.000379052
*CONN
*I *700:D I *D sg13g2_dfrbpq_1
*I *569:Y O *D sg13g2_o21ai_1
*CAP
1 *700:D 0.000189526
2 *569:Y 0.000189526
3 *700:D *569:A1 0
4 *700:D *96:10 0
*RES
1 *569:Y *700:D 41.6104 
*END

*D_NET *11 0.000944025
*CONN
*I *699:D I *D sg13g2_dfrbpq_1
*I *571:Y O *D sg13g2_o21ai_1
*CAP
1 *699:D 0
2 *571:Y 0.000456611
3 *11:10 0.000456611
4 *11:10 *571:B1 1.54008e-05
5 *11:10 *886:A 0
6 *11:10 *422:29 1.54008e-05
*RES
1 *571:Y *11:10 44.5584 
2 *11:10 *699:D 40 
*END

*D_NET *12 0.000400626
*CONN
*I *698:D I *D sg13g2_dfrbpq_1
*I *573:Y O *D sg13g2_o21ai_1
*CAP
1 *698:D 0.000112327
2 *573:Y 0.000112327
3 *698:D *480:S 0
4 *698:D *61:8 0
5 *698:D *410:37 0.000175971
*RES
1 *573:Y *698:D 41.012 
*END

*D_NET *13 0.00212526
*CONN
*I *696:D I *D sg13g2_dfrbpq_1
*I *574:X O *D sg13g2_mux2_1
*CAP
1 *696:D 0.00025431
2 *574:X 0.000808319
3 *13:8 0.00106263
4 *696:D *427:250 0
5 *696:D *439:6 0
6 *13:8 *66:12 0
7 *13:8 *286:10 0
8 *13:8 *409:24 0
9 *13:8 *416:8 0
*RES
1 *574:X *13:8 46.6352 
2 *13:8 *696:D 41.7512 
*END

*D_NET *14 0.0022923
*CONN
*I *695:D I *D sg13g2_dfrbpq_1
*I *576:Y O *D sg13g2_o21ai_1
*CAP
1 *695:D 0.000724596
2 *576:Y 0.000724596
3 *695:D reg_rsp_o[7] 0
4 *695:D *512:A2 2.18151e-05
5 *695:D *576:B1 1.54556e-05
6 *695:D *576:A1 0
7 *695:D *55:14 8.01612e-05
8 *695:D *180:15 0.00024211
9 *695:D *210:10 0
10 *695:D *238:14 0
11 *695:D *416:46 0.000274638
12 *695:D *420:73 0.000208922
13 *695:D *431:52 0
*RES
1 *576:Y *695:D 46.5824 
*END

*D_NET *15 0.00249949
*CONN
*I *694:D I *D sg13g2_dfrbpq_1
*I *578:Y O *D sg13g2_o21ai_1
*CAP
1 *694:D 0.000351684
2 *578:Y 0.000507452
3 *15:8 0.000859136
4 *694:D *682:CLK 0
5 *694:D *379:16 0.000598779
6 *15:8 *57:21 0.000182438
7 *15:8 *182:8 0
8 *15:8 *427:115 0
*RES
1 *578:Y *15:8 45.1568 
2 *15:8 *694:D 43.4144 
*END

*D_NET *16 0.000616252
*CONN
*I *692:D I *D sg13g2_dfrbpq_1
*I *581:X O *D sg13g2_mux2_1
*CAP
1 *692:D 0.00021986
2 *581:X 0.00021986
3 *692:D *49:33 0
4 *692:D *92:22 0
5 *692:D *239:23 0.000176532
*RES
1 *581:X *692:D 41.7512 
*END

*D_NET *17 0.000201601
*CONN
*I *691:D I *D sg13g2_dfrbpq_1
*I *582:X O *D sg13g2_mux2_1
*CAP
1 *691:D 0.000100801
2 *582:X 0.000100801
3 *691:D *691:RESET_B 0
4 *691:D *56:12 0
*RES
1 *582:X *691:D 40.968 
*END

*D_NET *18 0.0013446
*CONN
*I *690:D I *D sg13g2_dfrbpq_1
*I *583:X O *D sg13g2_mux2_1
*CAP
1 *690:D 0.000551246
2 *583:X 0.000551246
3 *690:D *514:A1 0
4 *690:D *514:A2 0.00024211
5 *690:D *690:RESET_B 0
6 *690:D *92:52 0
7 *690:D *92:66 0
*RES
1 *583:X *690:D 44.928 
*END

*D_NET *19 0.000623491
*CONN
*I *688:D I *D sg13g2_dfrbpq_1
*I *584:X O *D sg13g2_mux2_1
*CAP
1 *688:D 0.000191592
2 *584:X 0.000191592
3 *688:D *584:A1 0.000240306
4 *688:D *415:37 0
*RES
1 *584:X *688:D 41.892 
*END

*D_NET *20 0.000181803
*CONN
*I *687:D I *D sg13g2_dfrbpq_1
*I *585:X O *D sg13g2_mux2_1
*CAP
1 *687:D 9.09016e-05
2 *585:X 9.09016e-05
3 *687:D *585:A1 0
4 *687:D *414:64 0
*RES
1 *585:X *687:D 40.968 
*END

*D_NET *21 0.00135497
*CONN
*I *686:D I *D sg13g2_dfrbpq_1
*I *586:X O *D sg13g2_mux2_1
*CAP
1 *686:D 9.93151e-05
2 *586:X 0.000153276
3 *21:10 0.000252591
4 *686:D *49:45 0.000177356
5 *686:D *414:39 0.000144882
6 *21:10 reg_rsp_o[10] 0.000237794
7 *21:10 *544:B 0.000144877
8 *21:10 *415:25 0.000144877
*RES
1 *586:X *21:10 41.76 
2 *21:10 *686:D 41.012 
*END

*D_NET *22 0.00110113
*CONN
*I *682:D I *D sg13g2_dfrbpq_1
*I *652:X O *D sg13g2_mux2_1
*CAP
1 *682:D 0.000201115
2 *652:X 0.000215659
3 *22:8 0.000416774
4 *682:D *652:A1 0
5 *682:D *652:S 4.77425e-05
6 *682:D *682:RESET_B 0
7 *682:D *336:45 0
8 *682:D *420:22 0.00014502
9 *22:8 *107:20 0
10 *22:8 *108:14 0
11 *22:8 *140:12 7.48178e-05
12 *22:8 *336:45 0
*RES
1 *652:X *22:8 41.7776 
2 *22:8 *682:D 41.7512 
*END

*D_NET *23 0.00180167
*CONN
*I *683:D I *D sg13g2_dfrbpq_1
*I *655:X O *D sg13g2_mux2_1
*CAP
1 *683:D 0.000536642
2 *655:X 0.000536642
3 *683:D *746:RESET_B 0
4 *683:D *746:D 0
5 *683:D *348:22 0
6 *683:D *350:14 0.000728391
*RES
1 *655:X *683:D 45.2184 
*END

*D_NET *24 0.00151679
*CONN
*I *684:D I *D sg13g2_dfrbpq_1
*I *658:X O *D sg13g2_mux2_1
*CAP
1 *684:D 0.000523919
2 *658:X 0.000523919
3 *684:D *658:A1 0.000468951
4 *684:D *685:D 0
5 *684:D *685:CLK 0
6 *684:D *736:RESET_B 0
7 *684:D *54:6 0
8 *684:D *417:57 0
9 *684:D *417:72 0
*RES
1 *658:X *684:D 44.8048 
*END

*D_NET *25 0.000436022
*CONN
*I *685:D I *D sg13g2_dfrbpq_1
*I *662:X O *D sg13g2_mux2_1
*CAP
1 *685:D 0.000218011
2 *662:X 0.000218011
3 *685:D *658:S 0
4 *685:D *662:A0 0
5 *685:D *729:RESET_B 0
6 *684:D *685:D 0
*RES
1 *662:X *685:D 42.0504 
*END

*D_NET *26 0.000183973
*CONN
*I *689:D I *D sg13g2_dfrbpq_1
*I *663:X O *D sg13g2_mux2_1
*CAP
1 *689:D 9.19867e-05
2 *663:X 9.19867e-05
3 *689:D *663:A0 0
4 *689:D *415:74 0
*RES
1 *663:X *689:D 40.968 
*END

*D_NET *27 0.00127784
*CONN
*I *693:D I *D sg13g2_dfrbpq_1
*I *664:X O *D sg13g2_mux2_1
*CAP
1 *693:D 0
2 *664:X 0.000215087
3 *27:10 0.000215087
4 *27:10 *664:A1 0
5 *27:10 *51:10 0.000236967
6 *27:10 *92:114 0.000610698
*RES
1 *664:X *27:10 42.8688 
2 *27:10 *693:D 40 
*END

*D_NET *28 0.00116128
*CONN
*I *697:D I *D sg13g2_dfrbpq_1
*I *667:Y O *D sg13g2_o21ai_1
*CAP
1 *697:D 0.000130929
2 *667:Y 0.000100656
3 *28:8 0.000231585
4 *697:D *647:B1 0
5 *697:D *792:A 0.000176034
6 *28:8 *667:A1 0.00018128
7 *28:8 *53:18 0.000340791
*RES
1 *667:Y *28:8 41.3552 
2 *28:8 *697:D 41.012 
*END

*D_NET *29 0.00143608
*CONN
*I *701:D I *D sg13g2_dfrbpq_1
*I *670:Y O *D sg13g2_o21ai_1
*CAP
1 *701:D 0
2 *670:Y 0.000429543
3 *29:10 0.000429543
4 *29:10 *670:B1 1.53311e-05
5 *29:10 *150:8 0
6 *708:D *29:10 0.000561666
*RES
1 *670:Y *29:10 43.74 
2 *29:10 *701:D 40 
*END

*D_NET *30 0.000841509
*CONN
*I *705:D I *D sg13g2_dfrbpq_1
*I *672:Y O *D sg13g2_o21ai_1
*CAP
1 *705:D 0.000283424
2 *672:Y 0.000283424
3 *705:D *185:12 0
4 *705:D *289:10 0.00027466
*RES
1 *672:Y *705:D 42.7456 
*END

*D_NET *31 0.00107591
*CONN
*I *709:D I *D sg13g2_dfrbpq_1
*I *674:Y O *D sg13g2_o21ai_1
*CAP
1 *709:D 0.000234056
2 *674:Y 0.000234056
3 *709:D *288:18 0.000397947
4 *709:D *413:77 0.000209856
*RES
1 *674:Y *709:D 42.5344 
*END

*D_NET *32 0.000719413
*CONN
*I *713:D I *D sg13g2_dfrbpq_1
*I *675:X O *D sg13g2_mux2_1
*CAP
1 *713:D 0.000287265
2 *675:X 0.000287265
3 *713:D *647:A2 0
4 *713:D *675:A0 0
5 *713:D *675:A1 0.000144882
6 *713:D *720:CLK 0
7 *713:D *236:12 0
*RES
1 *675:X *713:D 42.772 
*END

*D_NET *33 0.000468258
*CONN
*I *484:A1 I *D sg13g2_a21oi_1
*I *483:Y O *D sg13g2_inv_1
*CAP
1 *484:A1 0.000226401
2 *483:Y 0.000226401
3 *484:A1 *484:B1 1.54556e-05
4 *484:A1 *487:B2 0
5 *484:A1 *427:282 0
*RES
1 *483:Y *484:A1 42.1296 
*END

*D_NET *34 0.000249226
*CONN
*I *487:A2 I *D sg13g2_a22oi_1
*I *484:Y O *D sg13g2_a21oi_1
*CAP
1 *487:A2 0.000100657
2 *484:Y 0.000100657
3 *487:A2 *484:B1 0
4 *487:A2 *487:B1 0
5 *487:A2 *487:B2 4.79124e-05
6 *487:A2 *185:12 0
*RES
1 *484:Y *487:A2 40.968 
*END

*D_NET *35 0.00677478
*CONN
*I *487:B1 I *D sg13g2_a22oi_1
*I *557:A1 I *D sg13g2_o21ai_1
*I *524:A1 I *D sg13g2_o21ai_1
*I *485:Y O *D sg13g2_inv_1
*CAP
1 *487:B1 0.000792083
2 *557:A1 0
3 *524:A1 0
4 *485:Y 0.000161913
5 *35:27 0.000607844
6 *35:14 0.00139844
7 *35:8 0.00174459
8 *487:B1 *487:B2 0
9 *487:B1 *756:RESET_B 4.77425e-05
10 *487:B1 *174:23 0.000184492
11 *487:B1 *185:12 1.54556e-05
12 *487:B1 *415:129 0.00082534
13 *35:8 *709:RESET_B 0.000112426
14 *35:8 *288:18 0
15 *35:8 *415:129 0
16 *35:14 *839:A 0
17 *35:14 *412:66 0.00029194
18 *35:14 *413:66 4.77425e-05
19 *35:27 *150:23 0.000529373
20 *35:27 *413:66 1.54008e-05
21 *35:27 *430:38 0
22 *35:27 *457:10 0
23 *487:A2 *487:B1 0
24 *708:D *35:14 0
25 *708:D *35:27 0
*RES
1 *485:Y *35:8 41.5664 
2 *35:8 *35:14 26.908 
3 *35:14 *524:A1 20 
4 *35:14 *35:27 45.4032 
5 *35:27 *557:A1 20 
6 *35:8 *487:B1 47.216 
*END

*D_NET *36 0.000532398
*CONN
*I *487:B2 I *D sg13g2_a22oi_1
*I *486:Y O *D sg13g2_a21oi_1
*CAP
1 *487:B2 0.000242243
2 *486:Y 0.000242243
3 *487:B2 *484:B1 0
4 *487:B2 *487:A1 0
5 *487:B2 *415:129 0
6 *484:A1 *487:B2 0
7 *487:B1 *487:B2 0
8 *487:A2 *487:B2 4.79124e-05
*RES
1 *486:Y *487:B2 42.3144 
*END

*D_NET *37 0.00103119
*CONN
*I *489:A1 I *D sg13g2_a21oi_1
*I *488:Y O *D sg13g2_inv_1
*CAP
1 *489:A1 0
2 *488:Y 0
3 *37:14 0.000305848
4 *37:6 0.000305848
5 *37:14 *861:A 7.44263e-05
6 *37:14 *180:21 0
7 *37:14 *323:16 0.000345067
*RES
1 *488:Y *37:6 40 
2 *37:6 *37:14 43.344 
3 *37:14 *489:A1 40 
*END

*D_NET *38 0.000575031
*CONN
*I *492:A2 I *D sg13g2_a22oi_1
*I *489:Y O *D sg13g2_a21oi_1
*CAP
1 *492:A2 0.000263606
2 *489:Y 0.000263606
3 *492:A2 *491:B1 4.78192e-05
4 *492:A2 *492:B2 0
5 *492:A2 *718:D 0
6 *492:A2 *432:16 0
*RES
1 *489:Y *492:A2 42.1912 
*END

*D_NET *39 0.00356272
*CONN
*I *492:B1 I *D sg13g2_a22oi_1
*I *559:A1 I *D sg13g2_o21ai_1
*I *525:A1 I *D sg13g2_o21ai_1
*I *490:Y O *D sg13g2_inv_1
*CAP
1 *492:B1 0.000164862
2 *559:A1 0
3 *525:A1 0.000329235
4 *490:Y 9.63775e-05
5 *39:12 0.00112722
6 *39:6 0.00105922
7 *492:B1 *488:A 0
8 *492:B1 *492:B2 0
9 *492:B1 *492:A1 4.78192e-05
10 *492:B1 *311:6 0
11 *525:A1 *525:A2 4.77425e-05
12 *525:A1 *564:A 0.000143937
13 *525:A1 *564:B 8.01609e-05
14 *525:A1 *786:A 0
15 *525:A1 *790:A 0
16 *525:A1 *82:8 0.000339633
17 *525:A1 *85:8 0
18 *39:6 *490:A 0
19 *39:6 *492:B2 0
20 *39:6 *432:16 0
21 *39:12 *488:A 0
22 *39:12 *82:8 0.00012651
23 *39:12 *169:6 0
24 *39:12 *311:6 0
25 *39:12 *416:63 0
*RES
1 *490:Y *39:6 20.9328 
2 *39:6 *39:12 26.6704 
3 *39:12 *525:A1 42.9216 
4 *39:12 *559:A1 40 
5 *39:6 *492:B1 21.3816 
*END

*D_NET *40 0.000423551
*CONN
*I *492:B2 I *D sg13g2_a22oi_1
*I *491:Y O *D sg13g2_a21oi_1
*CAP
1 *492:B2 0.000211776
2 *491:Y 0.000211776
3 *492:B2 *488:A 0
4 *492:B2 *718:D 0
5 *492:B2 *432:16 0
6 *492:B1 *492:B2 0
7 *492:A2 *492:B2 0
8 *39:6 *492:B2 0
*RES
1 *491:Y *492:B2 41.7864 
*END

*D_NET *41 0.00100809
*CONN
*I *494:A1 I *D sg13g2_a21oi_1
*I *493:Y O *D sg13g2_inv_1
*CAP
1 *494:A1 0.000383636
2 *493:Y 0.000383636
3 *494:A1 *494:A2 1.54008e-05
4 *494:A1 *43:12 1.54008e-05
5 *494:A1 *322:18 0.000210012
6 *494:A1 *431:14 0
*RES
1 *493:Y *494:A1 43.344 
*END

*D_NET *42 0.00052656
*CONN
*I *497:A2 I *D sg13g2_a22oi_1
*I *494:Y O *D sg13g2_a21oi_1
*CAP
1 *497:A2 6.2542e-05
2 *494:Y 4.02163e-05
3 *42:8 0.000102758
4 *497:A2 *497:B2 8.02379e-05
5 *497:A2 *43:18 0
6 *497:A2 *322:18 0.000112558
7 *42:8 *183:12 0.000128248
*RES
1 *494:Y *42:8 40.5104 
2 *42:8 *497:A2 40.6424 
*END

*D_NET *43 0.00442974
*CONN
*I *526:A1 I *D sg13g2_o21ai_1
*I *497:B1 I *D sg13g2_a22oi_1
*I *561:A1 I *D sg13g2_o21ai_1
*I *495:Y O *D sg13g2_inv_1
*CAP
1 *526:A1 0.000204922
2 *497:B1 0
3 *561:A1 0
4 *495:Y 0.000184606
5 *43:26 0.000585972
6 *43:18 0.000820994
7 *43:12 0.00062455
8 *526:A1 *183:12 0
9 *526:A1 *415:8 0
10 *43:12 *494:A2 0
11 *43:12 *494:B1 0.0001863
12 *43:12 *431:14 0
13 *43:18 *497:B2 0
14 *43:18 *182:23 3.24568e-05
15 *43:18 *182:36 1.54556e-05
16 *43:18 *183:12 0
17 *43:18 *415:8 0
18 *43:26 *497:B2 0
19 *43:26 *844:A 7.51285e-05
20 *43:26 *182:23 0.00030715
21 *43:26 *332:10 0.000448099
22 *43:26 *424:30 0.000928707
23 *494:A1 *43:12 1.54008e-05
24 *497:A2 *43:18 0
*RES
1 *495:Y *43:12 41.584 
2 *43:12 *43:18 21.628 
3 *43:18 *43:26 46.908 
4 *43:26 *561:A1 20 
5 *43:18 *497:B1 20 
6 *43:12 *526:A1 41.3552 
*END

*D_NET *44 0.000975814
*CONN
*I *497:B2 I *D sg13g2_a22oi_1
*I *496:Y O *D sg13g2_a21oi_1
*CAP
1 *497:B2 0.000423917
2 *496:Y 0.000423917
3 *497:B2 *717:RESET_B 0
4 *497:B2 *717:D 4.77425e-05
5 *497:B2 *182:19 0
6 *497:B2 *322:18 0
7 *497:B2 *419:42 0
8 *497:A2 *497:B2 8.02379e-05
9 *43:18 *497:B2 0
10 *43:26 *497:B2 0
*RES
1 *496:Y *497:B2 43.1592 
*END

*D_NET *45 0.00107777
*CONN
*I *503:B I *D sg13g2_nand2b_2
*I *500:A I *D sg13g2_nand3_1
*I *498:Y O *D sg13g2_nor2_1
*CAP
1 *503:B 0
2 *500:A 0.000237279
3 *498:Y 2.83098e-05
4 *45:23 0.000257893
5 *45:6 0.000523482
6 *500:A *498:A 0
7 *500:A *813:A 0
8 *500:A *47:8 0
9 *500:A *50:6 0
10 *500:A *274:10 0
11 *500:A *274:14 0
12 *45:6 *498:A 0
13 *45:6 *498:B 0
14 *45:23 *498:A 1.54008e-05
15 *45:23 *498:B 1.54008e-05
16 *45:23 *500:C 0
17 *45:23 *814:A 0
18 *45:23 *274:10 0
*RES
1 *498:Y *45:6 20.2992 
2 *45:6 *500:A 21.8656 
3 *45:6 *45:23 42.4464 
4 *45:23 *503:B 20 
*END

*D_NET *46 0.000924071
*CONN
*I *500:B I *D sg13g2_nand3_1
*I *504:A I *D sg13g2_nor2_1
*I *499:Y O *D sg13g2_inv_1
*CAP
1 *500:B 0
2 *504:A 0.000181845
3 *499:Y 0
4 *46:17 0.000135644
5 *46:4 0.000317489
6 *504:A *504:B 0
7 *504:A *274:14 1.54008e-05
8 *504:A *274:22 0.000273693
9 *46:17 *50:12 0
10 *46:17 *274:10 0
*RES
1 *499:Y *46:4 20 
2 *46:4 *504:A 21.5664 
3 *46:4 *46:17 41.144 
4 *46:17 *500:B 20 
*END

*D_NET *47 0.00214358
*CONN
*I *506:A I *D sg13g2_nand2_1
*I *842:A I *D sg13g2_buf_1
*I *502:A I *D sg13g2_inv_2
*I *500:Y O *D sg13g2_nand3_1
*CAP
1 *506:A 0
2 *842:A 0
3 *502:A 0.000264282
4 *500:Y 0.000128214
5 *47:27 0.000202582
6 *47:10 0.000650779
7 *47:8 0.000312129
8 *502:A *664:A0 0
9 *502:A *275:14 0
10 *47:8 *50:6 0
11 *47:10 *535:B 0
12 *47:10 *50:12 0
13 *47:10 *53:8 0.000175468
14 *47:10 *274:22 0
15 *47:27 *53:18 0.000287256
16 *47:27 *240:12 0.000122871
17 *500:A *47:8 0
*RES
1 *500:Y *47:8 21.1792 
2 *47:8 *47:10 1.5664 
3 *47:10 *502:A 22.4464 
4 *47:10 *47:27 42.0504 
5 *47:27 *842:A 20 
6 *47:8 *506:A 20 
*END

*D_NET *49 0.0128091
*CONN
*I *679:A1 I *D sg13g2_a22oi_1
*I *545:A I *D sg13g2_nand3_1
*I *505:A1 I *D sg13g2_a22oi_1
*I *542:A1 I *D sg13g2_a22oi_1
*I *539:A1 I *D sg13g2_a22oi_1
*I *536:A1 I *D sg13g2_a22oi_1
*I *502:Y O *D sg13g2_inv_2
*CAP
1 *679:A1 0
2 *545:A 0.000152094
3 *505:A1 0
4 *542:A1 0
5 *539:A1 0.000239144
6 *536:A1 0.000177694
7 *502:Y 0.000650968
8 *49:45 0.00138162
9 *49:33 0.00165144
10 *49:29 0.00101327
11 *49:14 0.00104975
12 *49:10 0.00117081
13 *536:A1 *536:B1 4.77425e-05
14 *536:A1 *536:A2 0.000233586
15 *536:A1 *553:A0 0
16 *536:A1 *68:10 0
17 *536:A1 *235:23 0
18 *536:A1 *409:10 7.52149e-05
19 *536:A1 *427:310 0
20 *539:A1 *539:B1 4.79124e-05
21 *539:A1 *539:B2 0
22 *539:A1 *542:B1 0.000339552
23 *539:A1 *70:10 0
24 *539:A1 *72:10 0
25 *545:A *296:12 0
26 *545:A *395:14 0.000181781
27 *545:A *414:104 7.51285e-05
28 *49:10 *676:A2 0.000112426
29 *49:10 *676:B1 0
30 *49:10 *843:A 0
31 *49:10 *67:12 0.000306936
32 *49:10 *442:10 0
33 *49:14 *536:B1 0
34 *49:14 *679:B1 0.000176597
35 *49:14 *67:24 0.000145107
36 *49:14 *155:10 0
37 *49:14 *409:10 0.000436456
38 *49:14 *409:99 7.93152e-05
39 *49:14 *442:10 0
40 *49:29 *69:8 0.000181694
41 *49:29 *296:12 0
42 *49:29 *313:8 0.000181192
43 *49:29 *409:10 0.000287672
44 *49:29 *414:104 0
45 *49:33 *79:12 0.000274299
46 *49:33 *159:23 4.77425e-05
47 *49:33 *239:23 9.64366e-05
48 *49:33 *414:27 3.23417e-05
49 *49:33 *414:33 0.000727619
50 *49:33 *440:25 0
51 *49:45 *541:B 0
52 *49:45 *543:B 0.000145159
53 *49:45 *586:A0 4.77425e-05
54 *49:45 *70:10 0
55 *49:45 *159:23 4.77425e-05
56 *49:45 *183:12 7.52158e-05
57 *49:45 *190:8 0.00017724
58 *49:45 *239:23 8.00842e-05
59 *49:45 *279:20 0
60 *49:45 *290:8 0.000340288
61 *49:45 *312:8 0
62 *49:45 *375:8 0.000144691
63 *49:45 *414:33 0
64 *49:45 *414:39 0
65 *49:45 *414:51 0
66 *49:45 *415:8 0
67 *686:D *49:45 0.000177356
68 *692:D *49:33 0
*RES
1 *502:Y *49:10 25.9136 
2 *49:10 *49:14 24.8928 
3 *49:14 *536:A1 41.8128 
4 *49:14 *49:29 3.7136 
5 *49:29 *49:33 24.8928 
6 *49:33 *49:45 49.9616 
7 *49:45 *539:A1 22.2352 
8 *49:45 *542:A1 20 
9 *49:33 *505:A1 20 
10 *49:29 *545:A 41.5664 
11 *49:10 *679:A1 20 
*END

*D_NET *50 0.00247561
*CONN
*I *506:B I *D sg13g2_nand2_1
*I *504:B I *D sg13g2_nor2_1
*I *535:B I *D sg13g2_nor2_2
*I *503:Y O *D sg13g2_nand2b_2
*CAP
1 *506:B 0
2 *504:B 0.000160016
3 *535:B 0.000113526
4 *503:Y 0.000161118
5 *50:12 0.000518426
6 *50:6 0.000406002
7 *504:B *53:79 0.000212127
8 *535:B *67:12 0
9 *535:B *274:22 0.00011215
10 *50:6 *813:A 0
11 *50:6 *274:10 0
12 *50:12 *500:C 0
13 *50:12 *53:8 0.000144297
14 *50:12 *53:18 7.50359e-05
15 *50:12 *53:79 0.000395611
16 *50:12 *275:14 0.000177297
17 *500:A *50:6 0
18 *504:A *504:B 0
19 *46:17 *50:12 0
20 *47:8 *50:6 0
21 *47:10 *535:B 0
22 *47:10 *50:12 0
*RES
1 *503:Y *50:6 21.3816 
2 *50:6 *50:12 22.7896 
3 *50:12 *535:B 40.9416 
4 *50:12 *504:B 41.5752 
5 *50:6 *506:B 20 
*END

*D_NET *51 0.00243113
*CONN
*I *676:A1 I *D sg13g2_a21oi_1
*I *843:A I *D sg13g2_buf_1
*I *504:Y O *D sg13g2_nor2_1
*CAP
1 *676:A1 0
2 *843:A 0.000223275
3 *504:Y 0.000379757
4 *51:14 0.000249871
5 *51:10 0.000406352
6 *843:A *676:A2 0.000112426
7 *843:A *676:B1 0.000305515
8 *51:10 *53:79 0
9 *51:10 *67:12 0.000501567
10 *51:10 *168:29 0
11 *51:14 *664:A0 0
12 *51:14 *676:A2 1.54008e-05
13 *27:10 *51:10 0.000236967
14 *49:10 *843:A 0
*RES
1 *504:Y *51:10 43.9776 
2 *51:10 *51:14 20.2728 
3 *51:14 *843:A 22.0504 
4 *51:14 *676:A1 20 
*END

*D_NET *52 0.000770991
*CONN
*I *508:A I *D sg13g2_nand2_1
*I *505:Y O *D sg13g2_a22oi_1
*CAP
1 *508:A 0
2 *505:Y 0.000176598
3 *52:14 0.000176598
4 *52:14 *159:23 1.54008e-05
5 *52:14 *239:31 0.000124293
6 *52:14 *409:67 0.000230357
7 *52:14 *414:33 0
8 *52:14 *414:39 4.77425e-05
*RES
1 *505:Y *52:14 41.9888 
2 *52:14 *508:A 40 
*END

*D_NET *53 0.0180576
*CONN
*I *510:A I *D sg13g2_inv_1
*I *761:A I *D sg13g2_buf_1
*I *528:B1 I *D sg13g2_o21ai_1
*I *523:B1 I *D sg13g2_o21ai_1
*I *678:B1 I *D sg13g2_o21ai_1
*I *524:B1 I *D sg13g2_o21ai_1
*I *839:A I *D sg13g2_buf_1
*I *506:Y O *D sg13g2_nand2_1
*CAP
1 *510:A 0
2 *761:A 0
3 *528:B1 0
4 *523:B1 0
5 *678:B1 0.000217716
6 *524:B1 0
7 *839:A 0.000984862
8 *506:Y 0.000103393
9 *53:87 0.000492348
10 *53:79 0.0014698
11 *53:68 0.000368713
12 *53:30 0.00118831
13 *53:24 0.000612937
14 *53:18 0.00200077
15 *53:8 0.00252113
16 *678:B1 *678:A2 0.000111994
17 *678:B1 *779:A 0
18 *678:B1 *889:A 0.000160307
19 *678:B1 *209:13 0
20 *678:B1 *413:54 0
21 *839:A *704:RESET_B 0
22 *839:A *292:12 1.54008e-05
23 *839:A *412:53 0.000208104
24 *839:A *412:66 0.000337375
25 *839:A *413:66 4.77425e-05
26 *839:A *413:77 0
27 *53:8 *275:14 0
28 *53:18 *523:A1 0.000144811
29 *53:18 *649:B1 0
30 *53:18 *664:A0 0.000553246
31 *53:18 *666:B 0.000181192
32 *53:18 *667:A1 0
33 *53:18 *671:A 0
34 *53:18 *677:A1 0
35 *53:18 *784:A 1.54008e-05
36 *53:18 *859:A 0
37 *53:18 *62:8 0
38 *53:18 *137:12 0.000340374
39 *53:18 *413:10 0.000394981
40 *53:18 *413:118 4.77425e-05
41 *53:18 *430:8 0.000395068
42 *53:24 *209:13 0
43 *53:24 *413:39 0
44 *53:24 *413:118 0.000341119
45 *53:24 *430:12 0
46 *53:30 *889:A 1.53311e-05
47 *53:30 *150:23 0.000143629
48 *53:30 *292:12 0
49 *53:30 *413:54 0
50 *53:30 *413:56 0
51 *53:68 *784:A 0.000339267
52 *53:68 *827:A 0
53 *53:68 *249:8 0
54 *53:68 *288:18 0
55 *53:68 *289:10 0
56 *53:68 *413:27 7.51285e-05
57 *53:68 *413:39 0.000499799
58 *53:79 *663:S 0.000291404
59 *53:79 *92:106 0.000565621
60 *53:79 *168:29 0.000809271
61 *53:79 *274:22 0
62 *53:87 *67:24 0
63 *53:87 *92:106 4.77425e-05
64 *53:87 *168:29 8.00842e-05
65 *53:87 *427:310 0
66 *53:87 *440:12 0
67 *504:B *53:79 0.000212127
68 *704:D *839:A 0.000304858
69 *28:8 *53:18 0.000340791
70 *35:14 *839:A 0
71 *47:10 *53:8 0.000175468
72 *47:27 *53:18 0.000287256
73 *50:12 *53:8 0.000144297
74 *50:12 *53:18 7.50359e-05
75 *50:12 *53:79 0.000395611
76 *51:10 *53:79 0
*RES
1 *506:Y *53:8 41.012 
2 *53:8 *53:18 34.08 
3 *53:18 *53:24 42.2 
4 *53:24 *53:30 1.9536 
5 *53:30 *839:A 29.0904 
6 *53:30 *524:B1 20 
7 *53:24 *678:B1 21.936 
8 *53:18 *523:B1 20 
9 *53:18 *53:68 44.136 
10 *53:68 *528:B1 20 
11 *53:8 *53:79 30.3664 
12 *53:79 *53:87 43.74 
13 *53:87 *761:A 20 
14 *53:79 *510:A 20 
*END

*D_NET *55 0.000909494
*CONN
*I *576:A1 I *D sg13g2_o21ai_1
*I *512:A1 I *D sg13g2_o21ai_1
*I *509:Y O *D sg13g2_inv_1
*CAP
1 *576:A1 0.0001527
2 *512:A1 0
3 *509:Y 4.83406e-05
4 *55:14 0.000126066
5 *55:6 0.000327107
6 *576:A1 *489:A2 0
7 *576:A1 *718:D 0
8 *576:A1 *431:52 4.78195e-05
9 *55:6 *238:14 0
10 *55:14 *491:B1 0
11 *55:14 *509:A 0
12 *55:14 *718:D 0
13 *55:14 *238:14 0
14 *55:14 *316:8 0
15 *55:14 *416:63 0.0001273
16 *695:D *576:A1 0
17 *695:D *55:14 8.01612e-05
*RES
1 *509:Y *55:6 20.5104 
2 *55:6 *55:14 41.1528 
3 *55:14 *512:A1 20 
4 *55:6 *576:A1 21.3816 
*END

*D_NET *56 0.0022879
*CONN
*I *512:B1 I *D sg13g2_o21ai_1
*I *511:Y O *D sg13g2_a21oi_1
*CAP
1 *512:B1 2.98565e-05
2 *511:Y 0.000627242
3 *56:12 0.000657098
4 *512:B1 *512:A2 7.34141e-06
5 *512:B1 *284:8 0
6 *56:12 *511:A2 0.000242088
7 *56:12 *582:A1 4.77425e-05
8 *56:12 *284:25 0
9 *56:12 *316:8 7.56299e-05
10 *56:12 *425:8 0.000343849
11 *56:12 *425:20 0.0001811
12 *56:12 *425:53 7.59494e-05
13 *56:12 *427:117 0
14 *56:12 *461:14 0
15 *691:D *56:12 0
*RES
1 *511:Y *56:12 46.5736 
2 *56:12 *512:B1 40.2266 
*END

*D_NET *57 0.00116922
*CONN
*I *578:A1 I *D sg13g2_o21ai_1
*I *515:A1 I *D sg13g2_o21ai_1
*I *513:Y O *D sg13g2_inv_1
*CAP
1 *578:A1 0
2 *515:A1 0.000218622
3 *513:Y 0
4 *57:21 0.000149957
5 *57:4 0.000368579
6 *515:A1 *577:A 0
7 *515:A1 *416:32 0
8 *515:A1 *416:46 0
9 *515:A1 *431:48 0
10 *57:21 *513:A 1.54008e-05
11 *57:21 *91:8 0.000234224
12 *57:21 *416:32 0
13 *57:21 *431:48 0
14 *15:8 *57:21 0.000182438
*RES
1 *513:Y *57:4 20 
2 *57:4 *515:A1 21.9184 
3 *57:4 *57:21 41.8128 
4 *57:21 *578:A1 20 
*END

*D_NET *58 0.00080687
*CONN
*I *515:B1 I *D sg13g2_o21ai_1
*I *514:Y O *D sg13g2_a21oi_1
*CAP
1 *515:B1 4.56002e-05
2 *514:Y 0.000269793
3 *58:8 0.000315393
4 *515:B1 *315:18 8.02598e-05
5 *515:B1 *416:32 1.54556e-05
6 *515:B1 *416:46 8.03692e-05
7 *58:8 *577:B 0
8 *58:8 *379:31 0
9 *58:8 *427:115 0
*RES
1 *514:Y *58:8 42.4112 
2 *58:8 *515:B1 40.4576 
*END

*D_NET *59 0.00114146
*CONN
*I *517:A1 I *D sg13g2_o21ai_1
*I *569:A1 I *D sg13g2_o21ai_1
*I *516:Y O *D sg13g2_inv_1
*CAP
1 *517:A1 0
2 *569:A1 0.000183519
3 *516:Y 4.8126e-05
4 *59:25 0.000108487
5 *59:6 0.000340132
6 *569:A1 *569:A2 1.54008e-05
7 *569:A1 *257:18 0
8 *59:25 *516:A 1.54008e-05
9 *59:25 *517:A2 0.000180927
10 *59:25 *96:10 0.000234067
11 *59:25 *297:8 1.54008e-05
12 *59:25 *297:16 0
13 *700:D *569:A1 0
*RES
1 *516:Y *59:6 20.5104 
2 *59:6 *569:A1 21.584 
3 *59:6 *59:25 41.3904 
4 *59:25 *517:A1 20 
*END

*D_NET *60 0.00107515
*CONN
*I *519:A1 I *D sg13g2_o21ai_1
*I *571:A1 I *D sg13g2_o21ai_1
*I *518:Y O *D sg13g2_inv_1
*CAP
1 *519:A1 6.36511e-05
2 *571:A1 0.000327954
3 *518:Y 0
4 *60:6 0.000391605
5 *571:A1 *295:16 0.000291937
6 *571:A1 *432:45 0
*RES
1 *518:Y *60:6 40 
2 *60:6 *571:A1 43.0448 
3 *60:6 *519:A1 40.5104 
*END

*D_NET *61 0.00120359
*CONN
*I *573:A1 I *D sg13g2_o21ai_1
*I *521:A1 I *D sg13g2_o21ai_1
*I *520:Y O *D sg13g2_inv_1
*CAP
1 *573:A1 0
2 *521:A1 0.000277286
3 *520:Y 0.000157404
4 *61:8 0.00043469
5 *521:A1 *518:A 0
6 *521:A1 *521:A2 1.54008e-05
7 *521:A1 *573:A2 4.77425e-05
8 *521:A1 *825:A 7.99179e-05
9 *521:A1 *410:37 0.000175748
10 *521:A1 *432:84 0
11 *61:8 *518:A 0
12 *61:8 *573:A2 1.54008e-05
13 *61:8 *410:37 0
14 *698:D *61:8 0
*RES
1 *520:Y *61:8 21.496 
2 *61:8 *521:A1 22.7456 
3 *61:8 *573:A1 20 
*END

*D_NET *62 0.00284874
*CONN
*I *649:B1 I *D sg13g2_a22oi_1
*I *523:A1 I *D sg13g2_o21ai_1
*I *674:A1 I *D sg13g2_o21ai_1
*I *522:Y O *D sg13g2_inv_1
*CAP
1 *649:B1 9.38044e-05
2 *523:A1 0.000229667
3 *674:A1 0.000146531
4 *522:Y 0
5 *62:8 0.00101805
6 *62:6 0.000735659
7 *523:A1 *859:A 0
8 *523:A1 *288:18 0.000225239
9 *523:A1 *413:118 4.77425e-05
10 *674:A1 *674:A2 1.54008e-05
11 *674:A1 *153:8 0.000128576
12 *674:A1 *413:56 4.78028e-05
13 *674:A1 *413:77 1.54556e-05
14 *53:18 *523:A1 0.000144811
15 *53:18 *649:B1 0
16 *53:18 *62:8 0
*RES
1 *522:Y *62:6 40 
2 *62:6 *62:8 5.1568 
3 *62:8 *674:A1 41.4168 
4 *62:8 *523:A1 42.1384 
5 *62:6 *649:B1 40.7216 
*END

*D_NET *63 0.00176581
*CONN
*I *528:A1 I *D sg13g2_o21ai_1
*I *672:A1 I *D sg13g2_o21ai_1
*I *527:Y O *D sg13g2_inv_1
*CAP
1 *528:A1 0.000206465
2 *672:A1 0
3 *527:Y 0.000411182
4 *63:10 0.000206465
5 *63:8 0.000411182
6 *528:A1 *671:A 0.000339212
7 *528:A1 *672:A2 1.54008e-05
8 *528:A1 *289:10 0
9 *528:A1 *413:39 4.77425e-05
10 *63:8 *697:RESET_B 0
11 *63:8 *705:RESET_B 0
12 *63:8 *859:A 0
13 *63:8 *152:10 0.00012816
14 *63:8 *413:27 0
*RES
1 *527:Y *63:8 43.8896 
2 *63:8 *63:10 20 
3 *63:10 *672:A1 20 
4 *63:10 *528:A1 21.936 
*END

*D_NET *64 0.00208777
*CONN
*I *530:A1 I *D sg13g2_o21ai_1
*I *563:A1 I *D sg13g2_o21ai_1
*I *529:Y O *D sg13g2_inv_1
*CAP
1 *530:A1 0
2 *563:A1 0.000319414
3 *529:Y 0.000282417
4 *64:8 0.00060183
5 *563:A1 *482:A0 0.000395131
6 *563:A1 *482:A1 0
7 *563:A1 *563:A2 1.53311e-05
8 *563:A1 *421:31 0
9 *64:8 *482:A0 0.000265575
10 *64:8 *482:A1 0
11 *64:8 *704:CLK 0
12 *64:8 *173:17 0
13 *64:8 *429:68 0
14 *704:D *563:A1 0.000208069
*RES
1 *529:Y *64:8 43.0448 
2 *64:8 *563:A1 43.1328 
3 *64:8 *530:A1 40 
*END

*D_NET *65 0.0037802
*CONN
*I *565:A1 I *D sg13g2_o21ai_1
*I *532:A1 I *D sg13g2_o21ai_1
*I *531:Y O *D sg13g2_inv_1
*CAP
1 *565:A1 0
2 *532:A1 0.000125336
3 *531:Y 0.000211542
4 *65:8 0.000336878
5 *532:A1 *525:B1 0.000269186
6 *532:A1 *410:52 0.000130011
7 *532:A1 *416:63 0.000235158
8 *532:A1 *416:65 0.000288087
9 *532:A1 *416:67 7.52149e-05
10 *532:A1 *420:54 0
11 *65:8 *416:63 0.00106345
12 *65:8 *420:54 0
13 *65:8 *432:16 0.00104534
*RES
1 *531:Y *65:8 44.312 
2 *65:8 *532:A1 42.2 
3 *65:8 *565:A1 40 
*END

*D_NET *66 0.00248531
*CONN
*I *534:A1 I *D sg13g2_o21ai_1
*I *567:A1 I *D sg13g2_o21ai_1
*I *533:Y O *D sg13g2_inv_1
*CAP
1 *534:A1 0.000155315
2 *567:A1 0
3 *533:Y 0
4 *66:12 0.000974732
5 *66:4 0.00113005
6 *534:A1 *533:A 0
7 *534:A1 *416:12 6.4771e-05
8 *534:A1 *416:22 1.54556e-05
9 *66:12 *533:A 0.000144992
10 *66:12 *719:RESET_B 0
11 *66:12 *239:45 0
12 *66:12 *409:24 0
13 *66:12 *416:8 0
14 *13:8 *66:12 0
*RES
1 *533:Y *66:4 20 
2 *66:4 *66:12 48.6504 
3 *66:12 *567:A1 20 
4 *66:4 *534:A1 21.5752 
*END

*D_NET *67 0.0105449
*CONN
*I *679:B2 I *D sg13g2_a22oi_1
*I *536:B2 I *D sg13g2_a22oi_1
*I *542:B2 I *D sg13g2_a22oi_1
*I *539:B2 I *D sg13g2_a22oi_1
*I *535:Y O *D sg13g2_nor2_2
*CAP
1 *679:B2 0
2 *536:B2 0
3 *542:B2 0
4 *539:B2 0.000200911
5 *535:Y 0.000892364
6 *67:54 0.000251646
7 *67:30 0.00145046
8 *67:24 0.00230416
9 *67:12 0.00169532
10 *539:B2 *541:B 0
11 *539:B2 *787:A 0
12 *539:B2 *70:10 4.79124e-05
13 *539:B2 *72:10 4.78359e-05
14 *67:12 *679:A2 4.77425e-05
15 *67:12 *155:10 3.23417e-05
16 *67:12 *168:29 0
17 *67:24 *538:C 4.77425e-05
18 *67:24 *679:B1 0
19 *67:24 *688:RESET_B 0
20 *67:24 *869:A 0
21 *67:24 *92:20 0
22 *67:24 *92:106 0
23 *67:24 *155:10 4.78521e-05
24 *67:24 *168:29 0
25 *67:24 *414:104 4.77425e-05
26 *67:24 *427:310 0
27 *67:30 *537:B 0
28 *67:30 *541:B 0
29 *67:30 *542:A2 0.000112198
30 *67:30 *787:A 0
31 *67:30 *72:10 0.00029041
32 *67:30 *92:33 0.000533849
33 *67:30 *92:43 0
34 *67:30 *167:14 0
35 *67:30 *223:16 7.33156e-05
36 *67:30 *409:18 0.000791478
37 *67:30 *415:37 0.000371608
38 *67:30 *415:64 8.00842e-05
39 *67:54 *536:A2 4.77425e-05
40 *67:54 *553:A0 0
41 *67:54 *68:10 4.77425e-05
42 *67:54 *79:12 0
43 *67:54 *167:14 0
44 *67:54 *414:104 0.000128804
45 *535:B *67:12 0
46 *539:A1 *539:B2 0
47 *1:10 *67:54 0
48 *49:10 *67:12 0.000306936
49 *49:14 *67:24 0.000145107
50 *51:10 *67:12 0.000501567
51 *53:87 *67:24 0
*RES
1 *535:Y *67:12 28.0872 
2 *67:12 *67:24 6.9432 
3 *67:24 *67:30 11.9592 
4 *67:30 *539:B2 21.9536 
5 *67:30 *542:B2 20 
6 *67:24 *67:54 42.2088 
7 *67:54 *536:B2 20 
8 *67:12 *679:B2 20 
*END

*D_NET *68 0.00128823
*CONN
*I *538:A I *D sg13g2_nand3_1
*I *536:Y O *D sg13g2_a22oi_1
*CAP
1 *538:A 0
2 *536:Y 0.000297938
3 *68:10 0.000297938
4 *68:10 *536:B1 4.77425e-05
5 *68:10 *536:A2 0.000127867
6 *68:10 *69:8 0.000181192
7 *68:10 *414:104 0.000287808
8 *536:A1 *68:10 0
9 *67:54 *68:10 4.77425e-05
*RES
1 *536:Y *68:10 42.8688 
2 *68:10 *538:A 40 
*END

*D_NET *69 0.000580305
*CONN
*I *538:C I *D sg13g2_nand3_1
*I *537:Y O *D sg13g2_nand2_1
*CAP
1 *538:C 2.60565e-05
2 *537:Y 3.49104e-05
3 *69:8 6.09669e-05
4 *538:C *409:14 3.23417e-05
5 *538:C *409:18 1.54008e-05
6 *49:29 *69:8 0.000181694
7 *67:24 *538:C 4.77425e-05
8 *68:10 *69:8 0.000181192
*RES
1 *537:Y *69:8 40.7216 
2 *69:8 *538:C 40.2728 
*END

*D_NET *70 0.00107616
*CONN
*I *541:A I *D sg13g2_nand3_1
*I *539:Y O *D sg13g2_a22oi_1
*CAP
1 *541:A 0
2 *539:Y 0.00021267
3 *70:10 0.00021267
4 *70:10 *539:B1 4.79124e-05
5 *70:10 *541:B 0
6 *70:10 *687:CLK 0.000554994
7 *70:10 *183:12 0
8 *70:10 *312:8 0
9 *539:B2 *70:10 4.79124e-05
10 *539:A1 *70:10 0
11 *49:45 *70:10 0
*RES
1 *539:Y *70:10 42.6576 
2 *70:10 *541:A 40 
*END

*D_NET *71 0.000329299
*CONN
*I *541:C I *D sg13g2_nand3_1
*I *540:Y O *D sg13g2_nand2_1
*CAP
1 *541:C 0.000156949
2 *540:Y 0.000156949
3 *541:C *539:A2 0
4 *541:C *541:B 1.54008e-05
5 *541:C *414:51 0
*RES
1 *540:Y *541:C 41.3816 
*END

*D_NET *72 0.00206101
*CONN
*I *544:A I *D sg13g2_nand3_1
*I *542:Y O *D sg13g2_a22oi_1
*CAP
1 *544:A 0
2 *542:Y 0.000714527
3 *72:10 0.000714527
4 *72:10 intr_gpio_o[0] 0
5 *72:10 reg_rsp_o[14] 0
6 *72:10 *542:B1 0.000112519
7 *72:10 *73:8 0.000181192
8 *72:10 *92:43 0
9 *72:10 *279:20 0
10 *72:10 *415:8 0
11 *539:B2 *72:10 4.78359e-05
12 *539:A1 *72:10 0
13 *67:30 *72:10 0.00029041
*RES
1 *542:Y *72:10 46.0368 
2 *72:10 *544:A 40 
*END

*D_NET *73 0.000447578
*CONN
*I *544:C I *D sg13g2_nand3_1
*I *543:Y O *D sg13g2_nand2_1
*CAP
1 *544:C 2.60565e-05
2 *543:Y 5.93938e-05
3 *73:8 8.54503e-05
4 *544:C *544:B 4.77425e-05
5 *544:C *415:25 4.77425e-05
6 *72:10 *73:8 0.000181192
*RES
1 *543:Y *73:8 40.7216 
2 *73:8 *544:C 40.2728 
*END

*D_NET *74 0.00163069
*CONN
*I *546:B1 I *D sg13g2_a21oi_1
*I *551:A I *D sg13g2_nor2_2
*I *545:Y O *D sg13g2_nand3_1
*CAP
1 *546:B1 0
2 *551:A 0
3 *545:Y 0.000208258
4 *74:14 0.000281291
5 *74:8 0.00048955
6 *74:8 *546:A1 0
7 *74:8 *822:A 0.000208491
8 *74:8 *912:A 0
9 *74:8 *92:14 8.0216e-05
10 *74:8 *278:27 0
11 *74:14 *78:21 0
12 *74:14 *92:14 0
13 *74:14 *277:25 0.000287256
14 *74:14 *296:31 7.56299e-05
*RES
1 *545:Y *74:8 21.892 
2 *74:8 *74:14 42.4112 
3 *74:14 *551:A 20 
4 *74:8 *546:B1 20 
*END

*D_NET *75 0.000506267
*CONN
*I *912:A I *D sg13g2_dlygate4sd3_1
*I *546:Y O *D sg13g2_a21oi_1
*CAP
1 *912:A 0.000164865
2 *546:Y 0.000164865
3 *912:A *548:A1 0.000176537
4 *912:A *822:A 0
5 *912:A *92:14 0
6 *912:A *193:19 0
7 *74:8 *912:A 0
*RES
1 *546:Y *912:A 41.496 
*END

*D_NET *76 0.00165259
*CONN
*I *548:A1 I *D sg13g2_o21ai_1
*I *547:Y O *D sg13g2_nor2b_1
*CAP
1 *548:A1 0.000353152
2 *547:Y 0.000273061
3 *76:12 0.000626213
4 *548:A1 *548:A2 0.000112558
5 *548:A1 *549:A 4.77425e-05
6 *548:A1 *77:10 0
7 *548:A1 *78:6 0
8 *548:A1 *278:40 0
9 *548:A1 *435:10 0
10 *76:12 *547:A 1.54556e-05
11 *76:12 *77:10 0
12 *76:12 *193:19 4.78685e-05
13 *76:12 *277:25 0
14 *76:12 *477:8 0
15 *912:A *548:A1 0.000176537
*RES
1 *547:Y *76:12 42.3232 
2 *76:12 *548:A1 42.86 
*END

*D_NET *77 0.00102214
*CONN
*I *549:B_N I *D sg13g2_nor2b_1
*I *548:Y O *D sg13g2_o21ai_1
*CAP
1 *549:B_N 0
2 *548:Y 0.000393956
3 *77:10 0.000393956
4 *77:10 *548:A2 0
5 *77:10 *807:A 0
6 *77:10 *78:21 0
7 *77:10 *193:19 0
8 *77:10 *282:10 0
9 *77:10 *308:8 0
10 *77:10 *477:8 0.000234224
11 *548:A1 *77:10 0
12 *76:12 *77:10 0
*RES
1 *548:Y *77:10 43.5024 
2 *77:10 *549:B_N 40 
*END

*D_NET *78 0.00131781
*CONN
*I *550:A I *D sg13g2_inv_1
*I *579:A I *D sg13g2_nand4_1
*I *549:Y O *D sg13g2_nor2b_1
*CAP
1 *550:A 0
2 *579:A 3.10776e-05
3 *549:Y 7.84561e-05
4 *78:21 0.0003893
5 *78:6 0.000498834
6 *579:A *92:14 1.54008e-05
7 *579:A *278:40 4.75151e-05
8 *78:6 *278:40 9.65264e-05
9 *78:21 *296:12 4.79124e-05
10 *78:21 *296:31 0
11 *78:21 *409:99 0
12 *78:21 *415:64 0.00011279
13 *78:21 *440:21 0
14 *548:A1 *78:6 0
15 *74:14 *78:21 0
16 *77:10 *78:21 0
*RES
1 *549:Y *78:6 20.6424 
2 *78:6 *579:A 20.2728 
3 *78:6 *78:21 43.2648 
4 *78:21 *550:A 20 
*END

*D_NET *79 0.0134723
*CONN
*I *574:S I *D sg13g2_mux2_1
*I *553:S I *D sg13g2_mux2_1
*I *860:A I *D sg13g2_buf_1
*I *858:A I *D sg13g2_buf_1
*I *567:A2 I *D sg13g2_o21ai_1
*I *560:A I *D sg13g2_nand2_1
*I *561:A2 I *D sg13g2_o21ai_1
*I *566:A I *D sg13g2_nand2_1
*I *551:Y O *D sg13g2_nor2_2
*CAP
1 *574:S 0.00038702
2 *553:S 0
3 *860:A 0.000919957
4 *858:A 3.21756e-05
5 *567:A2 0
6 *560:A 0
7 *561:A2 0.000426903
8 *566:A 0
9 *551:Y 0.00072265
10 *79:39 0.000859294
11 *79:30 0.000673418
12 *79:28 0.000848368
13 *79:18 0.000864103
14 *79:16 0.00147643
15 *79:14 0.000430517
16 *79:12 0.0012083
17 *561:A2 *561:B1 0.00026428
18 *561:A2 *602:B 0
19 *561:A2 *610:B 0
20 *561:A2 *853:A 0
21 *561:A2 *113:10 0
22 *561:A2 *250:20 0
23 *561:A2 *331:33 0
24 *561:A2 *427:220 0
25 *574:S *574:A0 0
26 *574:S *584:A0 0
27 *574:S *239:8 0
28 *574:S *409:24 1.54008e-05
29 *858:A *486:A2 0
30 *858:A *719:RESET_B 0
31 *860:A *706:CLK 0.000339053
32 *860:A *753:CLK 0
33 *860:A *319:31 0.000145003
34 *860:A *319:38 0.000550494
35 *860:A *319:47 0
36 *860:A *415:110 0
37 *860:A *419:16 0
38 *860:A *427:214 0
39 *860:A *427:250 0
40 *860:A *427:256 0
41 *860:A *439:6 0.00050132
42 *79:12 *167:14 0.000767121
43 *79:12 *239:45 0
44 *79:12 *281:19 0.000394895
45 *79:12 *296:31 0
46 *79:12 *414:27 0
47 *79:12 *440:21 0
48 *79:12 *468:10 0.00108641
49 *79:14 *239:45 0
50 *79:14 *281:19 7.51285e-05
51 *79:16 *239:45 0
52 *79:18 *239:45 0
53 *79:18 *415:110 0
54 *79:28 *486:A2 0
55 *79:28 *567:B1 0
56 *79:28 *719:RESET_B 0
57 *79:28 *900:A 0
58 *79:28 *239:45 0
59 *79:28 *415:110 0
60 *79:30 *702:RESET_B 0
61 *79:30 *900:A 0
62 *79:30 *246:12 0
63 *79:39 *567:B1 0
64 *79:39 *702:RESET_B 0
65 *79:39 *706:D 0
66 *79:39 *246:12 0
67 *79:39 *250:20 0
68 *79:39 *419:16 0
69 *79:39 *427:214 0
70 *901:A *79:28 0.000209713
71 *1:10 *574:S 0
72 *1:10 *79:14 0
73 *1:10 *79:16 0
74 *49:33 *79:12 0.000274299
75 *67:54 *79:12 0
*RES
1 *551:Y *79:12 48.712 
2 *79:12 *79:14 1.144 
3 *79:14 *79:16 3.4672 
4 *79:16 *79:18 2.2 
5 *79:18 *79:28 25.5792 
6 *79:28 *79:30 1.936 
7 *79:30 *566:A 20 
8 *79:30 *79:39 3.9248 
9 *79:39 *561:A2 24.1888 
10 *79:39 *560:A 20 
11 *79:28 *567:A2 20 
12 *79:18 *858:A 40.2728 
13 *79:16 *860:A 48.404 
14 *79:14 *553:S 40 
15 *79:12 *574:S 43.4144 
*END

*D_NET *81 0.0004359
*CONN
*I *557:B1 I *D sg13g2_o21ai_1
*I *556:Y O *D sg13g2_nand2_1
*CAP
1 *557:B1 0.000178593
2 *556:Y 0.000178593
3 *557:B1 *556:B 4.79124e-05
4 *557:B1 *557:A2 1.54008e-05
5 *557:B1 *457:10 0
6 *708:D *557:B1 1.54008e-05
*RES
1 *556:Y *557:B1 41.8744 
*END

*D_NET *82 0.00140109
*CONN
*I *559:B1 I *D sg13g2_o21ai_1
*I *558:Y O *D sg13g2_nand2_1
*CAP
1 *559:B1 3.03288e-05
2 *558:Y 0.000269395
3 *82:8 0.000299723
4 *559:B1 *559:A2 4.77425e-05
5 *82:8 *85:16 0
6 *82:8 *247:8 0.000287758
7 *82:8 *432:37 0
8 *525:A1 *82:8 0.000339633
9 *39:12 *82:8 0.00012651
*RES
1 *558:Y *82:8 43.0448 
2 *82:8 *559:B1 40.2728 
*END

*D_NET *83 0.000142828
*CONN
*I *905:A I *D sg13g2_dlygate4sd3_1
*I *560:Y O *D sg13g2_nand2_1
*CAP
1 *905:A 0
2 *560:Y 7.1414e-05
3 *83:8 7.1414e-05
4 *83:8 *182:36 0
5 *83:8 *332:27 0
*RES
1 *560:Y *83:8 40.7216 
2 *83:8 *905:A 40 
*END

*D_NET *84 0.00069556
*CONN
*I *563:B1 I *D sg13g2_o21ai_1
*I *562:Y O *D sg13g2_nand2_1
*CAP
1 *563:B1 0.000219225
2 *562:Y 0.000219225
3 *563:B1 *563:A2 7.98197e-05
4 *563:B1 *410:10 0
5 *563:B1 *429:85 0.00017729
6 *704:D *563:B1 0
*RES
1 *562:Y *563:B1 42.1032 
*END

*D_NET *85 0.00127797
*CONN
*I *565:B1 I *D sg13g2_o21ai_1
*I *564:Y O *D sg13g2_nand2_1
*CAP
1 *565:B1 7.57087e-05
2 *564:Y 0.000121547
3 *85:16 0.000382759
4 *85:8 0.000428597
5 *565:B1 *432:20 1.54008e-05
6 *565:B1 *432:22 0.0001122
7 *85:16 *559:A2 0
8 *85:16 *786:A 0
9 *85:16 *416:63 0
10 *85:16 *432:37 0.000126354
11 *525:A1 *85:8 0
12 *703:D *565:B1 1.54008e-05
13 *82:8 *85:16 0
*RES
1 *564:Y *85:8 40.9328 
2 *85:8 *85:16 42.1032 
3 *85:16 *565:B1 40.6424 
*END

*D_NET *86 0.00167543
*CONN
*I *900:A I *D sg13g2_dlygate4sd3_1
*I *566:Y O *D sg13g2_nand2_1
*CAP
1 *900:A 0.000611648
2 *566:Y 0.000611648
3 *900:A *250:20 0.000242423
4 *900:A *421:8 0.000209713
5 *79:28 *900:A 0
6 *79:30 *900:A 0
*RES
1 *566:Y *900:A 45.5176 
*END

*D_NET *87 0.000458865
*CONN
*I *569:B1 I *D sg13g2_o21ai_1
*I *568:Y O *D sg13g2_nand2_1
*CAP
1 *569:B1 0
2 *568:Y 0.000101251
3 *87:8 0.000101251
4 *87:8 *568:A 0.000181398
5 *87:8 *250:20 0
6 *87:8 *319:8 0
7 *87:8 *429:91 7.49652e-05
*RES
1 *568:Y *87:8 41.144 
2 *87:8 *569:B1 40 
*END

*D_NET *88 0.000722201
*CONN
*I *571:B1 I *D sg13g2_o21ai_1
*I *570:Y O *D sg13g2_nand2_1
*CAP
1 *571:B1 0.000217703
2 *570:Y 0.000217703
3 *571:B1 reg_rsp_o[19] 0
4 *571:B1 *570:A 7.92311e-05
5 *571:B1 *570:B 4.79124e-05
6 *571:B1 *571:A2 0.00014425
7 *571:B1 *820:A 0
8 *571:B1 *886:A 0
9 *11:10 *571:B1 1.54008e-05
*RES
1 *570:Y *571:B1 41.98 
*END

*D_NET *89 0.0019545
*CONN
*I *573:B1 I *D sg13g2_o21ai_1
*I *572:Y O *D sg13g2_nand2_1
*CAP
1 *573:B1 0
2 *572:Y 0.000556218
3 *89:10 0.000556218
4 *89:10 *518:A 0.000336781
5 *89:10 *572:A 0.000111178
6 *89:10 *572:B 4.75265e-05
7 *89:10 *886:A 0
8 *89:10 *295:16 0.000112426
9 *89:10 *432:84 0.000234158
10 *89:10 *451:8 0
11 *89:10 *451:16 0
*RES
1 *572:Y *89:10 45.0072 
2 *89:10 *573:B1 40 
*END

*D_NET *90 0.00064395
*CONN
*I *576:B1 I *D sg13g2_o21ai_1
*I *575:Y O *D sg13g2_nand2_1
*CAP
1 *576:B1 5.56356e-05
2 *575:Y 0.000191987
3 *90:10 0.000247622
4 *576:B1 *416:46 0
5 *576:B1 *431:48 8.03692e-05
6 *576:B1 *431:52 1.54556e-05
7 *90:10 *575:A 6.56863e-06
8 *90:10 *575:B 1.54556e-05
9 *90:10 *379:31 0
10 *90:10 *416:46 1.54008e-05
11 *90:10 *425:20 0
12 *695:D *576:B1 1.54556e-05
*RES
1 *575:Y *90:10 41.3904 
2 *90:10 *576:B1 40.4576 
*END

*D_NET *91 0.00075573
*CONN
*I *578:B1 I *D sg13g2_o21ai_1
*I *577:Y O *D sg13g2_nand2_1
*CAP
1 *578:B1 3.33203e-05
2 *577:Y 0.000165733
3 *91:8 0.000199053
4 *578:B1 *578:A2 4.77702e-05
5 *91:8 *577:B 7.56299e-05
6 *91:8 *431:29 0
7 *57:21 *91:8 0.000234224
*RES
1 *577:Y *91:8 41.5664 
2 *91:8 *578:B1 40.2728 
*END

*D_NET *92 0.0187897
*CONN
*I *663:S I *D sg13g2_mux2_1
*I *664:S I *D sg13g2_mux2_1
*I *584:S I *D sg13g2_mux2_1
*I *586:S I *D sg13g2_mux2_1
*I *583:S I *D sg13g2_mux2_1
*I *582:S I *D sg13g2_mux2_1
*I *585:S I *D sg13g2_mux2_1
*I *581:S I *D sg13g2_mux2_1
*I *579:Y O *D sg13g2_nand4_1
*CAP
1 *663:S 0.0002166
2 *664:S 0
3 *584:S 0
4 *586:S 0.000158809
5 *583:S 0
6 *582:S 0
7 *585:S 0
8 *581:S 0
9 *579:Y 0.000600042
10 *92:114 0.000448185
11 *92:106 0.00154145
12 *92:91 0.000245789
13 *92:66 0.000782648
14 *92:52 0.00119215
15 *92:43 0.00157018
16 *92:33 0.00170677
17 *92:22 0.000557613
18 *92:20 0.00100831
19 *92:16 0.00146885
20 *92:14 0.000600042
21 *586:S *279:20 7.61961e-05
22 *663:S *663:A0 0
23 *663:S *693:RESET_B 0
24 *92:14 *278:27 0
25 *92:14 *296:12 0
26 *92:14 *296:31 0
27 *92:20 *409:14 0.000112558
28 *92:20 *409:18 0.000582654
29 *92:20 *415:64 0
30 *92:20 *440:25 0
31 *92:22 *409:18 0.000273639
32 *92:33 *541:B 0
33 *92:33 *159:35 0
34 *92:43 *539:B1 0
35 *92:43 *542:B1 0.00040429
36 *92:43 *585:A1 0
37 *92:43 *710:CLK 0.000242313
38 *92:43 *711:CLK 0.000177273
39 *92:43 *280:12 0
40 *92:43 *403:10 0.000306035
41 *92:43 *426:8 4.78524e-05
42 *92:52 *403:10 0
43 *92:52 *425:33 0
44 *92:66 *511:A1 0.000112008
45 *92:66 *511:A2 0.000274529
46 *92:66 *511:B1 0
47 *92:66 *514:A1 0.000177005
48 *92:66 *514:A2 0
49 *92:66 *582:A1 0.000129379
50 *92:66 *690:RESET_B 0
51 *92:66 *691:RESET_B 0
52 *92:66 *158:19 7.61961e-05
53 *92:66 *379:31 0
54 *92:66 *425:33 0
55 *92:91 *876:A 0.000234224
56 *92:91 *239:23 0
57 *92:91 *415:37 0.000181192
58 *92:91 *468:10 0
59 *92:106 *869:A 0
60 *92:106 *415:64 0.000635207
61 *92:106 *415:66 0
62 *92:106 *427:310 0
63 *92:114 *664:A1 0
64 *92:114 *154:8 0.000504766
65 *579:A *92:14 1.54008e-05
66 *690:D *92:52 0
67 *690:D *92:66 0
68 *692:D *92:22 0
69 *912:A *92:14 0
70 *27:10 *92:114 0.000610698
71 *53:79 *663:S 0.000291404
72 *53:79 *92:106 0.000565621
73 *53:87 *92:106 4.77425e-05
74 *67:24 *92:20 0
75 *67:24 *92:106 0
76 *67:30 *92:33 0.000533849
77 *67:30 *92:43 0
78 *72:10 *92:43 0
79 *74:8 *92:14 8.0216e-05
80 *74:14 *92:14 0
*RES
1 *579:Y *92:14 44.6816 
2 *92:14 *92:16 20 
3 *92:16 *92:20 5.192 
4 *92:20 *92:22 1.5664 
5 *92:22 *581:S 20 
6 *92:22 *92:33 23.7136 
7 *92:33 *92:43 30.5424 
8 *92:43 *585:S 20 
9 *92:43 *92:52 3.7136 
10 *92:52 *92:66 47.1456 
11 *92:66 *582:S 20 
12 *92:52 *583:S 20 
13 *92:33 *586:S 41.5664 
14 *92:20 *92:91 42.8336 
15 *92:91 *584:S 20 
16 *92:16 *92:106 7.7 
17 *92:106 *92:114 44.796 
18 *92:114 *664:S 20 
19 *92:106 *663:S 22.0504 
*END

*D_NET *94 0.00046567
*CONN
*I *588:A I *D sg13g2_inv_2
*I *587:Y O *D sg13g2_xnor2_1
*CAP
1 *588:A 0.000160435
2 *587:Y 0.000160435
3 *588:A *587:B 0.0001448
4 *588:A *658:S 0
5 *588:A *736:D 0
*RES
1 *587:Y *588:A 41.496 
*END

*D_NET *95 0.00451056
*CONN
*I *598:B1 I *D sg13g2_a21oi_1
*I *595:A I *D sg13g2_nor2b_1
*I *608:B1 I *D sg13g2_a21oi_1
*I *616:B1 I *D sg13g2_a21oi_1
*I *588:Y O *D sg13g2_inv_2
*CAP
1 *598:B1 0.000325185
2 *595:A 0.000304193
3 *608:B1 2.36489e-05
4 *616:B1 3.31265e-05
5 *588:Y 0
6 *95:33 0.000885342
7 *95:16 0.00111304
8 *95:6 0.000847599
9 *595:A *595:B_N 0.000209676
10 *595:A *608:A2 0
11 *595:A *656:B 0
12 *595:A *737:D 0
13 *595:A *101:26 0
14 *595:A *102:10 1.54556e-05
15 *598:B1 *658:S 0
16 *598:B1 *736:D 0
17 *598:B1 *102:36 0
18 *598:B1 *352:8 0
19 *598:B1 *356:12 0
20 *616:B1 *354:14 0
21 *95:16 *616:A1 1.54556e-05
22 *95:16 *657:D 0
23 *95:16 *736:D 0
24 *95:16 *354:14 1.54201e-05
25 *95:16 *358:12 0
26 *95:33 *596:B 8.00842e-05
27 *95:33 *616:A1 0.000144873
28 *95:33 *102:10 8.03692e-05
29 *95:33 *248:14 0.000289113
30 *95:33 *297:16 0
31 *95:33 *354:14 0
32 *95:33 *355:10 0
33 *95:33 *358:21 0.000127979
34 *735:CLK *95:33 0
35 *54:34 *598:B1 0
36 *54:34 *95:16 0
*RES
1 *588:Y *95:6 40 
2 *95:6 *95:16 24.8136 
3 *95:16 *616:B1 20.2992 
4 *95:16 *95:33 44.6464 
5 *95:33 *608:B1 20.2992 
6 *95:33 *595:A 23.0448 
7 *95:6 *598:B1 42.948 
*END

*D_NET *96 0.00329276
*CONN
*I *591:A I *D sg13g2_nor2_1
*I *594:A1 I *D sg13g2_a21oi_1
*I *589:Y O *D sg13g2_inv_1
*CAP
1 *591:A 3.28927e-05
2 *594:A1 6.10519e-05
3 *589:Y 0.000582086
4 *96:10 0.00067603
5 *594:A1 *594:A2 1.54008e-05
6 *594:A1 *98:8 0.000182525
7 *594:A1 *257:18 0.000181608
8 *96:10 *517:B1 0.000607773
9 *96:10 *98:8 5.33604e-05
10 *96:10 *250:20 0
11 *96:10 *257:18 0.000447287
12 *96:10 *410:37 0.000143713
13 *96:10 *421:12 7.49633e-05
14 *700:D *96:10 0
15 *59:25 *96:10 0.000234067
*RES
1 *589:Y *96:10 45.9576 
2 *96:10 *594:A1 40.9944 
3 *96:10 *591:A 40.2728 
*END

*D_NET *97 0.000690302
*CONN
*I *594:A2 I *D sg13g2_a21oi_1
*I *591:B I *D sg13g2_nor2_1
*I *590:Y O *D sg13g2_nand2_1
*CAP
1 *594:A2 0.000168021
2 *591:B 0
3 *590:Y 0.00016943
4 *97:12 0.000337451
5 *594:A2 *597:B 0
6 *594:A2 *356:35 0
7 *97:12 *590:A 0
8 *97:12 *597:B 0
9 *594:A1 *594:A2 1.54008e-05
*RES
1 *590:Y *97:12 21.7512 
2 *97:12 *591:B 20 
3 *97:12 *594:A2 21.848 
*END

*D_NET *98 0.00200705
*CONN
*I *596:A I *D sg13g2_nand2_1
*I *592:A I *D sg13g2_inv_1
*I *591:Y O *D sg13g2_nor2_1
*CAP
1 *596:A 4.37077e-05
2 *592:A 0.000182494
3 *591:Y 0.000169178
4 *98:8 0.000395379
5 *592:A *250:20 0.000287757
6 *596:A *657:C 8.00842e-05
7 *596:A *102:10 8.00842e-05
8 *98:8 *250:20 0.000532482
9 *98:8 *257:18 0
10 *594:A1 *98:8 0.000182525
11 *96:10 *98:8 5.33604e-05
*RES
1 *591:Y *98:8 42.2 
2 *98:8 *592:A 41.6016 
3 *98:8 *596:A 40.4576 
*END

*D_NET *99 0.00113742
*CONN
*I *616:A1 I *D sg13g2_a21oi_1
*I *593:B I *D sg13g2_nor2_1
*I *592:Y O *D sg13g2_inv_1
*CAP
1 *616:A1 0.000186995
2 *593:B 8.6273e-05
3 *592:Y 3.32557e-05
4 *99:10 0.000273268
5 *99:8 3.32557e-05
6 *616:A1 *616:A2 0
7 *99:8 *297:16 0.000182023
8 *99:8 *358:36 0.000182023
9 *95:16 *616:A1 1.54556e-05
10 *95:33 *616:A1 0.000144873
*RES
1 *592:Y *99:8 40.7216 
2 *99:8 *99:10 20 
3 *99:10 *593:B 20.6424 
4 *99:10 *616:A1 21.3816 
*END

*D_NET *100 0.00152217
*CONN
*I *594:B1 I *D sg13g2_a21oi_1
*I *593:Y O *D sg13g2_nor2_1
*CAP
1 *594:B1 3.87833e-05
2 *593:Y 0.000158424
3 *100:8 0.000197207
4 *100:8 *257:18 0.000658479
5 *100:8 *355:42 0.00012816
6 *100:8 *358:36 0.000341119
*RES
1 *593:Y *100:8 42.6224 
2 *100:8 *594:B1 40.2728 
*END

*D_NET *101 0.00200773
*CONN
*I *595:B_N I *D sg13g2_nor2b_1
*I *657:A I *D sg13g2_nand4_1
*I *594:Y O *D sg13g2_a21oi_1
*CAP
1 *595:B_N 0.000129353
2 *657:A 0.000366079
3 *594:Y 0.000761978
4 *101:26 0.000525251
5 *595:B_N *417:10 0
6 *657:A *597:B 0
7 *657:A *657:C 1.5393e-05
8 *657:A *658:S 0
9 *657:A *102:36 0
10 *657:A *356:35 0
11 *101:26 *656:B 0
12 *101:26 *657:C 0
13 *101:26 *102:16 0
14 *101:26 *250:20 0
15 *101:26 *319:8 0
16 *101:26 *427:149 0
17 *595:A *595:B_N 0.000209676
18 *595:A *101:26 0
*RES
1 *594:Y *657:A 43.0888 
2 *594:Y *101:26 43.5024 
3 *101:26 *595:B_N 41.1968 
*END

*D_NET *102 0.00292521
*CONN
*I *598:A1 I *D sg13g2_a21oi_1
*I *608:A1 I *D sg13g2_a21oi_1
*I *656:A I *D sg13g2_nand2_1
*I *596:Y O *D sg13g2_nand2_1
*CAP
1 *598:A1 0
2 *608:A1 0
3 *656:A 0
4 *596:Y 0
5 *102:36 0.000566392
6 *102:16 0.000128949
7 *102:10 0.000437316
8 *102:4 0.000874759
9 *102:10 *596:B 8.00842e-05
10 *102:10 *608:A2 0
11 *102:10 *657:C 0
12 *102:10 *355:14 7.97013e-05
13 *102:10 *358:21 4.78359e-05
14 *102:16 *250:20 0
15 *102:16 *355:42 0
16 *102:36 *598:A2 0.000185887
17 *102:36 *657:C 0
18 *102:36 *736:D 0
19 *102:36 *248:14 0
20 *102:36 *352:8 0
21 *102:36 *356:35 0.000122463
22 *102:36 *358:12 0
23 *102:36 *358:21 0.000225913
24 *595:A *102:10 1.54556e-05
25 *596:A *102:10 8.00842e-05
26 *598:B1 *102:36 0
27 *657:A *102:36 0
28 *95:33 *102:10 8.03692e-05
29 *101:26 *102:16 0
*RES
1 *596:Y *102:4 20 
2 *102:4 *102:10 2.508 
3 *102:10 *102:16 41.144 
4 *102:16 *656:A 20 
5 *102:10 *608:A1 20 
6 *102:4 *102:36 45.148 
7 *102:36 *598:A1 20 
*END

*D_NET *103 0.000571018
*CONN
*I *598:A2 I *D sg13g2_a21oi_1
*I *597:Y O *D sg13g2_xnor2_1
*CAP
1 *598:A2 0.000192566
2 *597:Y 0.000192566
3 *598:A2 *590:A 0
4 *598:A2 *597:B 0
5 *598:A2 *356:12 0
6 *102:36 *598:A2 0.000185887
*RES
1 *597:Y *598:A2 41.7952 
*END

*D_NET *104 0.000755755
*CONN
*I *600:A I *D sg13g2_inv_2
*I *599:Y O *D sg13g2_xnor2_1
*CAP
1 *600:A 0.000143234
2 *599:Y 0.000194459
3 *104:8 0.000337693
4 *600:A *110:12 8.03692e-05
5 *600:A *420:22 0
6 *104:8 *110:12 0
7 *104:8 *335:8 0
8 *104:8 *336:30 0
*RES
1 *599:Y *104:8 41.5664 
2 *104:8 *600:A 41.3816 
*END

*D_NET *105 0.00453693
*CONN
*I *611:B1 I *D sg13g2_a21oi_1
*I *612:B1 I *D sg13g2_a21oi_1
*I *607:A I *D sg13g2_nor2b_1
*I *614:B1 I *D sg13g2_a21oi_1
*I *600:Y O *D sg13g2_inv_2
*CAP
1 *611:B1 8.33998e-05
2 *612:B1 0
3 *607:A 0
4 *614:B1 0
5 *600:Y 0.00039575
6 *105:35 9.78673e-05
7 *105:29 0.000495895
8 *105:25 0.000665278
9 *105:18 0.000130731
10 *105:12 0.000710332
11 *611:B1 *651:C 5.49221e-05
12 *105:12 *605:B 0
13 *105:12 *606:B1 0.000144573
14 *105:12 *651:D 1.54008e-05
15 *105:12 *106:20 0
16 *105:12 *108:14 0.000209053
17 *105:12 *110:12 7.97013e-05
18 *105:12 *111:12 0
19 *105:12 *140:12 7.93444e-05
20 *105:12 *420:22 0
21 *105:18 *651:D 0.000390033
22 *105:18 *112:16 0.000128576
23 *105:18 *114:8 0
24 *105:25 *651:C 0
25 *105:25 *651:D 4.77425e-05
26 *105:25 *109:12 0
27 *105:29 *612:A2 0
28 *105:29 *651:C 0
29 *105:29 *749:RESET_B 0
30 *105:29 *108:33 0
31 *105:29 *109:12 0.000631054
32 *105:29 *327:10 0.000177273
33 *105:35 *246:12 0
34 *105:35 *327:10 0
*RES
1 *600:Y *105:12 23.7312 
2 *105:12 *105:18 41.5664 
3 *105:18 *614:B1 20 
4 *105:12 *105:25 1.3816 
5 *105:25 *105:29 4.1096 
6 *105:29 *105:35 40.9328 
7 *105:35 *607:A 20 
8 *105:29 *612:B1 20 
9 *105:25 *611:B1 21.1946 
*END

*D_NET *106 0.00336035
*CONN
*I *603:A I *D sg13g2_nor2_1
*I *606:A1 I *D sg13g2_a21oi_1
*I *601:Y O *D sg13g2_inv_1
*CAP
1 *603:A 0
2 *606:A1 0
3 *601:Y 0.000348304
4 *106:20 0.000491702
5 *106:10 0.000840006
6 *106:10 *601:A 0
7 *106:10 *108:33 0.000274583
8 *106:10 *420:22 0.000495001
9 *106:20 *606:B1 0
10 *106:20 *750:D 4.78356e-05
11 *106:20 *108:14 0.000541766
12 *106:20 *108:33 6.46834e-05
13 *106:20 *111:12 0.000144052
14 *106:20 *379:10 0
15 *106:20 *420:22 0.000112418
16 *105:12 *106:20 0
*RES
1 *601:Y *106:10 23.432 
2 *106:10 *106:20 44.4352 
3 *106:20 *606:A1 20 
4 *106:10 *603:A 20 
*END

*D_NET *107 0.00312055
*CONN
*I *603:B I *D sg13g2_nor2_1
*I *606:A2 I *D sg13g2_a21oi_1
*I *602:Y O *D sg13g2_nand2_1
*CAP
1 *603:B 0
2 *606:A2 0
3 *602:Y 0.000336536
4 *107:20 0.000533963
5 *107:12 0.00065758
6 *107:8 0.000460153
7 *107:8 *113:10 0
8 *107:8 *326:85 0
9 *107:8 *331:33 0
10 *107:8 *332:10 0
11 *107:8 *332:27 0
12 *107:12 *108:33 0.000226835
13 *107:12 *424:38 0.00024211
14 *107:20 *682:RESET_B 0
15 *107:20 *108:14 0.000339263
16 *107:20 *108:33 8.00842e-05
17 *107:20 *140:12 0.000180882
18 *107:20 *169:20 0
19 *107:20 *326:85 0
20 *107:20 *336:45 1.54008e-05
21 *107:20 *420:22 0
22 *107:20 *424:38 4.77425e-05
23 *22:8 *107:20 0
*RES
1 *602:Y *107:8 43.0448 
2 *107:8 *107:12 21.3816 
3 *107:12 *107:20 44.5584 
4 *107:20 *606:A2 20 
5 *107:12 *603:B 20 
*END

*D_NET *108 0.0054813
*CONN
*I *604:A I *D sg13g2_inv_1
*I *609:A I *D sg13g2_nand2_1
*I *603:Y O *D sg13g2_nor2_1
*CAP
1 *604:A 0
2 *609:A 0
3 *603:Y 0
4 *108:33 0.00105766
5 *108:14 0.000531152
6 *108:4 0.00158881
7 *108:14 *605:B 0
8 *108:14 *112:16 0
9 *108:14 *140:12 0
10 *108:33 *612:A2 8.0216e-05
11 *108:33 *650:B 8.0216e-05
12 *108:33 *651:C 0
13 *108:33 *749:RESET_B 0
14 *108:33 *751:CLK 0
15 *108:33 *109:12 0
16 *108:33 *113:10 0
17 *108:33 *326:85 0.000391514
18 *108:33 *327:10 0
19 *108:33 *379:10 0
20 *108:33 *420:10 0
21 *108:33 *424:38 0
22 *108:33 *424:50 1.54556e-05
23 *22:8 *108:14 0
24 *105:12 *108:14 0.000209053
25 *105:29 *108:33 0
26 *106:10 *108:33 0.000274583
27 *106:20 *108:14 0.000541766
28 *106:20 *108:33 6.46834e-05
29 *107:12 *108:33 0.000226835
30 *107:20 *108:14 0.000339263
31 *107:20 *108:33 8.00842e-05
*RES
1 *603:Y *108:4 20 
2 *108:4 *108:14 45.1216 
3 *108:14 *609:A 20 
4 *108:4 *108:33 49.152 
5 *108:33 *604:A 20 
*END

*D_NET *109 0.00489602
*CONN
*I *605:B I *D sg13g2_nor2_1
*I *614:A1 I *D sg13g2_a21oi_1
*I *604:Y O *D sg13g2_inv_1
*CAP
1 *605:B 0.000447232
2 *614:A1 9.10097e-05
3 *604:Y 0.00105015
4 *109:12 0.00158839
5 *605:B *605:A 0.000207986
6 *605:B *614:A2 0.00011226
7 *605:B *110:12 8.03692e-05
8 *605:B *112:16 0.000177136
9 *605:B *334:6 0.000112141
10 *605:B *334:34 7.92465e-05
11 *605:B *334:42 8.00842e-05
12 *614:A1 *614:A2 1.54008e-05
13 *614:A1 *410:37 7.99869e-05
14 *109:12 *751:CLK 8.02598e-05
15 *109:12 *334:42 1.54008e-05
16 *109:12 *410:37 0
17 *109:12 *420:10 4.79124e-05
18 *109:12 *424:50 0
19 *105:12 *605:B 0
20 *105:25 *109:12 0
21 *105:29 *109:12 0.000631054
22 *108:14 *605:B 0
23 *108:33 *109:12 0
*RES
1 *604:Y *109:12 29.5392 
2 *109:12 *614:A1 20.968 
3 *109:12 *605:B 24.3824 
*END

*D_NET *110 0.000974329
*CONN
*I *606:B1 I *D sg13g2_a21oi_1
*I *605:Y O *D sg13g2_nor2_1
*CAP
1 *606:B1 9.04256e-05
2 *605:Y 0.000204233
3 *110:12 0.000294658
4 *606:B1 *420:22 0
5 *110:12 *420:22 0
6 *600:A *110:12 8.03692e-05
7 *605:B *110:12 8.03692e-05
8 *104:8 *110:12 0
9 *105:12 *606:B1 0.000144573
10 *105:12 *110:12 7.97013e-05
11 *106:20 *606:B1 0
*RES
1 *605:Y *110:12 42.0064 
2 *110:12 *606:B1 40.8272 
*END

*D_NET *111 0.00337124
*CONN
*I *607:B_N I *D sg13g2_nor2b_1
*I *651:A I *D sg13g2_nand4_1
*I *606:Y O *D sg13g2_a21oi_1
*CAP
1 *607:B_N 0
2 *651:A 0
3 *606:Y 0.000255614
4 *111:31 0.00087919
5 *111:12 0.0011348
6 *111:12 *651:B 4.78356e-05
7 *111:12 *651:C 0
8 *111:12 *112:20 8.02924e-05
9 *111:12 *140:12 7.93444e-05
10 *111:12 *420:22 0
11 *111:31 *651:C 0
12 *111:31 *651:D 0
13 *111:31 *750:D 7.33256e-05
14 *111:31 *751:RESET_B 0
15 *111:31 *112:16 0
16 *111:31 *112:20 4.73346e-05
17 *111:31 *326:66 0
18 *111:31 *334:42 0.000126358
19 *111:31 *379:8 0
20 *111:31 *379:10 0
21 *111:31 *410:37 0.000503094
22 *105:12 *111:12 0
23 *106:20 *111:12 0.000144052
*RES
1 *606:Y *111:12 22.4376 
2 *111:12 *651:A 20 
3 *111:12 *111:31 47.6208 
4 *111:31 *607:B_N 20 
*END

*D_NET *112 0.00368704
*CONN
*I *650:A I *D sg13g2_nand2_1
*I *612:A1 I *D sg13g2_a21oi_1
*I *611:A1 I *D sg13g2_a21oi_1
*I *609:Y O *D sg13g2_nand2_1
*CAP
1 *650:A 0
2 *612:A1 0
3 *611:A1 0
4 *609:Y 0.000383605
5 *112:33 0.000160266
6 *112:27 0.000524775
7 *112:20 0.000541638
8 *112:16 0.000560734
9 *112:16 *651:D 0
10 *112:16 *114:8 0
11 *112:20 *651:C 8.0194e-05
12 *112:20 *420:22 0.00017724
13 *112:27 *650:B 0
14 *112:27 *651:C 0.00055069
15 *112:27 *420:22 0
16 *112:27 *424:50 0.000274561
17 *112:33 *246:12 0
18 *605:B *112:16 0.000177136
19 *105:18 *112:16 0.000128576
20 *108:14 *112:16 0
21 *111:12 *112:20 8.02924e-05
22 *111:31 *112:16 0
23 *111:31 *112:20 4.73346e-05
*RES
1 *609:Y *112:16 43.4232 
2 *112:16 *112:20 21.5664 
3 *112:20 *611:A1 20 
4 *112:20 *112:27 3.4144 
5 *112:27 *112:33 41.144 
6 *112:33 *612:A1 20 
7 *112:27 *650:A 20 
*END

*D_NET *113 0.00139348
*CONN
*I *611:A2 I *D sg13g2_a21oi_1
*I *610:Y O *D sg13g2_xnor2_1
*CAP
1 *611:A2 0
2 *610:Y 0.000341436
3 *113:10 0.000341436
4 *113:10 *610:B 8.01612e-05
5 *113:10 *332:10 0.00012816
6 *113:10 *379:10 0
7 *113:10 *424:38 0.000502289
8 *561:A2 *113:10 0
9 *107:8 *113:10 0
10 *108:33 *113:10 0
*RES
1 *610:Y *113:10 43.5024 
2 *113:10 *611:A2 40 
*END

*D_NET *114 0.000467317
*CONN
*I *614:A2 I *D sg13g2_a21oi_1
*I *613:Y O *D sg13g2_inv_1
*CAP
1 *614:A2 7.39386e-05
2 *613:Y 9.58899e-05
3 *114:8 0.000169828
4 *614:A2 *410:37 0
5 *114:8 *334:21 0
6 *605:B *614:A2 0.00011226
7 *614:A1 *614:A2 1.54008e-05
8 *105:18 *114:8 0
9 *112:16 *114:8 0
*RES
1 *613:Y *114:8 40.7216 
2 *114:8 *614:A2 40.6424 
*END

*D_NET *115 0.000294275
*CONN
*I *616:A2 I *D sg13g2_a21oi_1
*I *615:Y O *D sg13g2_inv_1
*CAP
1 *616:A2 0.00013941
2 *615:Y 0.00013941
3 *616:A2 *358:12 1.54556e-05
4 *616:A2 *358:21 0
5 *616:A1 *616:A2 0
*RES
1 *615:Y *616:A2 41.2672 
*END

*D_NET *116 0.00215491
*CONN
*I *642:A2 I *D sg13g2_o21ai_1
*I *618:A I *D sg13g2_nand2_1
*I *617:X O *D sg13g2_and2_1
*CAP
1 *642:A2 0.000187611
2 *618:A 3.17652e-05
3 *617:X 0.000390002
4 *116:10 0.000219376
5 *116:8 0.000390002
6 *618:A *117:10 1.54008e-05
7 *642:A2 *618:B 0
8 *642:A2 *624:A 0
9 *642:A2 *642:A1 8.01609e-05
10 *642:A2 *728:RESET_B 0
11 *642:A2 *118:31 0
12 *642:A2 *120:8 0
13 *642:A2 *367:39 0
14 *116:8 *642:B1 0
15 *116:8 *119:10 0
16 *116:8 *122:12 0.000235055
17 *116:8 *122:23 0.00037131
18 *116:8 *135:8 0
19 *116:8 *367:8 0
20 *116:8 *367:29 0
21 *116:8 *367:39 0.000234224
22 *116:8 *368:8 0
*RES
1 *617:X *116:8 44.312 
2 *116:8 *116:10 20 
3 *116:10 *618:A 20.2728 
4 *116:10 *642:A2 21.6808 
*END

*D_NET *117 0.00194119
*CONN
*I *623:A I *D sg13g2_inv_1
*I *622:A1 I *D sg13g2_a21oi_1
*I *618:Y O *D sg13g2_nand2_1
*CAP
1 *623:A 0.000339739
2 *622:A1 0.000310997
3 *618:Y 0.000183498
4 *117:12 0.000650736
5 *117:10 0.000183498
6 *622:A1 *118:19 0
7 *623:A *624:A 0
8 *623:A *118:19 0.000209582
9 *623:A *121:14 0
10 *117:10 *618:B 4.77425e-05
11 *117:10 *642:A1 0
12 *117:10 *369:8 0
13 *618:A *117:10 1.54008e-05
*RES
1 *618:Y *117:10 41.4168 
2 *117:10 *117:12 20 
3 *117:12 *622:A1 22.6048 
4 *117:12 *623:A 23.0448 
*END

*D_NET *118 0.00305077
*CONN
*I *660:A I *D sg13g2_nor2_1
*I *643:A2 I *D sg13g2_a21oi_1
*I *622:A2 I *D sg13g2_a21oi_1
*I *619:Y O *D sg13g2_inv_1
*CAP
1 *660:A 0
2 *643:A2 0
3 *622:A2 2.77263e-05
4 *619:Y 0.00022818
5 *118:31 0.000357908
6 *118:19 0.000805464
7 *118:8 0.000703463
8 *118:8 *619:A 0.000259259
9 *118:8 *370:12 1.54008e-05
10 *118:19 *624:A 0
11 *118:19 *121:6 0
12 *118:19 *122:12 0.000242313
13 *118:19 *370:12 4.77425e-05
14 *118:31 *624:A 0
15 *118:31 *642:A1 1.54008e-05
16 *118:31 *728:RESET_B 0
17 *118:31 *135:8 7.51285e-05
18 *118:31 *135:12 1.54008e-05
19 *118:31 *135:26 4.78028e-05
20 *118:31 *146:14 0
21 *622:A1 *118:19 0
22 *623:A *118:19 0.000209582
23 *642:A2 *118:31 0
*RES
1 *619:Y *118:8 22.4464 
2 *118:8 *622:A2 20.2992 
3 *118:8 *118:19 3.7136 
4 *118:19 *118:31 43.0448 
5 *118:31 *643:A2 20 
6 *118:19 *660:A 20 
*END

*D_NET *119 0.00134995
*CONN
*I *621:A I *D sg13g2_inv_1
*I *642:B1 I *D sg13g2_o21ai_1
*I *620:Y O *D sg13g2_xnor2_1
*CAP
1 *621:A 0
2 *642:B1 6.47974e-05
3 *620:Y 0.000572362
4 *119:10 0.00063716
5 *642:B1 *135:8 7.56308e-05
6 *642:B1 *367:39 0
7 *119:10 *729:RESET_B 0
8 *119:10 *146:14 0
9 *119:10 *147:8 0
10 *119:10 *367:39 0
11 *119:10 *368:8 0
12 *729:CLK *119:10 0
13 *48:43 *119:10 0
14 *116:8 *642:B1 0
15 *116:8 *119:10 0
*RES
1 *620:Y *119:10 45.06 
2 *119:10 *642:B1 40.7216 
3 *119:10 *621:A 40 
*END

*D_NET *120 0.00285709
*CONN
*I *626:B1 I *D sg13g2_a21oi_1
*I *622:B1 I *D sg13g2_a21oi_1
*I *644:B1 I *D sg13g2_a21oi_1
*I *621:Y O *D sg13g2_inv_1
*CAP
1 *626:B1 0
2 *622:B1 0
3 *644:B1 8.01148e-05
4 *621:Y 0.000201942
5 *120:38 0.000306791
6 *120:25 0.000242143
7 *120:19 0.000704263
8 *120:8 0.000437386
9 *644:B1 *624:A 0
10 *120:8 *728:RESET_B 0.000274375
11 *120:8 *367:39 8.00842e-05
12 *120:19 *624:A 0
13 *120:19 *728:RESET_B 0
14 *120:19 *728:D 0.000242236
15 *120:25 *122:12 0
16 *120:25 *370:8 0.000287757
17 *120:38 *619:A 0
18 *120:38 *626:A1 0
19 *120:38 *364:10 0
20 *642:A2 *120:8 0
*RES
1 *621:Y *120:8 22.288 
2 *120:8 *644:B1 20.7568 
3 *120:8 *120:19 1.5664 
4 *120:19 *120:25 42.6224 
5 *120:25 *622:B1 20 
6 *120:19 *120:38 43.1328 
7 *120:38 *626:B1 20 
*END

*D_NET *121 0.0022494
*CONN
*I *624:A I *D sg13g2_nand2_1
*I *643:A1 I *D sg13g2_a21oi_1
*I *623:Y O *D sg13g2_inv_1
*CAP
1 *624:A 0.000622823
2 *643:A1 0
3 *623:Y 2.77263e-05
4 *121:14 0.000143027
5 *121:6 0.000793576
6 *624:A *618:B 0.000177034
7 *624:A *642:A1 0
8 *624:A *728:D 0
9 *624:A *122:12 8.02927e-05
10 *624:A *135:12 3.24351e-05
11 *624:A *135:26 0.000117698
12 *624:A *146:14 4.37334e-05
13 *121:14 *135:26 8.0194e-05
14 *121:14 *365:8 0.000130859
15 *623:A *624:A 0
16 *623:A *121:14 0
17 *642:A2 *624:A 0
18 *644:B1 *624:A 0
19 *118:19 *624:A 0
20 *118:19 *121:6 0
21 *118:31 *624:A 0
22 *120:19 *624:A 0
*RES
1 *623:Y *121:6 20.2992 
2 *121:6 *121:14 41.364 
3 *121:14 *643:A1 20 
4 *121:6 *624:A 25.3944 
*END

*D_NET *122 0.00332854
*CONN
*I *626:A1 I *D sg13g2_a21oi_1
*I *659:A I *D sg13g2_nand2_1
*I *644:A1 I *D sg13g2_a21oi_1
*I *624:Y O *D sg13g2_nand2_1
*CAP
1 *626:A1 0.000385288
2 *659:A 0
3 *644:A1 0
4 *624:Y 0.000361092
5 *122:23 0.000492068
6 *122:12 0.000467872
7 *626:A1 *625:A 0
8 *626:A1 *626:A2 1.54556e-05
9 *626:A1 *661:A 0
10 *626:A1 *728:RESET_B 0
11 *626:A1 *364:10 0.00046906
12 *626:A1 *364:14 8.01609e-05
13 *122:23 *367:29 0.000128576
14 *624:A *122:12 8.02927e-05
15 *728:CLK *626:A1 0
16 *116:8 *122:12 0.000235055
17 *116:8 *122:23 0.00037131
18 *118:19 *122:12 0.000242313
19 *120:25 *122:12 0
20 *120:38 *626:A1 0
*RES
1 *624:Y *122:12 43.4584 
2 *122:12 *644:A1 40 
3 *122:12 *122:23 21.5664 
4 *122:23 *659:A 20 
5 *122:23 *626:A1 23.7136 
*END

*D_NET *123 0.000460174
*CONN
*I *626:A2 I *D sg13g2_a21oi_1
*I *625:Y O *D sg13g2_xnor2_1
*CAP
1 *626:A2 0.000222359
2 *625:Y 0.000222359
3 *626:A2 *625:A 0
4 *626:A1 *626:A2 1.54556e-05
*RES
1 *625:Y *626:A2 42.2352 
*END

*D_NET *124 0.000959696
*CONN
*I *628:A I *D sg13g2_inv_2
*I *627:Y O *D sg13g2_xnor2_1
*CAP
1 *628:A 0
2 *627:Y 0.00036207
3 *124:10 0.00036207
4 *124:10 *867:A 0
5 *124:10 *125:10 0
6 *124:10 *422:8 0
7 *124:10 *427:73 0
8 *124:10 *427:77 0
9 *124:10 *438:10 0.000235556
*RES
1 *627:Y *124:10 43.8192 
2 *124:10 *628:A 40 
*END

*D_NET *125 0.00292586
*CONN
*I *635:A I *D sg13g2_nor2b_1
*I *641:B1 I *D sg13g2_a21oi_1
*I *638:B1 I *D sg13g2_a21oi_1
*I *639:B1 I *D sg13g2_a21oi_1
*I *628:Y O *D sg13g2_inv_2
*CAP
1 *635:A 0.000193028
2 *641:B1 6.01774e-05
3 *638:B1 0.00020805
4 *639:B1 3.03095e-05
5 *628:Y 2.77263e-05
6 *125:16 0.000517417
7 *125:10 0.000731061
8 *125:6 0.00061258
9 *635:A *634:B1 0
10 *635:A *635:B_N 0
11 *635:A *721:RESET_B 0
12 *635:A *744:D 0
13 *635:A *127:14 0
14 *635:A *438:10 0
15 *638:B1 *639:A1 8.03692e-05
16 *638:B1 *339:12 0
17 *638:B1 *340:8 4.75278e-05
18 *639:B1 *630:B 0
19 *639:B1 *339:12 0
20 *641:B1 *630:A 0.000112558
21 *641:B1 *654:D 9.71568e-05
22 *641:B1 *342:6 1.54008e-05
23 *125:10 *635:B_N 0
24 *125:10 *127:10 0
25 *125:10 *438:10 0
26 *125:16 *630:B 0
27 *125:16 *639:A1 1.54556e-05
28 *125:16 *127:10 0.000177043
29 *125:16 *339:12 0
30 *124:10 *125:10 0
*RES
1 *628:Y *125:6 20.2992 
2 *125:6 *125:10 23.6784 
3 *125:10 *125:16 22.3144 
4 *125:16 *639:B1 20.2992 
5 *125:16 *638:B1 21.5664 
6 *125:10 *641:B1 40.6424 
7 *125:6 *635:A 21.6808 
*END

*D_NET *126 0.00228914
*CONN
*I *634:A1 I *D sg13g2_a21oi_1
*I *631:A I *D sg13g2_nor2_1
*I *629:Y O *D sg13g2_inv_1
*CAP
1 *634:A1 0.000127223
2 *631:A 0.000108576
3 *629:Y 0.000756121
4 *126:8 0.00099192
5 *631:A *631:B 0
6 *631:A *635:B_N 0
7 *631:A *654:A 0
8 *631:A *346:52 8.02595e-05
9 *634:A1 *631:B 0.000194127
10 *634:A1 *634:B1 1.54556e-05
11 *634:A1 *127:14 1.54556e-05
12 *634:A1 *346:52 0
13 *126:8 *635:B_N 0
14 *126:8 *752:D 0
15 *126:8 *867:A 0
16 *126:8 *326:42 0
17 *126:8 *326:66 0
*RES
1 *629:Y *126:8 47.6912 
2 *126:8 *631:A 40.968 
3 *126:8 *634:A1 41.1968 
*END

*D_NET *127 0.00200231
*CONN
*I *631:B I *D sg13g2_nor2_1
*I *634:A2 I *D sg13g2_a21oi_1
*I *630:Y O *D sg13g2_nand2_1
*CAP
1 *631:B 0.000197328
2 *634:A2 0
3 *630:Y 0.000399983
4 *127:14 0.000255262
5 *127:10 0.000457917
6 *631:B *635:B_N 0
7 *631:B *721:RESET_B 0
8 *631:B *744:D 0
9 *127:10 *630:A 0.00012816
10 *127:10 *630:B 0.000177032
11 *127:10 *654:B 0
12 *127:10 *654:A 0
13 *127:10 *346:52 0
14 *127:14 *634:B1 0
15 *127:14 *635:B_N 0
16 *631:A *631:B 0
17 *634:A1 *631:B 0.000194127
18 *634:A1 *127:14 1.54556e-05
19 *635:A *127:14 0
20 *125:10 *127:10 0
21 *125:16 *127:10 0.000177043
*RES
1 *630:Y *127:10 43.8456 
2 *127:10 *127:14 20.4576 
3 *127:14 *634:A2 20 
4 *127:14 *631:B 21.8656 
*END

*D_NET *128 0.00188819
*CONN
*I *632:A I *D sg13g2_inv_1
*I *636:A I *D sg13g2_nand2_1
*I *631:Y O *D sg13g2_nor2_1
*CAP
1 *632:A 0.000373147
2 *636:A 7.1225e-05
3 *631:Y 7.95093e-05
4 *128:8 0.000523882
5 *632:A *654:B 0
6 *632:A *654:C 0
7 *632:A *654:D 0
8 *632:A *142:10 0.00024211
9 *632:A *346:52 0.000598318
10 *636:A *654:C 0
11 *128:8 *634:B1 0
*RES
1 *631:Y *128:8 20.9944 
2 *128:8 *636:A 20.7568 
3 *128:8 *632:A 23.784 
*END

*D_NET *129 0.00137889
*CONN
*I *641:A1 I *D sg13g2_a21oi_1
*I *633:B I *D sg13g2_nor2_1
*I *632:Y O *D sg13g2_inv_1
*CAP
1 *641:A1 0
2 *633:B 0.000182122
3 *632:Y 0
4 *129:21 9.66834e-05
5 *129:4 0.000278805
6 *633:B *634:B1 0
7 *633:B *142:10 0
8 *633:B *346:20 0.000177164
9 *633:B *346:52 3.23417e-05
10 *129:21 *641:A2 8.00954e-05
11 *129:21 *654:D 1.54008e-05
12 *129:21 *342:6 4.77425e-05
13 *129:21 *346:10 0.000234311
14 *129:21 *438:10 0.000234224
*RES
1 *632:Y *129:4 20 
2 *129:4 *633:B 21.496 
3 *129:4 *129:21 41.3904 
4 *129:21 *641:A1 20 
*END

*D_NET *130 0.00140893
*CONN
*I *634:B1 I *D sg13g2_a21oi_1
*I *633:Y O *D sg13g2_nor2_1
*CAP
1 *634:B1 0.000551939
2 *633:Y 0.000551939
3 *634:B1 *142:10 0
4 *634:B1 *346:20 0.000177164
5 *634:B1 *346:52 0.000112437
6 *633:B *634:B1 0
7 *634:A1 *634:B1 1.54556e-05
8 *635:A *634:B1 0
9 *127:14 *634:B1 0
10 *128:8 *634:B1 0
*RES
1 *633:Y *634:B1 44.8048 
*END

*D_NET *131 0.000564333
*CONN
*I *635:B_N I *D sg13g2_nor2b_1
*I *654:A I *D sg13g2_nand4_1
*I *634:Y O *D sg13g2_a21oi_1
*CAP
1 *635:B_N 0.00017489
2 *654:A 0.000107276
3 *634:Y 0
4 *131:6 0.000282166
5 *635:B_N *721:RESET_B 0
6 *631:A *635:B_N 0
7 *631:A *654:A 0
8 *631:B *635:B_N 0
9 *635:A *635:B_N 0
10 *125:10 *635:B_N 0
11 *126:8 *635:B_N 0
12 *127:10 *654:A 0
13 *127:14 *635:B_N 0
*RES
1 *634:Y *131:6 40 
2 *131:6 *654:A 40.9328 
3 *131:6 *635:B_N 41.6016 
*END

*D_NET *132 0.00151789
*CONN
*I *653:A I *D sg13g2_nand2_1
*I *638:A1 I *D sg13g2_a21oi_1
*I *639:A1 I *D sg13g2_a21oi_1
*I *636:Y O *D sg13g2_nand2_1
*CAP
1 *653:A 0.000153978
2 *638:A1 0
3 *639:A1 0.000247313
4 *636:Y 2.77263e-05
5 *132:14 0.000425428
6 *132:6 0.00035982
7 *639:A1 *630:B 1.54556e-05
8 *639:A1 *340:8 4.75278e-05
9 *639:A1 *343:27 0
10 *653:A *654:C 0.000144817
11 *653:A *723:D 0
12 *653:A *343:27 0
13 *132:6 *654:C 0
14 *132:14 *637:B 0
15 *132:14 *343:27 0
16 *132:14 *346:52 0
17 *638:B1 *639:A1 8.03692e-05
18 *125:16 *639:A1 1.54556e-05
*RES
1 *636:Y *132:6 20.2992 
2 *132:6 *132:14 41.5752 
3 *132:14 *639:A1 21.9536 
4 *132:14 *638:A1 20 
5 *132:6 *653:A 21.3816 
*END

*D_NET *133 0.000918133
*CONN
*I *638:A2 I *D sg13g2_a21oi_1
*I *637:Y O *D sg13g2_xnor2_1
*CAP
1 *638:A2 0
2 *637:Y 0.000333311
3 *133:12 0.000333311
4 *133:12 *637:B 0
5 *133:12 *339:12 0.000251511
6 *133:12 *343:23 0
7 *133:12 *344:10 0
*RES
1 *637:Y *133:12 42.8512 
2 *133:12 *638:A2 40 
*END

*D_NET *134 0.00178674
*CONN
*I *641:A2 I *D sg13g2_a21oi_1
*I *640:Y O *D sg13g2_inv_1
*CAP
1 *641:A2 0.000408953
2 *640:Y 0.000408953
3 *641:A2 *640:A 0.000307238
4 *641:A2 *866:A 0
5 *641:A2 *142:10 0.000209462
6 *641:A2 *428:36 4.79124e-05
7 *641:A2 *428:53 0.000324124
8 *129:21 *641:A2 8.00954e-05
*RES
1 *640:Y *641:A2 44.1976 
*END

*D_NET *135 0.00131011
*CONN
*I *660:B I *D sg13g2_nor2_1
*I *643:B1 I *D sg13g2_a21oi_1
*I *642:Y O *D sg13g2_o21ai_1
*CAP
1 *660:B 0
2 *643:B1 0
3 *642:Y 8.97034e-05
4 *135:26 0.000252686
5 *135:12 0.000279125
6 *135:8 0.000116143
7 *135:8 *642:A1 0.000106064
8 *135:8 *146:14 0
9 *135:8 *369:8 2.20966e-05
10 *135:26 *146:14 0
11 *624:A *135:12 3.24351e-05
12 *624:A *135:26 0.000117698
13 *642:B1 *135:8 7.56308e-05
14 *116:8 *135:8 0
15 *118:31 *135:8 7.51285e-05
16 *118:31 *135:12 1.54008e-05
17 *118:31 *135:26 4.78028e-05
18 *121:14 *135:26 8.0194e-05
*RES
1 *642:Y *135:8 41.144 
2 *135:8 *135:12 20.2728 
3 *135:12 *135:26 42.4992 
4 *135:26 *643:B1 20 
5 *135:12 *660:B 20 
*END

*D_NET *136 0.000757927
*CONN
*I *647:A1 I *D sg13g2_a21oi_1
*I *646:Y O *D sg13g2_inv_1
*CAP
1 *647:A1 0.000111912
2 *646:Y 5.74141e-05
3 *136:8 0.000169327
4 *647:A1 *647:A2 0.000209637
5 *647:A1 *429:27 0.000209637
*RES
1 *646:Y *136:8 40.5104 
2 *136:8 *647:A1 41.1968 
*END

*D_NET *137 0.00120628
*CONN
*I *649:A2 I *D sg13g2_a22oi_1
*I *647:Y O *D sg13g2_a21oi_1
*CAP
1 *649:A2 0
2 *647:Y 0.000293034
3 *137:12 0.000293034
4 *137:12 *647:B1 0.000199575
5 *137:12 *666:B 8.02595e-05
6 *137:12 *667:B1 0
7 *137:12 *429:27 0
8 *53:18 *137:12 0.000340374
*RES
1 *647:Y *137:12 43.036 
2 *137:12 *649:A2 40 
*END

*D_NET *138 0.000490818
*CONN
*I *649:B2 I *D sg13g2_a22oi_1
*I *648:Y O *D sg13g2_a21oi_1
*CAP
1 *649:B2 0.000221453
2 *648:Y 0.000221453
3 *649:B2 *647:B1 0
4 *649:B2 *649:A1 0
5 *649:B2 *792:A 4.79124e-05
6 *649:B2 *174:36 0
*RES
1 *648:Y *649:B2 41.9184 
*END

*D_NET *139 0.00202906
*CONN
*I *651:C I *D sg13g2_nand4_1
*I *650:Y O *D sg13g2_nand2_1
*CAP
1 *651:C 0.000599842
2 *650:Y 0.000599842
3 *651:C *650:B 4.78359e-05
4 *651:C *651:B 4.79124e-05
5 *651:C *651:D 4.78192e-05
6 *611:B1 *651:C 5.49221e-05
7 *105:25 *651:C 0
8 *105:29 *651:C 0
9 *108:33 *651:C 0
10 *111:12 *651:C 0
11 *111:31 *651:C 0
12 *112:20 *651:C 8.0194e-05
13 *112:27 *651:C 0.00055069
*RES
1 *650:Y *651:C 45.3064 
*END

*D_NET *140 0.00101678
*CONN
*I *652:S I *D sg13g2_mux2_1
*I *651:Y O *D sg13g2_nand4_1
*CAP
1 *652:S 3.34444e-05
2 *651:Y 0.000243882
3 *140:12 0.000277326
4 *682:D *652:S 4.77425e-05
5 *22:8 *140:12 7.48178e-05
6 *105:12 *140:12 7.93444e-05
7 *107:20 *140:12 0.000180882
8 *108:14 *140:12 0
9 *111:12 *140:12 7.93444e-05
*RES
1 *651:Y *140:12 42.64 
2 *140:12 *652:S 40.2728 
*END

*D_NET *141 0.00131233
*CONN
*I *654:C I *D sg13g2_nand4_1
*I *653:Y O *D sg13g2_nand2_1
*CAP
1 *654:C 0.000334227
2 *653:Y 0.000334227
3 *654:C *654:B 4.79124e-05
4 *654:C *654:D 1.54556e-05
5 *654:C *343:27 0.000435692
6 *632:A *654:C 0
7 *636:A *654:C 0
8 *653:A *654:C 0.000144817
9 *132:6 *654:C 0
*RES
1 *653:Y *654:C 43.2472 
*END

*D_NET *142 0.00364887
*CONN
*I *655:S I *D sg13g2_mux2_1
*I *654:Y O *D sg13g2_nand4_1
*CAP
1 *655:S 0
2 *654:Y 0.00135642
3 *142:10 0.00135642
4 *142:10 *633:A 4.77425e-05
5 *142:10 *654:D 0
6 *142:10 *655:A0 0
7 *142:10 *747:CLK 0.000436713
8 *142:10 *348:22 0
9 *142:10 *350:14 0
10 *142:10 *428:36 0
11 *142:10 *428:53 0
12 *142:10 *450:10 0
13 *632:A *142:10 0.00024211
14 *633:B *142:10 0
15 *634:B1 *142:10 0
16 *641:A2 *142:10 0.000209462
*RES
1 *654:Y *142:10 31.9592 
2 *142:10 *655:S 20 
*END

*D_NET *143 0.00177489
*CONN
*I *657:C I *D sg13g2_nand4_1
*I *656:Y O *D sg13g2_nand2_1
*CAP
1 *657:C 0.00065387
2 *656:Y 0.00065387
3 *657:C *656:B 0
4 *657:C *736:D 4.79124e-05
5 *657:C *737:D 0
6 *657:C *355:14 0.000114872
7 *657:C *355:42 0.000208884
8 *657:C *358:12 0
9 *596:A *657:C 8.00842e-05
10 *657:A *657:C 1.5393e-05
11 *101:26 *657:C 0
12 *102:10 *657:C 0
13 *102:36 *657:C 0
*RES
1 *656:Y *657:C 45.5748 
*END

*D_NET *144 0.00215375
*CONN
*I *658:S I *D sg13g2_mux2_1
*I *657:Y O *D sg13g2_nand4_1
*CAP
1 *658:S 0.000761414
2 *657:Y 0.000761414
3 *658:S *587:B 0
4 *658:S *658:A0 0.000630923
5 *658:S *736:RESET_B 0
6 *658:S *736:D 0
7 *588:A *658:S 0
8 *598:B1 *658:S 0
9 *657:A *658:S 0
10 *685:D *658:S 0
*RES
1 *657:Y *658:S 46.908 
*END

*D_NET *145 0.000479679
*CONN
*I *661:B I *D sg13g2_nand3_1
*I *659:Y O *D sg13g2_nand2_1
*CAP
1 *661:B 0.00019205
2 *659:Y 0.00019205
3 *661:B *661:A 4.78359e-05
4 *661:B *728:RESET_B 0
5 *661:B *364:14 0
6 *661:B *367:39 4.77425e-05
*RES
1 *659:Y *661:B 41.6808 
*END

*D_NET *146 0.000989211
*CONN
*I *661:C I *D sg13g2_nand3_1
*I *660:Y O *D sg13g2_nor2_1
*CAP
1 *661:C 8.51129e-05
2 *660:Y 0.000315178
3 *146:14 0.000400291
4 *661:C *728:RESET_B 0.000144895
5 *624:A *146:14 4.37334e-05
6 *728:CLK *661:C 0
7 *48:10 *146:14 0
8 *48:43 *146:14 0
9 *118:31 *146:14 0
10 *119:10 *146:14 0
11 *135:8 *146:14 0
12 *135:26 *146:14 0
*RES
1 *660:Y *146:14 42.6488 
2 *146:14 *661:C 40.8272 
*END

*D_NET *147 0.00217081
*CONN
*I *662:S I *D sg13g2_mux2_1
*I *661:Y O *D sg13g2_nand3_1
*CAP
1 *662:S 0.000462942
2 *661:Y 0.000137578
3 *147:8 0.00060052
4 *662:S *728:RESET_B 0
5 *662:S *729:RESET_B 0.000825077
6 *662:S *417:79 0
7 *728:CLK *662:S 0.000144691
8 *48:43 *147:8 0
9 *119:10 *147:8 0
*RES
1 *661:Y *147:8 41.144 
2 *147:8 *662:S 44.708 
*END

*D_NET *148 0.00186247
*CONN
*I *677:A1 I *D sg13g2_o21ai_1
*I *667:A1 I *D sg13g2_o21ai_1
*I *665:Y O *D sg13g2_inv_1
*CAP
1 *677:A1 0.000143979
2 *667:A1 0.000295834
3 *665:Y 3.50637e-05
4 *148:8 0.000474876
5 *667:A1 *647:B1 0.000112018
6 *667:A1 *667:A2 0.000112018
7 *667:A1 *859:A 7.51285e-05
8 *667:A1 *429:38 0.000320048
9 *677:A1 *677:A2 8.01612e-05
10 *677:A1 *697:CLK 0
11 *677:A1 *413:27 3.20656e-05
12 *148:8 *697:CLK 0
13 *28:8 *667:A1 0.00018128
14 *53:18 *667:A1 0
15 *53:18 *677:A1 0
*RES
1 *665:Y *148:8 40.2728 
2 *148:8 *667:A1 43.0536 
3 *148:8 *677:A1 41.364 
*END

*D_NET *149 0.000743237
*CONN
*I *667:B1 I *D sg13g2_o21ai_1
*I *666:Y O *D sg13g2_nand2_1
*CAP
1 *667:B1 0.000243957
2 *666:Y 0.000243957
3 *667:B1 *647:B1 0
4 *667:B1 *667:A2 0.000143728
5 *667:B1 *429:27 0
6 *667:B1 *429:38 0.000111595
7 *137:12 *667:B1 0
*RES
1 *666:Y *667:B1 42.4024 
*END

*D_NET *150 0.00321963
*CONN
*I *678:A1 I *D sg13g2_o21ai_1
*I *670:A1 I *D sg13g2_o21ai_1
*I *668:Y O *D sg13g2_inv_1
*CAP
1 *678:A1 0
2 *670:A1 0
3 *668:Y 0.00020602
4 *150:23 0.000578856
5 *150:8 0.000784876
6 *150:8 reg_rsp_o[16] 0
7 *150:8 *670:A2 1.53311e-05
8 *150:23 reg_rsp_o[16] 0
9 *150:23 *670:B1 0
10 *150:23 *670:A2 0.000439567
11 *150:23 *678:A2 0.000111917
12 *150:23 *889:A 0.000175901
13 *150:23 *430:12 0.000234158
14 *29:10 *150:8 0
15 *35:27 *150:23 0.000529373
16 *53:30 *150:23 0.000143629
*RES
1 *668:Y *150:8 21.6808 
2 *150:8 *670:A1 20 
3 *150:8 *150:23 46.1248 
4 *150:23 *678:A1 20 
*END

*D_NET *151 0.000562128
*CONN
*I *670:B1 I *D sg13g2_o21ai_1
*I *669:Y O *D sg13g2_nand2_1
*CAP
1 *670:B1 0.000249575
2 *669:Y 0.000249575
3 *670:B1 reg_rsp_o[16] 0
4 *670:B1 *670:A2 4.76456e-05
5 *708:D *670:B1 0
6 *29:10 *670:B1 1.53311e-05
7 *150:23 *670:B1 0
*RES
1 *669:Y *670:B1 41.98 
*END

*D_NET *152 0.00111517
*CONN
*I *672:B1 I *D sg13g2_o21ai_1
*I *671:Y O *D sg13g2_nand2_1
*CAP
1 *672:B1 3.84491e-05
2 *671:Y 0.000207336
3 *152:10 0.000245785
4 *672:B1 *672:A2 1.54008e-05
5 *152:10 reg_rsp_o[13] 0.000144942
6 *152:10 *671:A 0
7 *152:10 *784:A 0
8 *152:10 *788:A 4.78356e-05
9 *152:10 *859:A 0
10 *152:10 *289:10 0.000287256
11 *63:8 *152:10 0.00012816
*RES
1 *671:Y *152:10 42.3408 
2 *152:10 *672:B1 40.2728 
*END

*D_NET *153 0.00145748
*CONN
*I *674:B1 I *D sg13g2_o21ai_1
*I *673:Y O *D sg13g2_nand2_1
*CAP
1 *674:B1 0
2 *673:Y 0.000218446
3 *153:8 0.000218446
4 *153:8 *670:A2 7.48842e-05
5 *153:8 *413:66 0.000233959
6 *153:8 *430:12 0.000583163
7 *674:A1 *153:8 0.000128576
*RES
1 *673:Y *153:8 42.8336 
2 *153:8 *674:B1 40 
*END

*D_NET *154 0.00212083
*CONN
*I *677:B1 I *D sg13g2_o21ai_1
*I *676:Y O *D sg13g2_a21oi_1
*CAP
1 *677:B1 0.000427882
2 *676:Y 0.000227148
3 *154:8 0.00065503
4 *677:B1 *664:A0 0
5 *677:B1 *664:A1 0
6 *677:B1 *677:A2 1.54008e-05
7 *677:B1 *697:CLK 0
8 *677:B1 *240:22 0
9 *154:8 *664:A1 0.000290605
10 *92:114 *154:8 0.000504766
*RES
1 *676:Y *154:8 43.256 
2 *154:8 *677:B1 43.784 
*END

*D_NET *155 0.00115695
*CONN
*I *681:A I *D sg13g2_nand3_1
*I *679:Y O *D sg13g2_a22oi_1
*CAP
1 *681:A 0
2 *679:Y 0.000450342
3 *155:10 0.000450342
4 *155:10 *679:B1 4.79124e-05
5 *155:10 *679:A2 0.00012816
6 *155:10 *282:10 0
7 *155:10 *308:8 0
8 *155:10 *409:99 0
9 *49:14 *155:10 0
10 *67:12 *155:10 3.23417e-05
11 *67:24 *155:10 4.78521e-05
*RES
1 *679:Y *155:10 43.7136 
2 *155:10 *681:A 40 
*END

*D_NET *156 0.000336534
*CONN
*I *681:C I *D sg13g2_nand3_1
*I *680:Y O *D sg13g2_nand2_1
*CAP
1 *681:C 0.00012817
2 *680:Y 0.00012817
3 *681:C *680:A 0
4 *681:C *681:B 8.01938e-05
5 *681:C *414:25 0
6 *681:C *440:21 0
*RES
1 *680:Y *681:C 41.1792 
*END

*D_NET *178 0.00323714
*CONN
*P cio_gpio_en_o[0] O
*I *803:X O *D sg13g2_buf_1
*CAP
1 cio_gpio_en_o[0] 0.00145124
2 *803:X 0.000167328
3 *178:10 0.00161857
4 cio_gpio_en_o[0] *181:11 0
5 *178:10 *434:22 0
6 *178:10 *435:32 0
7 cio_gpio_en_o[1] cio_gpio_en_o[0] 0
8 *177:10 *178:10 0
*RES
1 *803:X *178:10 41.3112 
2 *178:10 cio_gpio_en_o[0] 9.548 
*END

*D_NET *177 0.00515105
*CONN
*P cio_gpio_en_o[1] O
*I *802:X O *D sg13g2_buf_1
*CAP
1 cio_gpio_en_o[1] 0.00146365
2 *802:X 0.000837362
3 *177:10 0.00230101
4 cio_gpio_en_o[1] cio_gpio_en_o[0] 0
5 cio_gpio_en_o[1] reg_rsp_o[23] 0
6 cio_gpio_en_o[1] reg_rsp_o[25] 0
7 cio_gpio_en_o[1] *806:A 0
8 *177:10 *774:A 0
9 *177:10 *178:10 0
10 *177:10 *434:8 0
11 *177:10 *434:15 0
12 *177:10 *434:22 0
13 *177:10 *435:32 0
14 *802:A *177:10 0
15 *803:A *177:10 8.00842e-05
16 *157:12 *177:10 0.000468951
17 *158:19 *177:10 0
*RES
1 *802:X *177:10 47.5944 
2 *177:10 cio_gpio_en_o[1] 9.9704 
*END

*D_NET *176 0.00293471
*CONN
*P cio_gpio_en_o[2] O
*I *801:X O *D sg13g2_buf_1
*CAP
1 cio_gpio_en_o[2] 0.00106976
2 *801:X 0.000227894
3 *176:8 0.00129766
4 cio_gpio_en_o[2] *191:9 0
5 cio_gpio_en_o[2] *215:9 0
6 *176:8 *435:16 0.000339399
7 *801:A *176:8 0
*RES
1 *801:X *176:8 41.936 
2 *176:8 cio_gpio_en_o[2] 8.7032 
*END

*D_NET *175 0.00343178
*CONN
*P cio_gpio_en_o[3] O
*I *800:X O *D sg13g2_buf_1
*CAP
1 cio_gpio_en_o[3] 0.00114441
2 *800:X 0.000206948
3 *175:8 0.00135136
4 cio_gpio_en_o[3] cio_gpio_o[3] 0
5 cio_gpio_en_o[3] *911:A 0
6 cio_gpio_en_o[3] *222:11 0
7 cio_gpio_en_o[3] *435:10 0.000342145
8 *175:8 *547:A 4.74163e-05
9 *175:8 *193:19 0.000339507
10 *175:8 *216:11 0
11 *175:8 *222:11 0
12 *796:A *175:8 0
*RES
1 *800:X *175:8 41.936 
2 *175:8 cio_gpio_en_o[3] 9.7592 
*END

*D_NET *221 0.00175005
*CONN
*P cio_gpio_i[0] I
*I *884:A I *D sg13g2_dlygate4sd3_1
*CAP
1 cio_gpio_i[0] 0.000875023
2 *884:A 0.000875023
*RES
1 cio_gpio_i[0] *884:A 29.3016 
*END

*D_NET *220 0.00182945
*CONN
*P cio_gpio_i[1] I
*I *882:A I *D sg13g2_dlygate4sd3_1
*CAP
1 cio_gpio_i[1] 0.000914725
2 *882:A 0.000914725
3 *882:A *836:A 0
*RES
1 cio_gpio_i[1] *882:A 49.0552 
*END

*D_NET *219 0.00242743
*CONN
*P cio_gpio_i[2] I
*I *880:A I *D sg13g2_dlygate4sd3_1
*CAP
1 cio_gpio_i[2] 0.00110874
2 *880:A 0.00110874
3 *881:A *880:A 0
4 *218:11 *880:A 0.00020995
*RES
1 cio_gpio_i[2] *880:A 49.4248 
*END

*D_NET *218 0.00305371
*CONN
*P cio_gpio_i[3] I
*I *878:A I *D sg13g2_dlygate4sd3_1
*CAP
1 cio_gpio_i[3] 0.00142188
2 *878:A 0
3 *218:11 0.00142188
4 *218:11 *834:A 0
5 *218:11 *880:A 0.00020995
6 *881:A *218:11 0
*RES
1 cio_gpio_i[3] *218:11 32.4696 
2 *218:11 *878:A 20 
*END

*D_NET *171 0.00223578
*CONN
*P cio_gpio_o[0] O
*I *799:X O *D sg13g2_buf_1
*CAP
1 cio_gpio_o[0] 0.00110669
2 *799:X 0.00110669
3 cio_gpio_o[0] reg_rsp_o[10] 2.2407e-05
4 cio_gpio_o[0] *191:9 0
*RES
1 *799:X cio_gpio_o[0] 48.492 
*END

*D_NET *378 0.00259113
*CONN
*P cio_gpio_o[1] O
*I *798:X O *D sg13g2_buf_1
*CAP
1 cio_gpio_o[1] 0.00119082
2 *798:X 0.00119082
3 cio_gpio_o[1] reg_rsp_o[3] 0
4 cio_gpio_o[1] *909:A 0
5 cio_gpio_o[1] *435:16 0.000209483
6 *181:11 cio_gpio_o[1] 0
*RES
1 *798:X cio_gpio_o[1] 49.9 
*END

*D_NET *377 0.00241569
*CONN
*P cio_gpio_o[2] O
*I *797:X O *D sg13g2_buf_1
*CAP
1 cio_gpio_o[2] 0.000930349
2 *797:X 0.000930349
3 cio_gpio_o[2] *468:10 0.000554992
4 *903:A cio_gpio_o[2] 0
*RES
1 *797:X cio_gpio_o[2] 49.9704 
*END

*D_NET *376 0.00239973
*CONN
*P cio_gpio_o[3] O
*I *796:X O *D sg13g2_buf_1
*CAP
1 cio_gpio_o[3] 0.00119987
2 *796:X 0.00119987
3 cio_gpio_en_o[3] cio_gpio_o[3] 0
4 *222:11 cio_gpio_o[3] 0
*RES
1 *796:X cio_gpio_o[3] 47.8584 
*END

*D_NET *169 0.0113713
*CONN
*P clk_i I
*I *856:A I *D sg13g2_buf_4
*CAP
1 clk_i 0.00322064
2 *856:A 0.000104807
3 *169:34 0.000429636
4 *169:26 0.00117552
5 *169:20 0.00176191
6 *169:12 0.0011847
7 *169:6 0.00349411
8 *856:A *250:20 0
9 *856:A *420:22 0
10 *169:6 *238:8 0
11 *169:6 *316:8 0
12 *169:6 *416:63 0
13 *169:6 *420:73 0
14 *169:6 *425:20 0
15 *169:6 *425:53 0
16 *169:6 *461:14 0
17 *169:20 *481:S 0
18 *169:20 *230:10 0
19 *169:20 *336:30 0
20 *169:20 *336:45 0
21 *169:20 *420:22 0
22 *169:26 *328:12 0
23 *169:34 *601:A 0
24 *169:34 *250:20 0
25 *169:34 *420:22 0
26 *703:D *169:20 0
27 *39:12 *169:6 0
28 *107:20 *169:20 0
*RES
1 clk_i *169:6 30.0344 
2 *169:6 *169:12 42.6752 
3 *169:12 *169:20 47.8056 
4 *169:20 *169:26 49.1432 
5 *169:26 *169:34 22.6928 
6 *169:34 *856:A 20.8272 
*END

*D_NET *427 0.0348974
*CONN
*I *869:A I *D sg13g2_buf_8
*I *871:A I *D sg13g2_buf_8
*I *870:A I *D sg13g2_buf_8
*I *868:A I *D sg13g2_buf_8
*I *855:A I *D sg13g2_buf_8
*I *853:A I *D sg13g2_buf_8
*I *507:A I *D sg13g2_buf_8
*I *501:A I *D sg13g2_buf_8
*I *841:A I *D sg13g2_buf_8
*I *851:A I *D sg13g2_buf_8
*I *862:A I *D sg13g2_buf_8
*I *854:A I *D sg13g2_buf_8
*I *857:A I *D sg13g2_buf_8
*I *865:A I *D sg13g2_buf_8
*I *852:A I *D sg13g2_buf_8
*I *840:A I *D sg13g2_buf_8
*I *856:X O *D sg13g2_buf_4
*CAP
1 *869:A 0.000157293
2 *871:A 0
3 *870:A 8.44371e-05
4 *868:A 0
5 *855:A 0
6 *853:A 0.000115693
7 *507:A 0
8 *501:A 0
9 *841:A 0
10 *851:A 0
11 *862:A 0
12 *854:A 0.000152574
13 *857:A 0
14 *865:A 0
15 *852:A 8.92366e-05
16 *840:A 0.000116476
17 *856:X 9.65587e-05
18 *427:310 0.000552816
19 *427:294 0.0010113
20 *427:282 0.000771941
21 *427:270 0.0015924
22 *427:263 0.000406384
23 *427:256 0.000236648
24 *427:250 0.000877705
25 *427:234 0.000970389
26 *427:220 0.000220115
27 *427:214 0.00149169
28 *427:206 0.00186421
29 *427:187 0.000518508
30 *427:185 0.00197865
31 *427:172 0.00156491
32 *427:165 0.000235255
33 *427:159 0.000455827
34 *427:149 0.000947308
35 *427:117 0.000609352
36 *427:115 0.00131472
37 *427:106 0.00096663
38 *427:104 0.000108688
39 *427:100 0.00112836
40 *427:88 0.00112695
41 *427:86 0.0026073
42 *427:79 0.000435843
43 *427:77 0.000194895
44 *427:73 0.00120354
45 *427:64 0.00120941
46 *427:55 0.000233727
47 *427:51 0.000738783
48 *427:39 0.00101652
49 *427:19 0.000343425
50 *427:17 0.0020126
51 *427:13 0.00159784
52 *427:8 0.00152502
53 *853:A *561:B1 0
54 *854:A *461:14 1.54556e-05
55 *870:A *441:44 0
56 *427:13 *751:CLK 0
57 *427:39 *469:8 0
58 *427:55 *737:CLK 0
59 *427:64 *436:24 0
60 *427:73 *721:CLK 0
61 *427:73 *436:24 0
62 *427:73 *436:32 0
63 *427:86 *748:RESET_B 0
64 *427:88 *748:RESET_B 0
65 *427:88 *437:36 0
66 *427:88 *437:47 0
67 *427:100 *748:RESET_B 0
68 *427:106 *682:CLK 0
69 *427:106 *433:21 0
70 *427:117 *511:B1 0
71 *427:117 *461:14 0
72 *427:149 *568:A 0
73 *427:149 *737:CLK 0
74 *427:214 *706:D 0
75 *427:214 *471:10 0
76 *427:220 *561:B1 0
77 *427:220 *471:10 0
78 *427:234 *431:8 0
79 *427:234 *471:10 0
80 *427:250 *567:B1 0
81 *427:250 *702:D 0
82 *427:250 *706:CLK 0
83 *427:250 *439:6 0
84 *427:256 *439:6 0
85 *427:263 *439:29 0
86 *427:270 *429:16 0
87 *427:270 *439:29 0
88 *427:282 *429:16 0
89 *427:282 *429:68 0
90 *427:282 *441:44 0
91 *427:294 *712:CLK 0
92 *427:294 *429:16 0
93 *427:294 *439:40 0
94 *427:294 *440:12 0
95 *480:A0 *427:100 0
96 *480:A1 *427:100 0
97 *484:A1 *427:282 0
98 *484:B1 *427:282 0
99 *511:A2 *427:117 0
100 *536:A1 *427:310 0
101 *561:A2 *853:A 0
102 *561:A2 *427:220 0
103 *590:A *427:159 0
104 *645:S *427:185 0
105 *696:D *427:250 0
106 *702:RESET_B *427:250 0
107 *714:RESET_B *427:19 0
108 *714:RESET_B *427:39 0
109 *714:CLK *427:17 0
110 *714:CLK *427:39 0
111 *715:CLK *427:39 0
112 *719:RESET_B *427:250 0
113 *719:RESET_B *427:256 0
114 *719:RESET_B *427:263 0
115 *719:RESET_B *427:270 0
116 *719:D *427:282 0
117 *720:D *427:282 0
118 *736:CLK *427:185 0
119 *737:D *427:149 0
120 *748:CLK *427:79 0
121 *748:CLK *427:86 0
122 *752:RESET_B *427:73 0
123 *752:CLK *427:73 0
124 *752:CLK *427:77 0
125 *752:CLK *427:79 0
126 *753:RESET_B *427:214 0
127 *753:CLK *427:214 0
128 *757:RESET_B *427:19 0
129 *757:D *840:A 0
130 *757:D *427:19 0
131 *757:CLK *840:A 0
132 *757:CLK *427:19 0
133 *850:A *427:206 0
134 *860:A *427:214 0
135 *860:A *427:250 0
136 *860:A *427:256 0
137 *875:A *427:185 0
138 *1:10 *427:294 0
139 *3:10 *427:234 0
140 *15:8 *427:115 0
141 *53:87 *427:310 0
142 *54:6 *427:185 0
143 *54:21 *427:185 0
144 *56:12 *427:117 0
145 *58:8 *427:115 0
146 *67:24 *869:A 0
147 *67:24 *427:310 0
148 *79:39 *427:214 0
149 *92:106 *869:A 0
150 *92:106 *427:310 0
151 *101:26 *427:149 0
152 *124:10 *427:73 0
153 *124:10 *427:77 0
154 *172:8 *427:100 0
155 *172:12 *427:106 0
156 *182:8 *427:100 0
157 *182:36 *427:234 0
158 *185:12 *870:A 0
159 *185:12 *427:282 0
160 *223:29 *427:234 0
161 *235:12 *427:282 0
162 *235:12 *427:294 0
163 *250:20 *427:149 0
164 *257:18 *427:149 0
165 *279:20 *427:234 0
166 *284:25 *427:117 0
167 *297:8 *427:159 0
168 *297:16 *427:39 0
169 *319:8 *427:13 0
170 *319:8 *427:17 0
171 *319:19 *427:206 0
172 *319:19 *427:250 0
173 *319:47 *427:263 0
174 *319:49 *427:270 0
175 *324:8 *427:282 0
176 *326:16 *427:73 0
177 *326:42 *427:55 0
178 *326:42 *427:64 0
179 *326:42 *427:73 0
180 *326:42 *427:149 0
181 *326:50 *427:17 0
182 *336:8 *427:86 0
183 *336:19 *427:100 0
184 *336:30 *427:100 0
185 *350:14 *427:88 0
186 *350:14 *427:100 0
187 *351:8 *427:39 0
188 *356:12 *427:159 0
189 *356:12 *427:165 0
190 *356:12 *427:172 0
191 *356:12 *427:185 0
192 *379:31 *427:115 0
193 *389:8 *427:39 0
194 *404:8 *427:294 0
195 *409:10 *427:310 0
196 *412:8 *427:172 0
197 *412:8 *427:185 0
198 *412:25 *427:185 0
199 *415:8 *427:234 0
200 *417:10 *427:39 0
201 *417:21 *852:A 0
202 *419:16 *427:214 0
203 *419:16 *427:250 0
204 *420:10 *427:13 0
205 *420:22 *427:8 0
206 *423:8 *852:A 0
207 *423:8 *427:39 0
208 *424:50 *427:8 0
209 *425:20 *427:117 0
*RES
1 *856:X *427:8 40.6424 
2 *427:8 *427:13 6.6352 
3 *427:13 *427:17 28.3248 
4 *427:17 *427:19 1.936 
5 *427:19 *840:A 21.012 
6 *427:17 *427:39 47.1544 
7 *427:39 *852:A 20.8272 
8 *427:13 *427:51 20 
9 *427:51 *427:55 1.012 
10 *427:55 *865:A 20 
11 *427:55 *427:64 1.1264 
12 *427:64 *427:73 9.0024 
13 *427:73 *427:77 1.012 
14 *427:77 *427:79 0.8272 
15 *427:79 *427:86 22.6752 
16 *427:86 *427:88 8.536 
17 *427:88 *857:A 40 
18 *427:86 *427:100 10.4368 
19 *427:100 *427:104 20 
20 *427:104 *427:106 0.8272 
21 *427:106 *427:115 48.3248 
22 *427:115 *427:117 3.5992 
23 *427:117 *854:A 21.3112 
24 *427:104 *862:A 20 
25 *427:77 *851:A 20 
26 *427:51 *427:149 45.5704 
27 *427:149 *427:159 42.6928 
28 *427:159 *427:165 1.3376 
29 *427:165 *841:A 20 
30 *427:165 *427:172 1.012 
31 *427:172 *427:185 32.7864 
32 *427:185 *427:187 4.7344 
33 *427:187 *501:A 40 
34 *427:185 *507:A 40 
35 *427:8 *427:206 5.7904 
36 *427:206 *427:214 23.4584 
37 *427:214 *427:220 1.0296 
38 *427:220 *853:A 21.012 
39 *427:214 *427:234 28.1136 
40 *427:234 *855:A 40 
41 *427:206 *427:250 26.2216 
42 *427:250 *427:256 1.1264 
43 *427:256 *868:A 20 
44 *427:256 *427:263 1.012 
45 *427:263 *427:270 22.4904 
46 *427:270 *427:282 26.4064 
47 *427:282 *870:A 20.8272 
48 *427:270 *427:294 6.2128 
49 *427:294 *871:A 40 
50 *427:294 *427:310 23.4496 
51 *427:310 *869:A 21.3376 
*END

*D_NET *428 0.00560302
*CONN
*I *745:CLK I *D sg13g2_dfrbpq_1
*I *740:CLK I *D sg13g2_dfrbpq_1
*I *741:CLK I *D sg13g2_dfrbpq_1
*I *747:CLK I *D sg13g2_dfrbpq_1
*I *739:CLK I *D sg13g2_dfrbpq_1
*I *857:X O *D sg13g2_buf_8
*CAP
1 *745:CLK 0.000187054
2 *740:CLK 0.000184325
3 *741:CLK 0
4 *747:CLK 0.000258903
5 *739:CLK 0.000186259
6 *857:X 0.000629796
7 *428:53 0.000985789
8 *428:42 0.000324632
9 *428:36 0.00112367
10 *739:CLK *437:14 0
11 *739:CLK *437:29 0
12 *740:CLK *438:12 0
13 *747:CLK *437:29 0
14 *428:36 *437:8 0
15 *428:42 *437:36 0
16 *428:53 *438:12 0
17 *633:A *428:53 4.77425e-05
18 *640:A *428:53 0.00012816
19 *641:A2 *428:36 4.79124e-05
20 *641:A2 *428:53 0.000324124
21 *741:D *428:42 0.000182109
22 *142:10 *747:CLK 0.000436713
23 *142:10 *428:36 0
24 *142:10 *428:53 0
25 *346:10 *428:53 0
26 *346:20 *428:42 0
27 *348:33 *428:42 0.000555823
*RES
1 *857:X *739:CLK 41.892 
2 *857:X *747:CLK 43.1592 
3 *857:X *428:36 21.496 
4 *428:36 *428:42 44.1008 
5 *428:42 *741:CLK 20 
6 *428:36 *428:53 26.248 
7 *428:53 *740:CLK 41.9888 
8 *428:53 *745:CLK 41.5664 
*END

*D_NET *48 0.00636077
*CONN
*I *729:CLK I *D sg13g2_dfrbpq_1
*I *728:CLK I *D sg13g2_dfrbpq_1
*I *730:CLK I *D sg13g2_dfrbpq_1
*I *731:CLK I *D sg13g2_dfrbpq_1
*I *726:CLK I *D sg13g2_dfrbpq_1
*I *501:X O *D sg13g2_buf_8
*CAP
1 *729:CLK 0.000428699
2 *728:CLK 0.000619423
3 *730:CLK 0
4 *731:CLK 0.000445121
5 *726:CLK 0
6 *501:X 0
7 *48:43 0.00126972
8 *48:27 0.000591429
9 *48:20 0.000677421
10 *48:10 0.0013932
11 *48:6 0.000791067
12 *728:CLK *625:A 0
13 *728:CLK *626:A1 0
14 *728:CLK *661:C 0
15 *728:CLK *661:A 0
16 *728:CLK *662:S 0.000144691
17 *728:CLK *728:RESET_B 0
18 *728:CLK *729:RESET_B 0
19 *728:CLK *364:14 0
20 *728:CLK *368:12 0
21 *729:CLK *119:10 0
22 *729:CLK *368:8 0
23 *731:CLK *731:RESET_B 0
24 *48:10 *146:14 0
25 *48:10 *369:8 0
26 *48:20 *365:8 0
27 *48:43 *119:10 0
28 *48:43 *146:14 0
29 *48:43 *147:8 0
*RES
1 *501:X *48:6 40 
2 *48:6 *48:10 25.368 
3 *48:10 *48:20 46.0456 
4 *48:20 *726:CLK 20 
5 *48:10 *48:27 1.3816 
6 *48:27 *731:CLK 24.3472 
7 *48:27 *730:CLK 20 
8 *48:6 *48:43 1.9888 
9 *48:43 *728:CLK 44.708 
10 *48:43 *729:CLK 43.7928 
*END

*D_NET *412 0.00809697
*CONN
*I *701:CLK I *D sg13g2_dfrbpq_1
*I *708:CLK I *D sg13g2_dfrbpq_1
*I *875:A I *D sg13g2_inv_1
*I *727:CLK I *D sg13g2_dfrbpq_1
*I *685:CLK I *D sg13g2_dfrbpq_1
*I *841:X O *D sg13g2_buf_8
*CAP
1 *701:CLK 0
2 *708:CLK 0
3 *875:A 0.000207215
4 *727:CLK 0
5 *685:CLK 0.000192505
6 *841:X 0.000566718
7 *412:66 0.000259969
8 *412:53 0.000651584
9 *412:31 0.000450513
10 *412:25 0.00105986
11 *412:10 0.000659809
12 *412:8 0.0010235
13 *875:A *427:185 0
14 *412:8 *421:31 0
15 *412:8 *427:172 0
16 *412:8 *427:185 0
17 *412:25 *427:185 0
18 *412:53 *704:RESET_B 0.000182216
19 *412:53 *708:RESET_B 0.000342629
20 *412:53 *421:57 0
21 *412:66 *701:RESET_B 0
22 *412:66 *421:57 0
23 reg_rsp_o[16] *875:A 0
24 *645:A1 *412:25 0
25 *645:S *412:25 0.000112426
26 *658:A1 *685:CLK 0
27 *658:A1 *412:10 0
28 *668:A *875:A 0
29 *684:D *685:CLK 0
30 *839:A *412:53 0.000208104
31 *839:A *412:66 0.000337375
32 *35:14 *412:66 0.00029194
33 *54:6 *685:CLK 4.77534e-05
34 *174:12 *412:66 0.00029194
35 *372:42 *412:31 0.00121091
36 *374:12 *412:25 0
37 *374:18 *685:CLK 0
38 *374:18 *412:10 0
*RES
1 *841:X *412:8 44.8928 
2 *412:8 *412:10 0.7216 
3 *412:10 *685:CLK 41.8392 
4 *412:10 *412:25 23.2296 
5 *412:25 *412:31 45.7904 
6 *412:31 *727:CLK 20 
7 *412:25 *875:A 21.8656 
8 *412:8 *412:53 24.3032 
9 *412:53 *708:CLK 20 
10 *412:53 *412:66 43.08 
11 *412:66 *701:CLK 20 
*END

*D_NET *439 0.00538829
*CONN
*I *712:CLK I *D sg13g2_dfrbpq_1
*I *696:CLK I *D sg13g2_dfrbpq_1
*I *755:CLK I *D sg13g2_dfrbpq_1
*I *706:CLK I *D sg13g2_dfrbpq_1
*I *702:CLK I *D sg13g2_dfrbpq_1
*I *868:X O *D sg13g2_buf_8
*CAP
1 *712:CLK 3.51376e-05
2 *696:CLK 0.000387744
3 *755:CLK 0.000560481
4 *706:CLK 0.000209782
5 *702:CLK 2.77263e-05
6 *868:X 0.000449261
7 *439:40 0.000564463
8 *439:29 0.000837662
9 *439:6 0.000551168
10 *486:A1 *755:CLK 0
11 *553:A0 *696:CLK 0
12 *696:D *439:6 0
13 *860:A *706:CLK 0.000339053
14 *860:A *439:6 0.00050132
15 *1:10 *712:CLK 0.000106566
16 *1:10 *755:CLK 0.000128662
17 *1:10 *439:40 0.000479778
18 *319:47 *439:29 0.000209483
19 *324:8 *755:CLK 0
20 *415:110 *696:CLK 0
21 *415:110 *755:CLK 0
22 *427:250 *706:CLK 0
23 *427:250 *439:6 0
24 *427:256 *439:6 0
25 *427:263 *439:29 0
26 *427:270 *439:29 0
27 *427:294 *712:CLK 0
28 *427:294 *439:40 0
29 *429:16 *755:CLK 0
30 *429:68 *755:CLK 0
*RES
1 *868:X *439:6 22.86 
2 *439:6 *702:CLK 20.2992 
3 *439:6 *706:CLK 21.936 
4 *868:X *439:29 41.1968 
5 *439:29 *755:CLK 44.1008 
6 *439:29 *439:40 1.9888 
7 *439:40 *696:CLK 43.4144 
8 *439:40 *712:CLK 40.5104 
*END

*D_NET *440 0.00657231
*CONN
*I *688:CLK I *D sg13g2_dfrbpq_1
*I *686:CLK I *D sg13g2_dfrbpq_1
*I *692:CLK I *D sg13g2_dfrbpq_1
*I *876:A I *D sg13g2_inv_1
*I *713:CLK I *D sg13g2_dfrbpq_1
*I *869:X O *D sg13g2_buf_8
*CAP
1 *688:CLK 0
2 *686:CLK 0.000472772
3 *692:CLK 2.70103e-05
4 *876:A 0.000235609
5 *713:CLK 0
6 *869:X 0
7 *440:38 0.000870625
8 *440:25 0.000804469
9 *440:21 0.000877732
10 *440:12 0.000738845
11 *440:4 0.00141856
12 *686:CLK *468:10 0
13 *876:A *468:10 0
14 *440:12 *720:CLK 0
15 *440:12 *442:10 0
16 *440:38 *468:10 0
17 *544:B *686:CLK 0
18 *580:A *686:CLK 0
19 *681:C *440:21 0
20 *764:A *440:21 8.01773e-05
21 *801:A *686:CLK 0
22 *49:33 *440:25 0
23 *53:87 *440:12 0
24 *78:21 *440:21 0
25 *79:12 *440:21 0
26 *92:20 *440:25 0
27 *92:91 *876:A 0.000234224
28 *159:8 *686:CLK 0
29 *215:9 *686:CLK 0
30 *235:12 *440:12 0
31 *236:12 *440:12 0
32 *244:10 *686:CLK 0
33 *244:10 *440:38 0
34 *296:12 *440:21 0.000208975
35 *296:31 *440:21 0
36 *405:10 *440:12 0.000555571
37 *409:99 *440:12 0
38 *414:25 *440:21 0
39 *414:27 *440:21 0
40 *415:31 *686:CLK 0
41 *415:31 *440:38 0
42 *415:37 *876:A 4.77425e-05
43 *415:37 *440:38 0
44 *415:64 *440:21 0
45 *427:294 *440:12 0
46 *435:16 *686:CLK 0
*RES
1 *869:X *440:4 20 
2 *440:4 *440:12 46.5384 
3 *440:12 *713:CLK 20 
4 *440:4 *440:21 5.7464 
5 *440:21 *440:25 21.7512 
6 *440:25 *876:A 42.2616 
7 *440:25 *440:38 3.256 
8 *440:38 *692:CLK 40.2728 
9 *440:38 *686:CLK 44.532 
10 *440:21 *688:CLK 20 
*END

*D_NET *441 0.00755555
*CONN
*I *719:CLK I *D sg13g2_dfrbpq_1
*I *704:CLK I *D sg13g2_dfrbpq_1
*I *705:CLK I *D sg13g2_dfrbpq_1
*I *709:CLK I *D sg13g2_dfrbpq_1
*I *756:CLK I *D sg13g2_dfrbpq_1
*I *870:X O *D sg13g2_buf_8
*CAP
1 *719:CLK 0.000517142
2 *704:CLK 0.000637428
3 *705:CLK 0.000658237
4 *709:CLK 0
5 *756:CLK 0
6 *870:X 0.000358257
7 *441:44 0.00130144
8 *441:21 0.000198968
9 *441:15 0.00101571
10 *441:8 0.000369894
11 *719:CLK *720:CLK 0
12 *522:A *705:CLK 0.000242181
13 *527:A *705:CLK 0
14 *649:A1 *705:CLK 0
15 *720:D *441:44 0.000242154
16 *792:A *705:CLK 0
17 *870:A *441:44 0
18 *64:8 *704:CLK 0
19 *185:12 *441:8 0
20 *224:12 *704:CLK 0
21 *235:12 *704:CLK 0
22 *235:12 *719:CLK 0
23 *236:12 *719:CLK 8.00842e-05
24 *288:18 *704:CLK 0
25 *319:49 *719:CLK 0.000274583
26 *319:62 *719:CLK 0.000414527
27 *415:129 *704:CLK 0
28 *421:76 *705:CLK 0.000905813
29 *421:76 *441:8 8.00842e-05
30 *421:76 *441:15 0.000259051
31 *427:282 *441:44 0
*RES
1 *870:X *441:8 22.1032 
2 *441:8 *756:CLK 20 
3 *441:8 *441:15 1.5664 
4 *441:15 *441:21 41.9888 
5 *441:21 *709:CLK 20 
6 *441:15 *705:CLK 26.6176 
7 *870:X *441:44 41.3816 
8 *441:44 *704:CLK 46.4856 
9 *441:44 *719:CLK 45.1656 
*END

*D_NET *442 0.00833535
*CONN
*I *693:CLK I *D sg13g2_dfrbpq_1
*I *689:CLK I *D sg13g2_dfrbpq_1
*I *720:CLK I *D sg13g2_dfrbpq_1
*I *697:CLK I *D sg13g2_dfrbpq_1
*I *877:A I *D sg13g2_inv_1
*I *871:X O *D sg13g2_buf_8
*CAP
1 *693:CLK 0
2 *689:CLK 0
3 *720:CLK 0.000418653
4 *697:CLK 0.000826523
5 *877:A 0
6 *871:X 0.000709506
7 *442:57 0.00050555
8 *442:49 0.0013013
9 *442:21 0.00150804
10 *442:19 0.00110994
11 *442:10 0.000760832
12 reg_rsp_o[5] *442:57 0
13 *552:A *697:CLK 0
14 *647:A2 *697:CLK 0.000534111
15 *663:A0 *442:49 0
16 *664:A1 *442:21 0
17 *664:A1 *442:49 0
18 *665:A *697:CLK 3.23472e-05
19 *675:A1 *697:CLK 0
20 *675:A1 *442:21 0
21 *675:A1 *442:49 0
22 *676:B1 *442:19 0
23 *677:B1 *697:CLK 0
24 *677:A1 *697:CLK 0
25 *713:D *720:CLK 0
26 *719:CLK *720:CLK 0
27 *796:A *442:57 0
28 *49:10 *442:10 0
29 *49:14 *442:10 0
30 *148:8 *697:CLK 0
31 *168:8 *442:57 0
32 *235:12 *442:10 0
33 *240:22 *697:CLK 0.000307051
34 *245:12 *697:CLK 0.00027388
35 *319:62 *697:CLK 0
36 *405:10 *442:10 4.76053e-05
37 *409:10 *442:10 0
38 *413:27 *697:CLK 0
39 *415:74 *442:57 0
40 *429:27 *697:CLK 0
41 *435:98 *442:49 0
42 *440:12 *720:CLK 0
43 *440:12 *442:10 0
*RES
1 *871:X *442:10 26.2832 
2 *442:10 *877:A 20 
3 *442:10 *442:19 20.4576 
4 *442:19 *442:21 2.8336 
5 *442:21 *697:CLK 48.0256 
6 *442:21 *720:CLK 43.784 
7 *442:19 *442:49 26.9344 
8 *442:49 *442:57 44.4 
9 *442:57 *689:CLK 20 
10 *442:49 *693:CLK 20 
*END

*D_NET *422 0.00398314
*CONN
*I *748:CLK I *D sg13g2_dfrbpq_1
*I *752:CLK I *D sg13g2_dfrbpq_1
*I *683:CLK I *D sg13g2_dfrbpq_1
*I *699:CLK I *D sg13g2_dfrbpq_1
*I *746:CLK I *D sg13g2_dfrbpq_1
*I *851:X O *D sg13g2_buf_8
*CAP
1 *748:CLK 0.00025326
2 *752:CLK 0.000219516
3 *683:CLK 0
4 *699:CLK 0
5 *746:CLK 2.77263e-05
6 *851:X 0.000281482
7 *422:44 0.000472775
8 *422:29 0.000331331
9 *422:14 0.000572753
10 *422:12 0.000543595
11 *422:8 0.000611382
12 *748:CLK *427:79 0
13 *748:CLK *427:86 0
14 *752:CLK *427:73 0
15 *752:CLK *427:77 0
16 *752:CLK *427:79 0
17 *422:14 *746:RESET_B 0
18 *480:A0 *422:8 0
19 *627:A *422:12 0
20 *627:B *422:12 0.000145053
21 *886:A *422:29 0
22 *11:10 *422:29 1.54008e-05
23 *124:10 *422:8 0
24 *336:8 *422:12 0
25 *336:8 *422:14 0
26 *336:19 *422:12 0
27 *347:8 *422:8 0
28 *410:37 *748:CLK 0
29 *420:38 *422:29 0.000508868
*RES
1 *851:X *422:8 42.8336 
2 *422:8 *422:12 22.86 
3 *422:12 *422:14 1.936 
4 *422:14 *746:CLK 20.2992 
5 *422:14 *422:29 43.7664 
6 *422:29 *699:CLK 20 
7 *422:12 *683:CLK 20 
8 *851:X *422:44 20 
9 *422:44 *752:CLK 22.0768 
10 *422:44 *748:CLK 22.4464 
*END

*D_NET *411 0.00336149
*CONN
*I *723:CLK I *D sg13g2_dfrbpq_1
*I *757:CLK I *D sg13g2_dfrbpq_1
*I *742:CLK I *D sg13g2_dfrbpq_1
*I *743:CLK I *D sg13g2_dfrbpq_1
*I *758:CLK I *D sg13g2_dfrbpq_1
*I *840:X O *D sg13g2_buf_8
*CAP
1 *723:CLK 0.000180113
2 *757:CLK 0.000159111
3 *742:CLK 0
4 *743:CLK 0.000247502
5 *758:CLK 0.000118155
6 *840:X 0.000949805
7 *411:58 0.000586658
8 *411:23 0.000432673
9 *411:8 0.000687475
10 *723:CLK *436:32 0
11 *757:CLK *840:A 0
12 *757:CLK *427:19 0
13 *637:B *743:CLK 0
14 *637:B *411:8 0
15 *637:B *411:23 0
16 *721:D *723:CLK 0
17 *246:12 *758:CLK 0
18 *246:12 *411:8 0
19 *246:12 *411:58 0
20 *343:23 *411:8 0
*RES
1 *840:X *411:8 43.8896 
2 *411:8 *758:CLK 41.1792 
3 *411:8 *411:23 21.936 
4 *411:23 *743:CLK 22.4464 
5 *411:23 *742:CLK 20 
6 *840:X *757:CLK 41.3816 
7 *840:X *411:58 44.312 
8 *411:58 *723:CLK 41.5664 
*END

*D_NET *436 0.00481807
*CONN
*I *751:CLK I *D sg13g2_dfrbpq_1
*I *872:A I *D sg13g2_inv_1
*I *721:CLK I *D sg13g2_dfrbpq_1
*I *744:CLK I *D sg13g2_dfrbpq_1
*I *737:CLK I *D sg13g2_dfrbpq_1
*I *865:X O *D sg13g2_buf_8
*CAP
1 *751:CLK 0.000337406
2 *872:A 0
3 *721:CLK 0.000305801
4 *744:CLK 0
5 *737:CLK 0.000148148
6 *865:X 0.000148148
7 *436:32 0.000837529
8 *436:24 0.000868432
9 *436:18 0.00067411
10 *721:D *436:32 0
11 *723:CLK *436:32 0
12 *108:33 *751:CLK 0
13 *109:12 *751:CLK 8.02598e-05
14 *246:12 *751:CLK 0.000963669
15 *246:12 *436:24 0.000454569
16 *246:12 *436:32 0
17 *326:42 *436:24 0
18 *326:42 *436:32 0
19 *427:13 *751:CLK 0
20 *427:55 *737:CLK 0
21 *427:64 *436:24 0
22 *427:73 *721:CLK 0
23 *427:73 *436:24 0
24 *427:73 *436:32 0
25 *427:149 *737:CLK 0
*RES
1 *865:X *737:CLK 41.1968 
2 *865:X *436:18 40 
3 *436:18 *436:24 23.344 
4 *436:24 *436:32 44.5584 
5 *436:32 *744:CLK 20 
6 *436:32 *721:CLK 22.9216 
7 *436:24 *872:A 20 
8 *436:18 *751:CLK 44.3472 
*END

*D_NET *433 0.00564759
*CONN
*I *754:CLK I *D sg13g2_dfrbpq_1
*I *698:CLK I *D sg13g2_dfrbpq_1
*I *703:CLK I *D sg13g2_dfrbpq_1
*I *707:CLK I *D sg13g2_dfrbpq_1
*I *682:CLK I *D sg13g2_dfrbpq_1
*I *862:X O *D sg13g2_buf_8
*CAP
1 *754:CLK 0.000125168
2 *698:CLK 0.000407467
3 *703:CLK 0
4 *707:CLK 0.000402355
5 *682:CLK 0.000601083
6 *862:X 0
7 *433:41 0.000532635
8 *433:25 0.000590804
9 *433:21 0.000370289
10 *433:4 0.000782922
11 *481:A1 *682:CLK 0
12 *520:A *698:CLK 0.000454162
13 *694:D *682:CLK 0
14 *754:RESET_B *698:CLK 7.62389e-05
15 *754:RESET_B *754:CLK 5.38157e-05
16 *754:RESET_B *433:25 4.77425e-05
17 *172:12 *433:21 0
18 *172:18 *707:CLK 0
19 *172:18 *433:25 0
20 *230:10 *698:CLK 0.000238126
21 *242:12 *707:CLK 0.000241973
22 *311:6 *707:CLK 0
23 *379:16 *682:CLK 0
24 *379:16 *433:21 0.000273979
25 *379:16 *433:25 4.77425e-05
26 *379:31 *754:CLK 0.000401086
27 *420:63 *707:CLK 0
28 *427:106 *682:CLK 0
29 *427:106 *433:21 0
*RES
1 *862:X *433:4 20 
2 *433:4 *682:CLK 25.7376 
3 *433:4 *433:21 1.8656 
4 *433:21 *433:25 1.8656 
5 *433:25 *707:CLK 23.7136 
6 *433:25 *703:CLK 20 
7 *433:21 *433:41 20 
8 *433:41 *698:CLK 44.9456 
9 *433:41 *754:CLK 41.7776 
*END

*D_NET *425 0.00679696
*CONN
*I *690:CLK I *D sg13g2_dfrbpq_1
*I *691:CLK I *D sg13g2_dfrbpq_1
*I *695:CLK I *D sg13g2_dfrbpq_1
*I *718:CLK I *D sg13g2_dfrbpq_1
*I *873:A I *D sg13g2_inv_1
*I *854:X O *D sg13g2_buf_8
*CAP
1 *690:CLK 0.000167518
2 *691:CLK 0
3 *695:CLK 0.000367358
4 *718:CLK 0
5 *873:A 0
6 *854:X 0
7 *425:53 0.000752469
8 *425:33 0.000516002
9 *425:20 0.00127767
10 *425:8 0.00121979
11 *425:6 0.000675712
12 *695:CLK *461:14 0.000209637
13 *425:20 *511:B1 0
14 *425:20 *575:A 3.89325e-05
15 *425:20 *427:117 0
16 *425:20 *461:14 0.000533952
17 *425:33 *511:B1 0
18 *575:B *425:20 0
19 *582:A1 *425:53 0
20 *690:RESET_B *690:CLK 0
21 *691:RESET_B *690:CLK 0
22 *691:RESET_B *425:53 0
23 *2:8 *425:33 0
24 *56:12 *425:8 0.000343849
25 *56:12 *425:20 0.0001811
26 *56:12 *425:53 7.59494e-05
27 *90:10 *425:20 0
28 *92:52 *425:33 0
29 *92:66 *425:33 0
30 *158:19 *425:53 0
31 *169:6 *425:20 0
32 *169:6 *425:53 0
33 *234:28 *425:33 0
34 *280:18 *425:33 0
35 *284:8 *425:20 0
36 *315:18 *425:20 0.00042162
37 *390:6 *695:CLK 0
38 *390:6 *425:20 1.54008e-05
39 *416:32 *425:33 0
40 *416:46 *425:20 0
*RES
1 *854:X *425:6 40 
2 *425:6 *425:8 1.3552 
3 *425:8 *425:20 27.04 
4 *425:20 *873:A 20 
5 *425:20 *425:33 44.3472 
6 *425:33 *718:CLK 20 
7 *425:8 *695:CLK 43.0448 
8 *425:6 *425:53 26.1952 
9 *425:53 *691:CLK 20 
10 *425:53 *690:CLK 21.5664 
*END

*D_NET *424 0.0106938
*CONN
*I *750:CLK I *D sg13g2_dfrbpq_1
*I *749:CLK I *D sg13g2_dfrbpq_1
*I *700:CLK I *D sg13g2_dfrbpq_1
*I *694:CLK I *D sg13g2_dfrbpq_1
*I *753:CLK I *D sg13g2_dfrbpq_1
*I *853:X O *D sg13g2_buf_8
*CAP
1 *750:CLK 0.000187147
2 *749:CLK 0
3 *700:CLK 4.72978e-05
4 *694:CLK 0.000385334
5 *753:CLK 0.000430318
6 *853:X 2.77263e-05
7 *424:50 0.00113831
8 *424:38 0.00146701
9 *424:30 0.000796682
10 *424:17 0.000920259
11 *424:6 0.000759435
12 *753:CLK *427:214 0
13 *424:50 *427:8 0
14 *424:50 *429:91 0
15 *601:A *424:38 0
16 *682:RESET_B *750:CLK 0
17 *844:A *424:17 0
18 *844:A *424:30 0.000235055
19 *860:A *753:CLK 0
20 *43:26 *424:30 0.000928707
21 *107:12 *424:38 0.00024211
22 *107:20 *424:38 4.77425e-05
23 *108:33 *424:38 0
24 *108:33 *424:50 1.54556e-05
25 *109:12 *424:50 0
26 *112:27 *424:50 0.000274561
27 *113:10 *424:38 0.000502289
28 *182:12 *694:CLK 0
29 *182:19 *694:CLK 0
30 *326:85 *750:CLK 0
31 *326:85 *424:38 0.000339267
32 *326:85 *424:50 0.000179542
33 *331:33 *424:50 0
34 *332:10 *694:CLK 0
35 *332:10 *424:30 0
36 *332:27 *424:38 0
37 *379:10 *424:30 0.000480193
38 *379:10 *424:38 0.000555321
39 *379:16 *750:CLK 0
40 *379:47 *424:30 0.000394566
41 *379:55 *753:CLK 0
42 *379:55 *424:17 0
43 *410:37 *424:50 0
44 *415:110 *753:CLK 0
45 *419:38 *753:CLK 0
46 *419:38 *424:17 0
47 *420:22 *424:50 0.000339442
*RES
1 *853:X *424:6 20.2992 
2 *424:6 *753:CLK 23.4144 
3 *424:6 *424:17 2.6312 
4 *424:17 *694:CLK 23.5288 
5 *424:17 *424:30 24.312 
6 *424:30 *424:38 24.8312 
7 *424:38 *424:50 49.7504 
8 *424:50 *700:CLK 20.5104 
9 *424:38 *749:CLK 20 
10 *424:30 *750:CLK 41.6808 
*END

*D_NET *426 0.0054767
*CONN
*I *710:CLK I *D sg13g2_dfrbpq_1
*I *687:CLK I *D sg13g2_dfrbpq_1
*I *874:A I *D sg13g2_inv_1
*I *717:CLK I *D sg13g2_dfrbpq_1
*I *711:CLK I *D sg13g2_dfrbpq_1
*I *855:X O *D sg13g2_buf_8
*CAP
1 *710:CLK 0.000142465
2 *687:CLK 0.000781832
3 *874:A 0.00015964
4 *717:CLK 0.000118558
5 *711:CLK 0.000196709
6 *855:X 0.000531041
7 *426:23 0.000410673
8 *426:21 0.000914307
9 *426:8 0.000585285
10 *687:CLK *435:28 0
11 *526:B1 *874:A 0
12 *526:B1 *426:8 0
13 *585:A1 *687:CLK 0
14 *3:10 *710:CLK 0
15 *70:10 *687:CLK 0.000554994
16 *92:43 *710:CLK 0.000242313
17 *92:43 *711:CLK 0.000177273
18 *92:43 *426:8 4.78524e-05
19 *166:10 *687:CLK 0
20 *183:12 *717:CLK 0
21 *183:12 *426:23 0
22 *234:16 *717:CLK 0
23 *234:16 *426:23 0
24 *312:8 *687:CLK 0
25 *403:10 *687:CLK 0
26 *415:18 *687:CLK 0.000565845
27 *416:32 *711:CLK 0
28 *416:32 *717:CLK 4.79124e-05
29 *416:32 *874:A 0
*RES
1 *855:X *426:8 23.5288 
2 *426:8 *711:CLK 21.98 
3 *426:8 *426:21 20 
4 *426:21 *426:23 1.3552 
5 *426:23 *717:CLK 41.2056 
6 *426:23 *874:A 42.1208 
7 *426:21 *687:CLK 48.1752 
8 *855:X *710:CLK 41.3816 
*END

*D_NET *423 0.00755713
*CONN
*I *732:CLK I *D sg13g2_dfrbpq_1
*I *725:CLK I *D sg13g2_dfrbpq_1
*I *733:CLK I *D sg13g2_dfrbpq_1
*I *714:CLK I *D sg13g2_dfrbpq_1
*I *715:CLK I *D sg13g2_dfrbpq_1
*I *852:X O *D sg13g2_buf_8
*CAP
1 *732:CLK 0
2 *725:CLK 0.000304129
3 *733:CLK 0.000400599
4 *714:CLK 0.000301073
5 *715:CLK 0.00033891
6 *852:X 0.00135463
7 *423:39 0.000704729
8 *423:37 0.000720249
9 *423:8 0.00127436
10 *714:CLK *427:17 0
11 *714:CLK *427:39 0
12 *715:CLK *427:39 0
13 *423:8 *826:A 0
14 *423:8 *852:A 0
15 *423:8 *427:39 0
16 *725:RESET_B *725:CLK 0
17 *734:D *423:37 0
18 *735:D *423:8 0
19 *320:32 *715:CLK 0
20 *417:10 *714:CLK 0
21 *417:14 *423:8 0
22 *417:21 *423:8 0
23 *417:21 *423:37 0
24 *417:29 *725:CLK 0
25 *417:79 *725:CLK 0
26 *418:23 *423:37 0.00040452
27 *418:39 *725:CLK 0.000288502
28 *418:39 *733:CLK 0.000106392
29 *418:39 *423:37 0
30 *418:41 *733:CLK 0.0003738
31 *418:43 *733:CLK 0.000748946
32 *418:45 *733:CLK 0.000236291
*RES
1 *852:X *423:8 44.708 
2 *423:8 *715:CLK 43.4672 
3 *423:8 *714:CLK 42.4112 
4 *852:X *423:37 26.7584 
5 *423:37 *423:39 20 
6 *423:39 *733:CLK 45.7904 
7 *423:39 *725:CLK 43.1328 
8 *423:37 *732:CLK 20 
*END

*D_NET *54 0.00625075
*CONN
*I *734:CLK I *D sg13g2_dfrbpq_1
*I *735:CLK I *D sg13g2_dfrbpq_1
*I *738:CLK I *D sg13g2_dfrbpq_1
*I *736:CLK I *D sg13g2_dfrbpq_1
*I *684:CLK I *D sg13g2_dfrbpq_1
*I *507:X O *D sg13g2_buf_8
*CAP
1 *734:CLK 3.47708e-05
2 *735:CLK 0.000605952
3 *738:CLK 0
4 *736:CLK 0.000102907
5 *684:CLK 0
6 *507:X 0.000797574
7 *54:40 0.000961132
8 *54:34 0.00102009
9 *54:21 0.000909786
10 *54:12 0.000150263
11 *54:6 0.00112458
12 *735:CLK *95:33 0
13 *735:CLK *354:14 0
14 *735:CLK *358:36 0
15 *735:CLK *417:14 0
16 *735:CLK *417:21 0
17 *736:CLK *736:RESET_B 0
18 *736:CLK *427:185 0
19 *54:6 *685:CLK 4.77534e-05
20 *54:6 *417:72 4.78521e-05
21 *54:6 *427:185 0
22 *54:12 *482:A0 0.000448099
23 *54:12 *658:A1 0
24 *54:21 *736:RESET_B 0
25 *54:21 *427:185 0
26 *54:34 *482:A0 0
27 *54:34 *598:B1 0
28 *54:34 *95:16 0
29 *54:34 *360:21 0
30 *54:34 *360:32 0
31 *54:40 *734:RESET_B 0
32 *54:40 *734:D 0
33 *54:40 *360:21 0
34 *54:40 *417:21 0
35 *684:D *54:6 0
*RES
1 *507:X *54:6 26.7408 
2 *54:6 *54:12 41.7776 
3 *54:12 *684:CLK 20 
4 *54:6 *54:21 1.496 
5 *54:21 *736:CLK 20.968 
6 *54:21 *54:34 26.2128 
7 *54:34 *54:40 23.4496 
8 *54:40 *738:CLK 20 
9 *54:40 *735:CLK 25.4032 
10 *54:34 *734:CLK 40.4576 
*END

*D_NET *170 0.00215219
*CONN
*I *721:RESET_B I *D sg13g2_dfrbpq_1
*I *723:RESET_B I *D sg13g2_dfrbpq_1
*I *757:Q O *D sg13g2_dfrbpq_1
*CAP
1 *721:RESET_B 0.000595503
2 *723:RESET_B 0
3 *757:Q 0.000375797
4 *170:12 0.000971299
5 *721:RESET_B *721:D 0
6 *721:RESET_B *723:D 0
7 *721:RESET_B *744:RESET_B 0.000209593
8 *721:RESET_B *744:D 0
9 *170:12 *721:D 0
10 *170:12 *723:D 0
11 *631:B *721:RESET_B 0
12 *635:A *721:RESET_B 0
13 *635:B_N *721:RESET_B 0
*RES
1 *757:Q *170:12 23.5464 
2 *170:12 *723:RESET_B 20 
3 *170:12 *721:RESET_B 26.0368 
*END

*D_NET *172 0.0071086
*CONN
*I *754:D I *D sg13g2_dfrbpq_1
*I *492:A1 I *D sg13g2_a22oi_1
*I *718:D I *D sg13g2_dfrbpq_1
*I *491:B1 I *D sg13g2_a21oi_1
*I *480:X O *D sg13g2_mux2_1
*CAP
1 *754:D 0
2 *492:A1 4.9152e-05
3 *718:D 0.000998153
4 *491:B1 2.63935e-05
5 *480:X 0.000831895
6 *172:24 0.0012642
7 *172:18 0.000843149
8 *172:12 0.000708244
9 *172:8 0.000985799
10 *491:B1 *488:A 0
11 *492:A1 *432:16 4.77425e-05
12 *718:D *489:A2 0
13 *718:D *182:12 0.000242423
14 *718:D *234:28 0
15 *718:D *242:25 0
16 *718:D *323:10 0
17 *172:8 *520:A 0
18 *172:8 *427:100 0
19 *172:12 *481:S 0
20 *172:12 *427:106 0
21 *172:12 *433:21 0
22 *172:18 *707:CLK 0
23 *172:18 *754:RESET_B 0
24 *172:18 *184:10 0.000237794
25 *172:18 *230:10 0
26 *172:18 *416:63 0
27 *172:18 *420:63 0
28 *172:18 *432:16 0.000778011
29 *172:18 *433:25 0
30 *172:24 *416:63 0
31 *492:B1 *492:A1 4.78192e-05
32 *492:B2 *718:D 0
33 *492:A2 *491:B1 4.78192e-05
34 *492:A2 *718:D 0
35 *576:A1 *718:D 0
36 *55:14 *491:B1 0
37 *55:14 *718:D 0
*RES
1 *480:X *172:8 47.6912 
2 *172:8 *172:12 21.3816 
3 *172:12 *172:18 26.3008 
4 *172:18 *172:24 21.8392 
5 *172:24 *491:B1 20.2728 
6 *172:24 *718:D 28.7032 
7 *172:18 *492:A1 40.4576 
8 *172:12 *754:D 20 
*END

*D_NET *173 0.00258603
*CONN
*I *486:B1 I *D sg13g2_a21oi_1
*I *719:D I *D sg13g2_dfrbpq_1
*I *487:A1 I *D sg13g2_a22oi_1
*I *755:D I *D sg13g2_dfrbpq_1
*I *482:X O *D sg13g2_mux2_1
*CAP
1 *486:B1 0
2 *719:D 0.000208702
3 *487:A1 0.000164106
4 *755:D 0.000145654
5 *482:X 0
6 *173:28 0.00035954
7 *173:17 0.000577442
8 *173:4 0.000408152
9 *487:A1 *415:129 0.00027466
10 *719:D *483:A 0
11 *719:D *719:RESET_B 0
12 *719:D *427:282 0
13 *719:D *429:68 0.00044777
14 *755:D *482:S 0
15 *755:D *755:RESET_B 0
16 *755:D *415:129 0
17 *173:17 *482:A0 0
18 *173:17 *482:S 0
19 *173:17 *415:129 0
20 *173:17 *429:68 0
21 *173:28 *429:68 0
22 *487:B2 *487:A1 0
23 *64:8 *173:17 0
*RES
1 *482:X *173:4 20 
2 *173:4 *755:D 21.3816 
3 *173:4 *173:17 22.2088 
4 *173:17 *487:A1 41.5664 
5 *173:17 *173:28 1.3552 
6 *173:28 *719:D 42.3232 
7 *173:28 *486:B1 40 
*END

*D_NET *174 0.00685221
*CONN
*I *648:B1 I *D sg13g2_a21oi_1
*I *649:A1 I *D sg13g2_a22oi_1
*I *720:D I *D sg13g2_dfrbpq_1
*I *756:D I *D sg13g2_dfrbpq_1
*I *645:X O *D sg13g2_mux2_1
*CAP
1 *648:B1 0
2 *649:A1 0.000370159
3 *720:D 0.000584344
4 *756:D 0
5 *645:X 0.000664888
6 *174:36 0.00059386
7 *174:23 0.00132851
8 *174:12 0.00118535
9 *649:A1 *522:A 0
10 *649:A1 *647:B1 0
11 *649:A1 *705:CLK 0
12 *649:A1 *792:A 0
13 *720:D *325:8 0
14 *720:D *427:282 0
15 *720:D *429:16 0
16 *720:D *429:27 0
17 *720:D *441:44 0.000242154
18 *174:12 *668:A 0
19 *174:12 *412:66 0.00029194
20 *174:12 *421:61 0.000936254
21 *174:12 *421:76 0.000292457
22 *174:23 *415:129 0.000130055
23 *174:36 *647:B1 0
24 *174:36 *648:A2 0
25 *487:B1 *174:23 0.000184492
26 *649:B2 *649:A1 0
27 *649:B2 *174:36 0
28 *708:D *174:12 4.77425e-05
*RES
1 *645:X *174:12 46.7584 
2 *174:12 *756:D 40 
3 *174:12 *174:23 25.1568 
4 *174:23 *720:D 25.5616 
5 *174:23 *174:36 1.8656 
6 *174:36 *649:A1 23.2912 
7 *174:36 *648:B1 20 
*END

*D_NET *182 0.00688046
*CONN
*I *717:D I *D sg13g2_dfrbpq_1
*I *753:D I *D sg13g2_dfrbpq_1
*I *497:A1 I *D sg13g2_a22oi_1
*I *496:B1 I *D sg13g2_a21oi_1
*I *481:X O *D sg13g2_mux2_1
*CAP
1 *717:D 5.03545e-05
2 *753:D 0
3 *497:A1 0
4 *496:B1 0
5 *481:X 0.000575167
6 *182:36 0.000901314
7 *182:23 0.00113899
8 *182:19 0.000425885
9 *182:12 0.000624976
10 *182:8 0.00106229
11 *182:8 *338:8 0
12 *182:8 *427:100 0
13 *182:12 *496:A2 0
14 *182:12 *694:CLK 0
15 *182:12 *234:28 0.000469253
16 *182:12 *322:28 0
17 *182:12 *419:46 0
18 *182:19 *694:CLK 0
19 *182:19 *322:28 0
20 *182:19 *419:42 0
21 *182:23 *419:38 0.00040429
22 *182:36 *494:B1 0
23 *182:36 *322:18 0
24 *182:36 *379:55 0
25 *182:36 *419:38 0.000582709
26 *182:36 *427:234 0
27 *182:36 *431:8 0
28 *182:36 *471:10 0
29 *497:B2 *717:D 4.77425e-05
30 *497:B2 *182:19 0
31 *718:D *182:12 0.000242423
32 *15:8 *182:8 0
33 *43:18 *182:23 3.24568e-05
34 *43:18 *182:36 1.54556e-05
35 *43:26 *182:23 0.00030715
36 *83:8 *182:36 0
*RES
1 *481:X *182:8 45.7904 
2 *182:8 *182:12 24.708 
3 *182:12 *496:B1 20 
4 *182:12 *182:19 1.1968 
5 *182:19 *182:23 2.6048 
6 *182:23 *497:A1 20 
7 *182:23 *182:36 47.9376 
8 *182:36 *753:D 20 
9 *182:19 *717:D 20.572 
*END

*D_NET *375 0.00299927
*CONN
*P intr_gpio_o[0] O
*I *795:X O *D sg13g2_buf_1
*CAP
1 intr_gpio_o[0] 0.0013323
2 *795:X 9.49876e-05
3 *375:8 0.00142729
4 intr_gpio_o[0] reg_rsp_o[3] 0
5 intr_gpio_o[0] *415:8 0
6 intr_gpio_o[0] *473:8 0
7 *375:8 *541:B 0
8 reg_rsp_o[14] intr_gpio_o[0] 0
9 *49:45 *375:8 0.000144691
10 *72:10 intr_gpio_o[0] 0
*RES
1 *795:X *375:8 40.8272 
2 *375:8 intr_gpio_o[0] 13.5608 
*END

*D_NET *311 0.00299528
*CONN
*P intr_gpio_o[1] O
*I *794:X O *D sg13g2_buf_1
*CAP
1 intr_gpio_o[1] 0.000309954
2 *794:X 0.00118769
3 *311:6 0.00149764
4 *311:6 *707:CLK 0
5 *492:B1 *311:6 0
6 *39:12 *311:6 0
*RES
1 *794:X *311:6 31.7304 
2 *311:6 intr_gpio_o[1] 43.2736 
*END

*D_NET *310 0.00172515
*CONN
*P intr_gpio_o[2] O
*I *793:X O *D sg13g2_buf_1
*CAP
1 intr_gpio_o[2] 0.000862573
2 *793:X 0.000862573
3 intr_gpio_o[3] intr_gpio_o[2] 0
4 reg_rsp_o[13] intr_gpio_o[2] 0
*RES
1 *793:X intr_gpio_o[2] 29.1432 
*END

*D_NET *309 0.00183859
*CONN
*P intr_gpio_o[3] O
*I *792:X O *D sg13g2_buf_1
*CAP
1 intr_gpio_o[3] 0.000919294
2 *792:X 0.000919294
3 intr_gpio_o[3] intr_gpio_o[2] 0
*RES
1 *792:X intr_gpio_o[3] 29.7768 
*END

*D_NET *187 0.00137564
*CONN
*I *721:D I *D sg13g2_dfrbpq_1
*I *716:L_HI O *D sg13g2_tiehi
*CAP
1 *721:D 0.000687821
2 *716:L_HI 0.000687821
3 *721:D *723:CLK 0
4 *721:D *744:RESET_B 0
5 *721:D *326:42 0
6 *721:D *436:32 0
7 *721:RESET_B *721:D 0
8 *170:12 *721:D 0
*RES
1 *716:L_HI *721:D 46.2216 
*END

*D_NET *308 0.00154266
*CONN
*I *548:A2 I *D sg13g2_o21ai_1
*I *864:A I *D sg13g2_buf_1
*I *510:Y O *D sg13g2_inv_1
*CAP
1 *548:A2 0.000224493
2 *864:A 4.84721e-05
3 *510:Y 0.000311306
4 *308:8 0.000584272
5 *548:A2 *435:10 0
6 *864:A *414:25 0
7 *308:8 *409:99 0
8 *548:A1 *548:A2 0.000112558
9 *77:10 *548:A2 0
10 *77:10 *308:8 0
11 *155:10 *308:8 0
12 *168:29 *308:8 0.00018128
13 *278:40 *864:A 8.02763e-05
14 *282:10 *308:8 0
*RES
1 *510:Y *308:8 42.6224 
2 *308:8 *864:A 40.4576 
3 *308:8 *548:A2 41.7864 
*END

*D_NET *312 0.000617391
*CONN
*I *765:A I *D sg13g2_buf_1
*I *541:Y O *D sg13g2_nand3_1
*CAP
1 *765:A 4.67175e-05
2 *541:Y 0.000261978
3 *312:8 0.000308695
4 *765:A *415:18 0
5 *312:8 *687:CLK 0
6 *312:8 *415:8 0
7 *49:45 *312:8 0
8 *70:10 *312:8 0
9 *166:10 *312:8 0
10 *181:11 *765:A 0
*RES
1 *541:Y *312:8 42.6224 
2 *312:8 *765:A 40.4576 
*END

*D_NET *313 0.000493581
*CONN
*I *764:A I *D sg13g2_buf_1
*I *538:Y O *D sg13g2_nand3_1
*CAP
1 *764:A 5.48062e-05
2 *538:Y 6.12997e-05
3 *313:8 0.000116106
4 *764:A *415:64 0
5 *764:A *440:21 8.01773e-05
6 *49:29 *313:8 0.000181192
*RES
1 *538:Y *313:8 40.7216 
2 *313:8 *764:A 40.4576 
*END

*D_NET *314 0.000597579
*CONN
*I *763:A I *D sg13g2_buf_1
*I *681:Y O *D sg13g2_nand3_1
*CAP
1 *763:A 0.00029879
2 *681:Y 0.00029879
3 *763:A *394:8 0
4 *763:A *414:12 0
5 *763:A *414:25 0
6 *763:A *435:98 0
7 *663:A0 *763:A 0
*RES
1 *681:Y *763:A 42.8248 
*END

*D_NET *315 0.00178723
*CONN
*I *762:A I *D sg13g2_buf_1
*I *515:Y O *D sg13g2_o21ai_1
*CAP
1 *762:A 0
2 *515:Y 0.000305531
3 *315:24 0.000250828
4 *315:18 0.000556359
5 *315:18 *416:32 0
6 *315:18 *416:46 0.000172627
7 *315:18 *425:20 0.00042162
8 *515:B1 *315:18 8.02598e-05
*RES
1 *515:Y *315:18 43.1636 
2 *315:18 *315:24 42.6752 
3 *315:24 *762:A 40 
*END

*D_NET *316 0.0010202
*CONN
*I *760:A I *D sg13g2_buf_1
*I *512:Y O *D sg13g2_o21ai_1
*CAP
1 *760:A 0.000146298
2 *512:Y 0.000204932
3 *316:8 0.00035123
4 *760:A *488:A 0
5 *316:8 *416:63 0
6 *316:8 *461:14 0
7 *490:A *760:A 0
8 *55:14 *316:8 0
9 *56:12 *316:8 7.56299e-05
10 *169:6 *316:8 0
11 *238:14 *760:A 0.00024211
*RES
1 *512:Y *316:8 41.7776 
2 *316:8 *760:A 41.3816 
*END

*D_NET *317 0.000197722
*CONN
*I *580:A I *D sg13g2_buf_1
*I *508:Y O *D sg13g2_nand2_1
*CAP
1 *580:A 9.88608e-05
2 *508:Y 9.88608e-05
3 *580:A *544:B 0
4 *580:A *686:CLK 0
*RES
1 *508:Y *580:A 40.9944 
*END

*D_NET *318 0.00103134
*CONN
*I *552:A I *D sg13g2_buf_1
*I *677:Y O *D sg13g2_o21ai_1
*CAP
1 *552:A 0.000515671
2 *677:Y 0.000515671
3 *552:A *697:CLK 0
4 *552:A *413:27 0
5 reg_rsp_o[9] *552:A 0
6 *503:A_N *552:A 0
7 *813:A *552:A 0
8 *240:12 *552:A 0
9 *245:12 *552:A 0
*RES
1 *677:Y *552:A 44.4264 
*END

*D_NET *432 0.00926678
*CONN
*I *565:A2 I *D sg13g2_o21ai_1
*I *564:A I *D sg13g2_nand2_1
*I *558:A I *D sg13g2_nand2_1
*I *573:A2 I *D sg13g2_o21ai_1
*I *572:A I *D sg13g2_nand2_1
*I *570:A I *D sg13g2_nand2_1
*I *571:A2 I *D sg13g2_o21ai_1
*I *559:A2 I *D sg13g2_o21ai_1
*I *861:X O *D sg13g2_buf_1
*CAP
1 *565:A2 0
2 *564:A 8.26087e-05
3 *558:A 0.000115384
4 *573:A2 3.46225e-05
5 *572:A 9.33408e-05
6 *570:A 0.000139838
7 *571:A2 0.000150364
8 *559:A2 0.000147554
9 *861:X 0.000712268
10 *432:84 0.000438572
11 *432:45 0.000548314
12 *432:43 0.000417776
13 *432:41 0.000841667
14 *432:39 0.00066652
15 *432:37 0.000388527
16 *432:22 0.000370084
17 *432:20 0.000125626
18 *432:16 0.000741541
19 *570:A *820:A 0
20 *572:A *825:A 0
21 *432:45 *452:10 0
22 *432:84 *825:A 0
23 reg_rsp_o[19] *570:A 0.000144145
24 *492:B2 *432:16 0
25 *492:A2 *432:16 0
26 *492:A1 *432:16 4.77425e-05
27 *518:A *432:84 0
28 *521:A1 *573:A2 4.77425e-05
29 *521:A1 *432:84 0
30 *525:A1 *564:A 0.000143937
31 *559:B1 *559:A2 4.77425e-05
32 *565:B1 *432:20 1.54008e-05
33 *565:B1 *432:22 0.0001122
34 *570:B *570:A 0
35 *571:B1 *570:A 7.92311e-05
36 *571:B1 *571:A2 0.00014425
37 *571:A1 *432:45 0
38 *783:A *558:A 0
39 *786:A *564:A 0.000143937
40 *786:A *432:22 0
41 *790:A *558:A 0
42 *39:6 *432:16 0
43 *61:8 *573:A2 1.54008e-05
44 *65:8 *432:16 0.00104534
45 *82:8 *432:37 0
46 *85:16 *559:A2 0
47 *85:16 *432:37 0.000126354
48 *89:10 *572:A 0.000111178
49 *89:10 *432:84 0.000234158
50 *172:18 *432:16 0.000778011
51 *242:12 *432:16 0
52 *242:25 *432:16 1.54008e-05
53 *247:8 *432:39 0
54 *247:8 *432:41 0
55 *416:63 *432:16 0
56 *416:65 *432:39 0
57 *416:67 *432:39 0
58 *416:67 *432:41 0
59 *420:54 *432:16 0
60 *420:63 *559:A2 0
*RES
1 *861:X *432:16 48.5184 
2 *432:16 *432:20 20.2728 
3 *432:20 *432:22 0.8272 
4 *432:22 *559:A2 21.2144 
5 *432:22 *432:37 21.144 
6 *432:37 *432:39 1.3552 
7 *432:39 *432:41 2.8336 
8 *432:41 *432:43 0.5104 
9 *432:43 *432:45 2.2 
10 *432:45 *571:A2 41.3376 
11 *432:45 *570:A 41.3376 
12 *432:43 *572:A 40.8272 
13 *432:41 *432:84 43.4232 
14 *432:84 *573:A2 40.2728 
15 *432:39 *558:A 40.8272 
16 *432:37 *564:A 40.8272 
17 *432:20 *565:A2 20 
*END

*D_NET *431 0.00774492
*CONN
*I *555:S I *D sg13g2_mux2_1
*I *577:A I *D sg13g2_nand2_1
*I *576:A2 I *D sg13g2_o21ai_1
*I *575:A I *D sg13g2_nand2_1
*I *861:A I *D sg13g2_buf_1
*I *578:A2 I *D sg13g2_o21ai_1
*I *554:S I *D sg13g2_mux2_1
*I *860:X O *D sg13g2_buf_1
*CAP
1 *555:S 0
2 *577:A 0.00010984
3 *576:A2 0
4 *575:A 0.000224174
5 *861:A 0.000278444
6 *578:A2 0.00016477
7 *554:S 2.77263e-05
8 *860:X 0.000395861
9 *431:52 0.00053288
10 *431:48 0.000659285
11 *431:29 0.000933172
12 *431:25 0.000596905
13 *431:14 0.00116347
14 *431:12 0.00083239
15 *431:8 0.000440196
16 *489:A2 *431:48 0
17 *494:A1 *431:14 0
18 *494:B1 *431:14 0
19 *513:A *431:25 0
20 *513:A *431:48 0.000112426
21 *515:A1 *577:A 0
22 *515:A1 *431:48 0
23 *575:B *575:A 0
24 *576:B1 *431:48 8.03692e-05
25 *576:B1 *431:52 1.54556e-05
26 *576:A1 *431:52 4.78195e-05
27 *578:B1 *578:A2 4.77702e-05
28 *695:D *431:52 0
29 *710:RESET_B *431:8 0
30 *711:D *431:14 0.00024211
31 *896:A *431:48 0.000144925
32 *37:14 *861:A 7.44263e-05
33 *43:12 *431:14 0
34 *57:21 *431:48 0
35 *90:10 *575:A 6.56863e-06
36 *91:8 *431:29 0
37 *182:36 *431:8 0
38 *234:16 *431:14 0
39 *234:28 *578:A2 0
40 *234:28 *431:25 4.77537e-05
41 *234:28 *431:48 0
42 *242:25 *861:A 0.000238973
43 *284:25 *575:A 0
44 *322:18 *431:14 0
45 *379:31 *575:A 0
46 *379:31 *861:A 0
47 *416:22 *431:12 8.00842e-05
48 *416:22 *431:14 0.000208195
49 *416:32 *577:A 0
50 *416:32 *431:14 0
51 *416:32 *431:25 0
52 *416:46 *431:48 0
53 *416:63 *575:A 0
54 *416:63 *861:A 0
55 *419:8 *431:8 0
56 *419:46 *431:14 0
57 *425:20 *575:A 3.89325e-05
58 *427:234 *431:8 0
*RES
1 *860:X *431:8 43.0448 
2 *431:8 *431:12 20.4576 
3 *431:12 *431:14 6.7408 
4 *431:14 *554:S 20.2992 
5 *431:14 *431:25 3.1592 
6 *431:25 *431:29 21.144 
7 *431:29 *578:A2 41.364 
8 *431:29 *431:48 25.8344 
9 *431:48 *431:52 20.2728 
10 *431:52 *861:A 42.8336 
11 *431:52 *575:A 41.5774 
12 *431:48 *576:A2 20 
13 *431:25 *577:A 20.9416 
14 *431:12 *555:S 20 
*END

*D_NET *430 0.00696284
*CONN
*I *671:A I *D sg13g2_nand2_1
*I *672:A2 I *D sg13g2_o21ai_1
*I *674:A2 I *D sg13g2_o21ai_1
*I *557:A2 I *D sg13g2_o21ai_1
*I *556:A I *D sg13g2_nand2_1
*I *669:A I *D sg13g2_nand2_1
*I *673:A I *D sg13g2_nand2_1
*I *670:A2 I *D sg13g2_o21ai_1
*I *859:X O *D sg13g2_buf_1
*CAP
1 *671:A 0.000356477
2 *672:A2 0.000152924
3 *674:A2 6.22631e-05
4 *557:A2 0.000136326
5 *556:A 0.000167134
6 *669:A 6.85744e-05
7 *673:A 3.72619e-05
8 *670:A2 0.000158584
9 *859:X 0
10 *430:42 0.000296349
11 *430:38 0.000560299
12 *430:25 0.000400594
13 *430:12 0.000338758
14 *430:8 0.000509959
15 *430:4 0.000776923
16 *556:A *823:A 0.00014365
17 *557:A2 *823:A 0.000143888
18 *669:A *823:A 7.97992e-05
19 reg_rsp_o[13] *671:A 0.000238557
20 reg_rsp_o[16] *556:A 0
21 reg_rsp_o[16] *669:A 0
22 *528:A1 *671:A 0.000339212
23 *528:A1 *672:A2 1.54008e-05
24 *556:B *556:A 0
25 *557:B1 *557:A2 1.54008e-05
26 *670:B1 *670:A2 4.76456e-05
27 *672:B1 *672:A2 1.54008e-05
28 *673:B *673:A 0
29 *673:B *430:38 0
30 *674:A1 *674:A2 1.54008e-05
31 *708:D *557:A2 0.000143888
32 *708:D *430:38 0
33 *784:A *671:A 0
34 *859:A *430:8 0
35 *35:27 *430:38 0
36 *53:18 *671:A 0
37 *53:18 *430:8 0.000395068
38 *53:24 *430:12 0
39 *150:8 *670:A2 1.53311e-05
40 *150:23 *670:A2 0.000439567
41 *150:23 *430:12 0.000234158
42 *152:10 *671:A 0
43 *153:8 *670:A2 7.48842e-05
44 *153:8 *430:12 0.000583163
45 *185:12 *672:A2 0
46 *413:56 *674:A2 0
*RES
1 *859:X *430:4 20 
2 *430:4 *430:8 22.6224 
3 *430:8 *430:12 2.684 
4 *430:12 *670:A2 41.8392 
5 *430:12 *430:25 20 
6 *430:25 *673:A 20.2728 
7 *430:25 *430:38 23.08 
8 *430:38 *430:42 20.5104 
9 *430:42 *669:A 20.6424 
10 *430:42 *556:A 21.6808 
11 *430:38 *557:A2 41.3816 
12 *430:8 *674:A2 40.4576 
13 *430:4 *672:A2 21.7072 
14 *430:4 *671:A 23.4364 
*END

*D_NET *429 0.0144724
*CONN
*I *562:A I *D sg13g2_nand2_1
*I *569:A2 I *D sg13g2_o21ai_1
*I *568:A I *D sg13g2_nand2_1
*I *563:A2 I *D sg13g2_o21ai_1
*I *667:A2 I *D sg13g2_o21ai_1
*I *859:A I *D sg13g2_buf_1
*I *666:A I *D sg13g2_nand2_1
*I *675:S I *D sg13g2_mux2_1
*I *858:X O *D sg13g2_buf_1
*CAP
1 *562:A 0
2 *569:A2 2.73939e-05
3 *568:A 7.72299e-05
4 *563:A2 0.000103527
5 *667:A2 9.04189e-05
6 *859:A 0.000869966
7 *666:A 0
8 *675:S 0
9 *858:X 0.00016573
10 *429:91 0.000892337
11 *429:85 0.00104694
12 *429:68 0.00129546
13 *429:38 0.00114162
14 *429:27 0.000848707
15 *429:16 0.00161103
16 *429:6 0.00204199
17 *859:A *430:8 0
18 *429:16 *755:CLK 0
19 *429:27 *697:CLK 0
20 *429:68 *755:CLK 0
21 *482:A0 *563:A2 0
22 *482:A0 *429:68 0
23 *483:A *429:68 0
24 *486:A2 *429:6 0
25 *486:A2 *429:68 0
26 *523:A1 *859:A 0
27 *563:B1 *563:A2 7.98197e-05
28 *563:B1 *429:85 0.00017729
29 *563:A1 *563:A2 1.53311e-05
30 *569:A1 *569:A2 1.54008e-05
31 *647:A1 *429:27 0.000209637
32 *647:A2 *429:27 0
33 *647:B1 *429:27 0
34 *648:A2 *429:27 0
35 *666:B *429:27 5.71583e-05
36 *667:B1 *667:A2 0.000143728
37 *667:B1 *429:27 0
38 *667:B1 *429:38 0.000111595
39 *667:A1 *667:A2 0.000112018
40 *667:A1 *859:A 7.51285e-05
41 *667:A1 *429:38 0.000320048
42 *719:RESET_B *429:6 0.000274298
43 *719:RESET_B *429:68 0.000209505
44 *719:D *429:68 0.00044777
45 *720:D *429:16 0
46 *720:D *429:27 0
47 *53:18 *859:A 0
48 *63:8 *859:A 0
49 *64:8 *429:68 0
50 *87:8 *568:A 0.000181398
51 *87:8 *429:91 7.49652e-05
52 *137:12 *429:27 0
53 *152:10 *859:A 0
54 *173:17 *429:68 0
55 *173:28 *429:68 0
56 *185:12 *859:A 0
57 *225:8 *429:38 0
58 *236:12 *429:16 0
59 *236:12 *429:27 0
60 *245:12 *429:27 1.54008e-05
61 *245:12 *429:38 0.000143937
62 *248:14 *429:91 0.000368983
63 *257:18 *568:A 0
64 *319:8 *568:A 0
65 *319:49 *429:16 0.000533766
66 *319:62 *429:16 0.000324129
67 *324:8 *429:16 0.000128248
68 *324:8 *429:68 0
69 *325:8 *429:27 0
70 *410:10 *429:85 0
71 *410:10 *429:91 0
72 *410:37 *429:91 0.000240502
73 *410:85 *429:68 0
74 *415:110 *429:68 0
75 *421:31 *429:91 0
76 *424:50 *429:91 0
77 *427:149 *568:A 0
78 *427:270 *429:16 0
79 *427:282 *429:16 0
80 *427:282 *429:68 0
81 *427:294 *429:16 0
*RES
1 *858:X *429:6 21.5664 
2 *429:6 *429:16 48.6592 
3 *429:16 *675:S 20 
4 *429:16 *429:27 5.6496 
5 *429:27 *666:A 20 
6 *429:27 *429:38 22.1824 
7 *429:38 *859:A 47.4008 
8 *429:38 *667:A2 40.8272 
9 *429:6 *429:68 28.888 
10 *429:68 *563:A2 40.968 
11 *429:68 *429:85 22.288 
12 *429:85 *429:91 27.4888 
13 *429:91 *568:A 40.9944 
14 *429:91 *569:A2 40.2728 
15 *429:85 *562:A 20 
*END

*D_NET *434 0.00290133
*CONN
*I *775:A I *D sg13g2_buf_1
*I *771:A I *D sg13g2_buf_1
*I *772:A I *D sg13g2_buf_1
*I *773:A I *D sg13g2_buf_1
*I *774:A I *D sg13g2_buf_1
*I *777:A I *D sg13g2_buf_1
*I *776:A I *D sg13g2_buf_1
*I *778:A I *D sg13g2_buf_1
*I *863:X O *D sg13g2_buf_1
*CAP
1 *775:A 0
2 *771:A 0
3 *772:A 0
4 *773:A 0
5 *774:A 0.000176454
6 *777:A 2.77263e-05
7 *776:A 0
8 *778:A 0
9 *863:X 0.000242804
10 *434:37 0.000287661
11 *434:35 0.000284232
12 *434:33 0.000356849
13 *434:31 0.000270266
14 *434:22 0.000277087
15 *434:15 0.000360519
16 *434:8 0.000440403
17 *777:A *435:20 0
18 *434:22 *435:28 0
19 *434:22 *435:32 0
20 *434:31 *435:20 0
21 *434:33 *463:10 0
22 reg_rsp_o[23] *434:22 0.000177334
23 reg_rsp_o[23] *434:33 0
24 reg_rsp_o[24] *434:15 0
25 reg_rsp_o[24] *434:35 0
26 reg_rsp_o[25] *434:33 0
27 reg_rsp_o[28] *434:35 0
28 reg_rsp_o[28] *434:37 0
29 *177:10 *774:A 0
30 *177:10 *434:8 0
31 *177:10 *434:15 0
32 *177:10 *434:22 0
33 *178:10 *434:22 0
34 *383:10 *774:A 0
35 *383:10 *434:35 0
36 *383:10 *434:37 0
*RES
1 *863:X *434:8 22.42 
2 *434:8 *778:A 20 
3 *434:8 *434:15 1.936 
4 *434:15 *776:A 20 
5 *434:15 *434:22 1.5664 
6 *434:22 *777:A 20.2992 
7 *434:22 *434:31 0.9328 
8 *434:31 *434:33 1.5664 
9 *434:33 *434:35 1.936 
10 *434:35 *434:37 1.5664 
11 *434:37 *774:A 21.936 
12 *434:37 *773:A 20 
13 *434:35 *772:A 20 
14 *434:33 *771:A 20 
15 *434:31 *775:A 20 
*END

*D_NET *435 0.0152381
*CONN
*I *676:B1 I *D sg13g2_a21oi_1
*I *767:A I *D sg13g2_buf_1
*I *766:A I *D sg13g2_buf_1
*I *769:A I *D sg13g2_buf_1
*I *768:A I *D sg13g2_buf_1
*I *514:B1 I *D sg13g2_a21oi_1
*I *511:B1 I *D sg13g2_a21oi_1
*I *863:A I *D sg13g2_buf_1
*I *864:X O *D sg13g2_buf_1
*CAP
1 *676:B1 0.000262597
2 *767:A 0
3 *766:A 0
4 *769:A 0
5 *768:A 0
6 *514:B1 0
7 *511:B1 0.000278674
8 *863:A 0
9 *864:X 0.00112605
10 *435:98 0.000934309
11 *435:51 0.000946717
12 *435:40 0.000283707
13 *435:32 0.00133204
14 *435:28 0.000685214
15 *435:20 0.000415013
16 *435:18 0.000303126
17 *435:16 0.00242578
18 *435:10 0.00268709
19 *676:B1 *442:19 0
20 *435:10 *477:8 0
21 *435:10 *478:8 0
22 *435:16 *686:CLK 0
23 *435:16 *811:A 0.000207948
24 *435:16 *812:A 0
25 *435:16 *463:10 0
26 *435:16 *467:12 0
27 *435:16 *474:10 0
28 *435:16 *476:10 0
29 *435:18 *463:10 0
30 *435:28 *474:10 0
31 *435:98 *807:A 0
32 *435:98 *442:49 0
33 cio_gpio_en_o[3] *435:10 0.000342145
34 cio_gpio_o[1] *435:16 0.000209483
35 reg_rsp_o[31] *435:28 0
36 reg_rsp_o[32] *435:18 0
37 *511:A1 *511:B1 0.000175969
38 *514:A2 *435:51 0
39 *548:A1 *435:10 0
40 *548:A2 *435:10 0
41 *675:A1 *435:98 0
42 *687:CLK *435:28 0
43 *763:A *435:98 0
44 *777:A *435:20 0
45 *781:A *435:16 0
46 *797:A *435:16 0
47 *799:A *435:16 4.77425e-05
48 *801:A *435:16 0
49 *803:A *435:32 6.46834e-05
50 *843:A *676:B1 0.000305515
51 *903:A *435:16 0
52 *911:A *435:10 0
53 *49:10 *676:B1 0
54 *92:66 *511:B1 0
55 *157:8 *435:51 0
56 *157:12 *435:32 0.00024211
57 *157:12 *435:40 0.000241979
58 *157:16 *435:51 0
59 *159:8 *435:16 0
60 *160:8 *435:98 0
61 *165:10 *435:16 0.000129466
62 *176:8 *435:16 0.000339399
63 *177:10 *435:32 0
64 *178:10 *435:32 0
65 *181:11 *435:16 0
66 *181:11 *435:18 0
67 *181:11 *435:28 0
68 *191:9 *435:16 0
69 *198:13 *435:16 0
70 *216:11 *435:16 0.000565046
71 *278:40 *435:10 8.00279e-05
72 *282:10 *435:10 0
73 *282:10 *435:98 0
74 *283:10 *435:32 0
75 *394:8 *435:98 0
76 *414:8 *435:98 0.000606278
77 *414:64 *435:51 0
78 *425:20 *511:B1 0
79 *425:33 *511:B1 0
80 *427:117 *511:B1 0
81 *434:22 *435:28 0
82 *434:22 *435:32 0
83 *434:31 *435:20 0
*RES
1 *864:X *435:10 44.3472 
2 *435:10 *435:16 39.6064 
3 *435:16 *435:18 1.5664 
4 *435:18 *435:20 1.144 
5 *435:20 *435:28 42.8688 
6 *435:28 *435:32 3.5288 
7 *435:32 *435:40 42.4728 
8 *435:40 *863:A 20 
9 *435:32 *435:51 46.8464 
10 *435:51 *511:B1 22.5344 
11 *435:51 *514:B1 20 
12 *435:28 *768:A 20 
13 *435:20 *769:A 20 
14 *435:18 *766:A 20 
15 *435:16 *767:A 20 
16 *864:X *435:98 46.38 
17 *435:98 *676:B1 42.42 
*END

*D_NET *410 0.0130867
*CONN
*I *530:B1 I *D sg13g2_o21ai_1
*I *521:B1 I *D sg13g2_o21ai_1
*I *525:B1 I *D sg13g2_o21ai_1
*I *532:B1 I *D sg13g2_o21ai_1
*I *519:B1 I *D sg13g2_o21ai_1
*I *517:B1 I *D sg13g2_o21ai_1
*I *839:X O *D sg13g2_buf_1
*CAP
1 *530:B1 0
2 *521:B1 0
3 *525:B1 0.00010861
4 *532:B1 2.14197e-05
5 *519:B1 9.80082e-05
6 *517:B1 0.000197889
7 *839:X 0
8 *410:85 0.000125242
9 *410:52 0.000316976
10 *410:39 0.000284954
11 *410:37 0.00272297
12 *410:10 0.00386357
13 *410:4 0.00106796
14 *517:B1 *517:A2 1.54008e-05
15 *519:B1 *519:A2 0.000234158
16 *519:B1 *416:67 7.49652e-05
17 *525:B1 *525:A2 1.54008e-05
18 *532:B1 *532:A2 1.54008e-05
19 *410:10 *413:83 0
20 *410:10 *421:12 0
21 *410:10 *429:85 0
22 *410:10 *429:91 0
23 *410:37 *521:A2 1.54008e-05
24 *410:37 *748:CLK 0
25 *410:37 *420:30 0
26 *410:37 *424:50 0
27 *410:37 *429:91 0.000240502
28 *410:52 *416:67 0
29 *410:85 *413:77 1.54008e-05
30 *410:85 *413:83 8.00842e-05
31 *410:85 *429:68 0
32 *480:A0 *410:37 0
33 *480:A1 *410:37 0
34 *482:A0 *410:85 0.00023464
35 *521:A1 *410:37 0.000175748
36 *532:A1 *525:B1 0.000269186
37 *532:A1 *410:52 0.000130011
38 *563:B1 *410:10 0
39 *589:A *410:37 0.000240608
40 *614:A1 *410:37 7.99869e-05
41 *614:A2 *410:37 0
42 *698:D *410:37 0.000175971
43 *751:RESET_B *410:37 0
44 *61:8 *410:37 0
45 *96:10 *517:B1 0.000607773
46 *96:10 *410:37 0.000143713
47 *109:12 *410:37 0
48 *111:31 *410:37 0.000503094
49 *250:20 *517:B1 0.000661188
50 *250:20 *410:10 0.000319628
51 *288:18 *410:85 1.54008e-05
52 *297:8 *517:B1 1.54008e-05
*RES
1 *839:X *410:4 20 
2 *410:4 *410:10 28.096 
3 *410:10 *517:B1 43.08 
4 *410:10 *410:37 44.5872 
5 *410:37 *410:39 20 
6 *410:39 *519:B1 41.144 
7 *410:39 *410:52 1.8392 
8 *410:52 *532:B1 40.2728 
9 *410:52 *525:B1 41.4168 
10 *410:37 *521:B1 20 
11 *410:4 *410:85 41.3904 
12 *410:85 *530:B1 20 
*END

*D_NET *409 0.0158398
*CONN
*I *681:B I *D sg13g2_nand3_1
*I *538:B I *D sg13g2_nand3_1
*I *508:B I *D sg13g2_nand2_1
*I *544:B I *D sg13g2_nand3_1
*I *541:B I *D sg13g2_nand3_1
*I *534:B1 I *D sg13g2_o21ai_1
*I *526:B1 I *D sg13g2_o21ai_1
*I *761:X O *D sg13g2_buf_1
*CAP
1 *681:B 0.000108293
2 *538:B 0
3 *508:B 0
4 *544:B 0.000651534
5 *541:B 0.00108671
6 *534:B1 0
7 *526:B1 0.000648409
8 *761:X 0.00087719
9 *409:99 0.000615217
10 *409:67 0.000829923
11 *409:46 0.00139472
12 *409:24 0.00119608
13 *409:18 0.00114805
14 *409:14 0.000537342
15 *409:10 0.000436841
16 *526:B1 *874:A 0
17 *526:B1 *416:12 1.54556e-05
18 *526:B1 *416:22 0.000289875
19 *526:B1 *416:32 1.54556e-05
20 *526:B1 *426:8 0
21 *541:B *414:51 0
22 *544:B *686:RESET_B 0
23 *544:B *686:CLK 0
24 *544:B *415:25 0
25 *544:B *415:31 0.000145009
26 *681:B *414:25 0.000176873
27 *681:B *415:64 0
28 *409:10 *427:310 0
29 *409:10 *442:10 0
30 *409:24 *416:12 6.4771e-05
31 *409:99 *440:12 0
32 *536:B1 *409:10 0
33 *536:A1 *409:10 7.52149e-05
34 *538:C *409:14 3.23417e-05
35 *538:C *409:18 1.54008e-05
36 *539:B2 *541:B 0
37 *541:C *541:B 1.54008e-05
38 *544:C *544:B 4.77425e-05
39 *555:A0 *526:B1 0
40 *555:A1 *526:B1 6.99095e-05
41 *574:A1 *409:24 0.000663967
42 *574:A1 *409:46 0.000234224
43 *574:S *409:24 1.54008e-05
44 *580:A *544:B 0
45 *681:C *681:B 8.01938e-05
46 *770:A *544:B 0.000209114
47 *787:A *541:B 0
48 *3:10 *526:B1 0
49 *13:8 *409:24 0
50 *21:10 *544:B 0.000144877
51 *49:14 *409:10 0.000436456
52 *49:14 *409:99 7.93152e-05
53 *49:29 *409:10 0.000287672
54 *49:45 *541:B 0
55 *52:14 *409:67 0.000230357
56 *66:12 *409:24 0
57 *67:30 *541:B 0
58 *67:30 *409:18 0.000791478
59 *70:10 *541:B 0
60 *78:21 *409:99 0
61 *92:20 *409:14 0.000112558
62 *92:20 *409:18 0.000582654
63 *92:22 *409:18 0.000273639
64 *92:33 *541:B 0
65 *155:10 *409:99 0
66 *159:23 *409:67 0.000287256
67 *159:35 *541:B 8.00842e-05
68 *159:35 *409:67 0.000234224
69 *168:29 *409:99 0
70 *190:8 *541:B 0
71 *223:16 *541:B 0
72 *235:12 *409:10 0
73 *239:45 *409:24 0
74 *279:20 *541:B 4.78359e-05
75 *286:10 *526:B1 1.54556e-05
76 *286:10 *409:24 4.79124e-05
77 *286:10 *409:46 0
78 *303:12 *541:B 0.00036323
79 *308:8 *409:99 0
80 *375:8 *541:B 0
81 *405:10 *409:99 0.00012816
*RES
1 *761:X *409:10 43.8456 
2 *409:10 *409:14 20.6424 
3 *409:14 *409:18 24.8928 
4 *409:18 *409:24 25.6144 
5 *409:24 *526:B1 25.6672 
6 *409:24 *534:B1 20 
7 *409:18 *409:46 1.3552 
8 *409:46 *541:B 49.5744 
9 *409:46 *409:67 22.2 
10 *409:67 *544:B 25.6496 
11 *409:67 *508:B 20 
12 *409:14 *538:B 20 
13 *761:X *409:99 43.9248 
14 *409:99 *681:B 41.012 
*END

*D_NET *414 0.0145283
*CONN
*I *579:D I *D sg13g2_nand4_1
*I *537:A I *D sg13g2_nand2_1
*I *505:B2 I *D sg13g2_a22oi_1
*I *543:A I *D sg13g2_nand2_1
*I *514:A1 I *D sg13g2_a21oi_1
*I *511:A1 I *D sg13g2_a21oi_1
*I *540:A I *D sg13g2_nand2_1
*I *680:A I *D sg13g2_nand2_1
*I *843:X O *D sg13g2_buf_1
*CAP
1 *579:D 4.72978e-05
2 *537:A 0
3 *505:B2 0
4 *543:A 0
5 *514:A1 0.000120889
6 *511:A1 0.000160484
7 *540:A 2.77263e-05
8 *680:A 9.64713e-05
9 *843:X 0.00021666
10 *414:104 0.000299946
11 *414:64 0.00141377
12 *414:51 0.00181126
13 *414:39 0.00127685
14 *414:33 0.00122366
15 *414:27 0.00117461
16 *414:25 0.00082999
17 *414:12 0.000692539
18 *414:8 0.000306749
19 *511:A1 *511:B1 0.000175969
20 *680:A *415:64 0
21 *680:A *415:66 0
22 *414:8 *435:98 0.000606278
23 *414:25 *440:21 0
24 *414:27 *440:21 0
25 *414:33 *692:RESET_B 4.77425e-05
26 *414:33 *415:31 0
27 *414:39 *415:25 0.00043561
28 *414:39 *415:31 0
29 *414:51 *415:18 0.000663396
30 *414:51 *415:25 0.00019696
31 *414:64 *415:18 0
32 *414:64 *435:51 0
33 *414:104 *688:RESET_B 0
34 *511:A2 *511:A1 1.54556e-05
35 *514:A2 *514:A1 1.54008e-05
36 *539:A2 *414:64 0
37 *541:B *414:51 0
38 *541:C *414:51 0
39 *543:B *414:39 0.000208999
40 *545:C *414:27 0
41 *545:A *414:104 7.51285e-05
42 *585:A1 *414:64 0
43 *663:A0 *414:12 0.000112349
44 *675:A1 *414:8 0
45 *680:B *680:A 1.54008e-05
46 *681:B *414:25 0.000176873
47 *681:C *680:A 0
48 *681:C *414:25 0
49 *686:D *414:39 0.000144882
50 *687:D *414:64 0
51 *690:D *514:A1 0
52 *763:A *414:12 0
53 *763:A *414:25 0
54 *864:A *414:25 0
55 *49:29 *414:104 0
56 *49:33 *414:27 3.23417e-05
57 *49:33 *414:33 0.000727619
58 *49:45 *414:33 0
59 *49:45 *414:39 0
60 *49:45 *414:51 0
61 *52:14 *414:33 0
62 *52:14 *414:39 4.77425e-05
63 *67:24 *414:104 4.77425e-05
64 *67:54 *414:104 0.000128804
65 *68:10 *414:104 0.000287808
66 *79:12 *414:27 0
67 *92:66 *511:A1 0.000112008
68 *92:66 *514:A1 0.000177005
69 *167:8 *414:33 0
70 *167:14 *414:104 0
71 *239:31 *414:33 4.77425e-05
72 *239:31 *414:39 4.77425e-05
73 *277:25 *414:25 0
74 *278:40 *414:25 0
75 *296:31 *414:25 3.24022e-05
76 *296:31 *414:27 1.54008e-05
77 *395:14 *414:104 0.00023464
*RES
1 *843:X *414:8 42.4112 
2 *414:8 *414:12 20.8272 
3 *414:12 *680:A 20.7568 
4 *414:12 *414:25 4.928 
5 *414:25 *414:27 2.1208 
6 *414:27 *414:33 5.4912 
7 *414:33 *414:39 5.4648 
8 *414:39 *414:51 6.6132 
9 *414:51 *540:A 20.2992 
10 *414:51 *414:64 30.4984 
11 *414:64 *511:A1 41.5224 
12 *414:64 *514:A1 41.012 
13 *414:39 *543:A 20 
14 *414:33 *505:B2 20 
15 *414:27 *414:104 43.41 
16 *414:104 *537:A 20 
17 *414:25 *579:D 20.5104 
*END

*D_NET *416 0.0155009
*CONN
*I *534:A2 I *D sg13g2_o21ai_1
*I *526:A2 I *D sg13g2_o21ai_1
*I *515:A2 I *D sg13g2_o21ai_1
*I *525:A2 I *D sg13g2_o21ai_1
*I *532:A2 I *D sg13g2_o21ai_1
*I *521:A2 I *D sg13g2_o21ai_1
*I *519:A2 I *D sg13g2_o21ai_1
*I *512:A2 I *D sg13g2_o21ai_1
*I *845:X O *D sg13g2_buf_1
*CAP
1 *534:A2 0
2 *526:A2 0
3 *515:A2 0
4 *525:A2 2.8725e-05
5 *532:A2 2.68837e-05
6 *521:A2 2.80955e-05
7 *519:A2 0.000124923
8 *512:A2 5.87569e-05
9 *845:X 0.000775185
10 *416:67 0.000339382
11 *416:65 0.00031338
12 *416:63 0.00127621
13 *416:46 0.00184823
14 *416:32 0.00195716
15 *416:22 0.00195147
16 *416:12 0.000674893
17 *416:8 0.000813658
18 *519:A2 *825:A 0
19 *416:22 *431:12 8.00842e-05
20 *416:22 *431:14 0.000208195
21 *416:32 *577:A 0
22 *416:32 *711:CLK 0
23 *416:32 *717:CLK 4.79124e-05
24 *416:32 *874:A 0
25 *416:32 *425:33 0
26 *416:32 *431:14 0
27 *416:32 *431:25 0
28 *416:46 *425:20 0
29 *416:46 *431:48 0
30 *416:63 *575:A 0
31 *416:63 *861:A 0
32 *416:63 *432:16 0
33 *416:65 *432:39 0
34 *416:67 *432:39 0
35 *416:67 *432:41 0
36 *494:B1 *416:22 0
37 *495:A *416:22 0
38 *512:B1 *512:A2 7.34141e-06
39 *515:B1 *416:32 1.54556e-05
40 *515:B1 *416:46 8.03692e-05
41 *515:A1 *416:32 0
42 *515:A1 *416:46 0
43 *519:B1 *519:A2 0.000234158
44 *519:B1 *416:67 7.49652e-05
45 *521:A1 *521:A2 1.54008e-05
46 *525:B1 *525:A2 1.54008e-05
47 *525:A1 *525:A2 4.77425e-05
48 *526:B1 *416:12 1.54556e-05
49 *526:B1 *416:22 0.000289875
50 *526:B1 *416:32 1.54556e-05
51 *532:B1 *532:A2 1.54008e-05
52 *532:A1 *416:63 0.000235158
53 *532:A1 *416:65 0.000288087
54 *532:A1 *416:67 7.52149e-05
55 *534:A1 *416:12 6.4771e-05
56 *534:A1 *416:22 1.54556e-05
57 *555:A0 *416:22 0.00014407
58 *555:A1 *416:22 0
59 *575:B *416:46 0.000112695
60 *576:B1 *416:46 0
61 *695:D *512:A2 2.18151e-05
62 *695:D *416:46 0.000274638
63 *896:A *416:46 0
64 *13:8 *416:8 0
65 *39:12 *416:63 0
66 *55:14 *416:63 0.0001273
67 *57:21 *416:32 0
68 *65:8 *416:63 0.00106345
69 *66:12 *416:8 0
70 *85:16 *416:63 0
71 *90:10 *416:46 1.54008e-05
72 *169:6 *416:63 0
73 *172:18 *416:63 0
74 *172:24 *416:63 0
75 *180:15 *512:A2 0
76 *234:16 *416:32 0
77 *234:28 *416:32 0
78 *284:8 *512:A2 0
79 *284:8 *416:46 0
80 *295:8 *519:A2 0.000129657
81 *315:18 *416:32 0
82 *315:18 *416:46 0.000172627
83 *316:8 *416:63 0
84 *319:19 *416:8 0.00130026
85 *319:31 *416:8 0
86 *403:10 *416:32 0
87 *409:24 *416:12 6.4771e-05
88 *410:37 *521:A2 1.54008e-05
89 *410:52 *416:67 0
*RES
1 *845:X *416:8 48.9584 
2 *416:8 *416:12 20.4576 
3 *416:12 *416:22 6.0896 
4 *416:22 *416:32 11.0528 
5 *416:32 *416:46 6.0324 
6 *416:46 *512:A2 20.572 
7 *416:46 *416:63 31.616 
8 *416:63 *416:65 1.144 
9 *416:65 *416:67 1.5664 
10 *416:67 *519:A2 41.4168 
11 *416:67 *521:A2 40.2728 
12 *416:65 *532:A2 40.2728 
13 *416:63 *525:A2 40.2728 
14 *416:32 *515:A2 20 
15 *416:22 *526:A2 20 
16 *416:12 *534:A2 20 
*END

*D_NET *413 0.0175544
*CONN
*I *528:A2 I *D sg13g2_o21ai_1
*I *523:A2 I *D sg13g2_o21ai_1
*I *530:A2 I *D sg13g2_o21ai_1
*I *845:A I *D sg13g2_buf_1
*I *517:A2 I *D sg13g2_o21ai_1
*I *524:A2 I *D sg13g2_o21ai_1
*I *678:A2 I *D sg13g2_o21ai_1
*I *677:A2 I *D sg13g2_o21ai_1
*I *842:X O *D sg13g2_buf_1
*CAP
1 *528:A2 0
2 *523:A2 0
3 *530:A2 0
4 *845:A 0.000651989
5 *517:A2 0.00058845
6 *524:A2 0
7 *678:A2 0.000180978
8 *677:A2 5.01558e-05
9 *842:X 0.000199593
10 *413:118 0.000135739
11 *413:83 0.00195399
12 *413:77 0.00171135
13 *413:66 0.000107482
14 *413:56 0.00128957
15 *413:54 0.000514386
16 *413:39 0.000740002
17 *413:31 0.000393316
18 *413:27 0.00109474
19 *413:12 0.00111624
20 *413:10 0.000199593
21 *517:A2 *421:12 0.000607077
22 *845:A *850:A 0.000274781
23 *845:A *421:8 0
24 *845:A *421:12 0.000747427
25 *413:27 *697:RESET_B 0.000661386
26 *413:27 *697:CLK 0
27 *413:27 *705:RESET_B 0.000128662
28 *413:27 *460:8 0
29 *413:54 *827:A 0
30 *413:56 *674:A2 0
31 *413:77 *704:RESET_B 0
32 reg_rsp_o[13] *413:31 0
33 *482:A0 *413:83 0
34 *482:S *413:83 0.00082563
35 *516:A *517:A2 0
36 *516:A *845:A 0
37 *517:B1 *517:A2 1.54008e-05
38 *523:A1 *413:118 4.77425e-05
39 *528:A1 *413:39 4.77425e-05
40 *552:A *413:27 0
41 *664:A0 *413:10 0
42 *674:A1 *413:56 4.78028e-05
43 *674:A1 *413:77 1.54556e-05
44 *677:B1 *677:A2 1.54008e-05
45 *677:A1 *677:A2 8.01612e-05
46 *677:A1 *413:27 3.20656e-05
47 *678:B1 *678:A2 0.000111994
48 *678:B1 *413:54 0
49 *704:D *413:77 0
50 *704:D *413:83 0
51 *709:D *413:77 0.000209856
52 *813:A *413:10 0.000112486
53 *839:A *413:66 4.77425e-05
54 *839:A *413:77 0
55 *35:14 *413:66 4.77425e-05
56 *35:27 *413:66 1.54008e-05
57 *53:18 *413:10 0.000394981
58 *53:18 *413:118 4.77425e-05
59 *53:24 *413:39 0
60 *53:24 *413:118 0.000341119
61 *53:30 *413:54 0
62 *53:30 *413:56 0
63 *53:68 *413:27 7.51285e-05
64 *53:68 *413:39 0.000499799
65 *59:25 *517:A2 0.000180927
66 *63:8 *413:27 0
67 *150:23 *678:A2 0.000111917
68 *153:8 *413:66 0.000233959
69 *209:13 *678:A2 0
70 *209:13 *413:54 7.91362e-05
71 *225:8 *413:27 0
72 *232:8 *845:A 0
73 *240:12 *413:10 0.000112426
74 *245:12 *413:27 0
75 *249:8 *413:39 0
76 *250:20 *845:A 0
77 *257:18 *517:A2 0
78 *275:14 *413:10 0
79 *288:18 *413:54 0
80 *288:18 *413:56 0
81 *288:18 *413:77 0
82 *289:10 *413:39 0
83 *292:12 *413:66 0.000180928
84 *297:16 *517:A2 0
85 *305:8 *413:39 0.000181279
86 *410:10 *413:83 0
87 *410:85 *413:77 1.54008e-05
88 *410:85 *413:83 8.00842e-05
*RES
1 *842:X *413:10 42.3936 
2 *413:10 *413:12 20 
3 *413:12 *677:A2 20.4576 
4 *413:12 *413:27 31.22 
5 *413:27 *413:31 20.2728 
6 *413:31 *413:39 24.1976 
7 *413:39 *678:A2 41.5752 
8 *413:39 *413:54 21.5664 
9 *413:54 *413:56 1.5664 
10 *413:56 *413:66 41.5048 
11 *413:66 *524:A2 20 
12 *413:56 *413:77 9.2136 
13 *413:77 *413:83 26.644 
14 *413:83 *517:A2 45.0072 
15 *413:83 *845:A 46.4592 
16 *413:77 *530:A2 20 
17 *413:54 *413:118 41.628 
18 *413:118 *523:A2 20 
19 *413:31 *528:A2 20 
*END

*D_NET *418 0.00815911
*CONN
*I *725:RESET_B I *D sg13g2_dfrbpq_1
*I *732:RESET_B I *D sg13g2_dfrbpq_1
*I *730:RESET_B I *D sg13g2_dfrbpq_1
*I *731:RESET_B I *D sg13g2_dfrbpq_1
*I *726:RESET_B I *D sg13g2_dfrbpq_1
*I *733:RESET_B I *D sg13g2_dfrbpq_1
*I *738:RESET_B I *D sg13g2_dfrbpq_1
*I *734:RESET_B I *D sg13g2_dfrbpq_1
*I *847:X O *D sg13g2_buf_1
*CAP
1 *725:RESET_B 0.000149546
2 *732:RESET_B 3.15824e-05
3 *730:RESET_B 4.95132e-05
4 *731:RESET_B 0.000414274
5 *726:RESET_B 0.000126551
6 *733:RESET_B 0.000163076
7 *738:RESET_B 0
8 *734:RESET_B 5.37784e-05
9 *847:X 0.000416093
10 *418:69 0.00119725
11 *418:45 0.000416379
12 *418:43 0.00106965
13 *418:41 0.000348892
14 *418:39 0.000547647
15 *418:23 0.000386797
16 *418:8 0.00056644
17 *725:RESET_B *725:CLK 0
18 *726:RESET_B *726:D 0
19 *726:RESET_B *733:D 0
20 *733:RESET_B *733:D 0
21 *418:23 *423:37 0.00040452
22 *418:39 *725:CLK 0.000288502
23 *418:39 *733:CLK 0.000106392
24 *418:39 *423:37 0
25 *418:41 *733:CLK 0.0003738
26 *418:43 *733:CLK 0.000748946
27 *418:45 *733:CLK 0.000236291
28 *725:D *725:RESET_B 0
29 *730:D *731:RESET_B 1.54556e-05
30 *730:D *418:69 0
31 *731:D *731:RESET_B 0
32 *731:CLK *731:RESET_B 0
33 *734:D *418:23 4.77425e-05
34 *54:40 *734:RESET_B 0
35 *360:8 *418:39 0
36 *417:21 *734:RESET_B 0
37 *417:21 *418:8 0
38 *417:21 *418:23 0
39 *417:29 *418:39 0
*RES
1 *847:X *418:8 21.1264 
2 *418:8 *734:RESET_B 20.4576 
3 *418:8 *418:23 43.4496 
4 *418:23 *738:RESET_B 20 
5 *847:X *418:39 43.1328 
6 *418:39 *418:41 1.5664 
7 *418:41 *418:43 3.0448 
8 *418:43 *418:45 1.5664 
9 *418:45 *733:RESET_B 41.628 
10 *418:45 *726:RESET_B 41.3816 
11 *418:43 *418:69 26.556 
12 *418:69 *731:RESET_B 24.0128 
13 *418:69 *730:RESET_B 20.5104 
14 *418:41 *732:RESET_B 40.2728 
15 *418:39 *725:RESET_B 41.3816 
*END

*D_NET *417 0.0123705
*CONN
*I *847:A I *D sg13g2_buf_1
*I *728:RESET_B I *D sg13g2_dfrbpq_1
*I *727:RESET_B I *D sg13g2_dfrbpq_1
*I *684:RESET_B I *D sg13g2_dfrbpq_1
*I *736:RESET_B I *D sg13g2_dfrbpq_1
*I *685:RESET_B I *D sg13g2_dfrbpq_1
*I *729:RESET_B I *D sg13g2_dfrbpq_1
*I *735:RESET_B I *D sg13g2_dfrbpq_1
*I *846:X O *D sg13g2_buf_1
*CAP
1 *847:A 0
2 *728:RESET_B 0.000811405
3 *727:RESET_B 0
4 *684:RESET_B 0
5 *736:RESET_B 0.000220195
6 *685:RESET_B 0
7 *729:RESET_B 0.000751934
8 *735:RESET_B 0
9 *846:X 0.000557882
10 *417:79 0.0011669
11 *417:72 0.000194533
12 *417:57 0.000709968
13 *417:44 0.000482332
14 *417:33 0.00115701
15 *417:29 0.00103482
16 *417:21 0.00143707
17 *417:14 0.0010905
18 *417:10 0.000672648
19 *417:10 *714:CLK 0
20 *417:10 *427:39 0
21 *417:14 *423:8 0
22 *417:21 *734:RESET_B 0
23 *417:21 *826:A 0
24 *417:21 *852:A 0
25 *417:21 *418:8 0
26 *417:21 *418:23 0
27 *417:21 *423:8 0
28 *417:21 *423:37 0
29 *417:29 *725:CLK 0
30 *417:29 *418:39 0
31 *417:79 *725:CLK 0
32 *482:A0 *417:72 0
33 *595:B_N *417:10 0
34 *620:A *729:RESET_B 0
35 *626:A1 *728:RESET_B 0
36 *642:A2 *728:RESET_B 0
37 *658:A0 *736:RESET_B 8.02763e-05
38 *658:A0 *417:57 0.000291595
39 *658:A1 *417:57 0
40 *658:A1 *417:72 0
41 *658:S *736:RESET_B 0
42 *661:B *728:RESET_B 0
43 *661:C *728:RESET_B 0.000144895
44 *662:A0 *729:RESET_B 0
45 *662:S *728:RESET_B 0
46 *662:S *729:RESET_B 0.000825077
47 *662:S *417:79 0
48 *684:D *736:RESET_B 0
49 *684:D *417:57 0
50 *684:D *417:72 0
51 *685:D *729:RESET_B 0
52 *727:D *417:33 0
53 *727:D *417:79 0
54 *728:CLK *728:RESET_B 0
55 *728:CLK *729:RESET_B 0
56 *734:D *417:21 0.000209505
57 *734:D *417:29 0
58 *735:D *417:14 0
59 *735:CLK *417:14 0
60 *735:CLK *417:21 0
61 *736:CLK *736:RESET_B 0
62 *54:6 *417:72 4.78521e-05
63 *54:21 *736:RESET_B 0
64 *54:40 *417:21 0
65 *118:31 *728:RESET_B 0
66 *119:10 *729:RESET_B 0
67 *120:8 *728:RESET_B 0.000274375
68 *120:19 *728:RESET_B 0
69 *319:8 *417:10 0
70 *351:8 *417:10 0
71 *360:8 *417:21 0
72 *360:8 *417:29 0.00020973
73 *360:21 *417:29 0
74 *360:21 *417:33 0
75 *360:21 *417:44 0
76 *360:32 *417:44 0
77 *360:32 *417:57 0
78 *364:10 *728:RESET_B 0
79 *367:29 *728:RESET_B 0
80 *372:21 *417:33 0
81 *372:21 *417:44 0
82 *372:32 *729:RESET_B 0
83 *374:18 *417:44 0
84 *374:18 *417:57 0
*RES
1 *846:X *417:10 44.9808 
2 *417:10 *417:14 21.012 
3 *417:14 *735:RESET_B 20 
4 *417:14 *417:21 8.404 
5 *417:21 *417:29 43.9512 
6 *417:29 *417:33 22.4112 
7 *417:33 *729:RESET_B 46.7408 
8 *417:33 *417:44 1.9888 
9 *417:44 *685:RESET_B 40 
10 *417:44 *417:57 22.684 
11 *417:57 *736:RESET_B 21.7512 
12 *417:57 *417:72 41.4168 
13 *417:72 *684:RESET_B 20 
14 *417:29 *417:79 3.4144 
15 *417:79 *727:RESET_B 20 
16 *417:79 *728:RESET_B 27.3392 
17 *417:21 *847:A 20 
*END

*D_NET *437 0.00520949
*CONN
*I *748:RESET_B I *D sg13g2_dfrbpq_1
*I *683:RESET_B I *D sg13g2_dfrbpq_1
*I *746:RESET_B I *D sg13g2_dfrbpq_1
*I *741:RESET_B I *D sg13g2_dfrbpq_1
*I *747:RESET_B I *D sg13g2_dfrbpq_1
*I *739:RESET_B I *D sg13g2_dfrbpq_1
*I *866:X O *D sg13g2_buf_1
*CAP
1 *748:RESET_B 0.00076723
2 *683:RESET_B 0
3 *746:RESET_B 0.000238003
4 *741:RESET_B 0.000130345
5 *747:RESET_B 0
6 *739:RESET_B 2.51688e-05
7 *866:X 9.99074e-05
8 *437:51 0.000289773
9 *437:47 0.00101351
10 *437:36 0.000708251
11 *437:29 0.000278894
12 *437:14 0.000651
13 *437:8 0.00083024
14 *480:A0 *748:RESET_B 0
15 *683:D *746:RESET_B 0
16 *739:D *739:RESET_B 0
17 *739:D *437:14 0
18 *739:CLK *437:14 0
19 *739:CLK *437:29 0
20 *741:D *437:36 0
21 *747:CLK *437:29 0
22 *348:22 *741:RESET_B 0.000177164
23 *348:33 *748:RESET_B 0
24 *348:33 *437:47 0
25 *422:14 *746:RESET_B 0
26 *427:86 *748:RESET_B 0
27 *427:88 *748:RESET_B 0
28 *427:88 *437:36 0
29 *427:88 *437:47 0
30 *427:100 *748:RESET_B 0
31 *428:36 *437:8 0
32 *428:42 *437:36 0
*RES
1 *866:X *437:8 40.8272 
2 *437:8 *437:14 23.8984 
3 *437:14 *739:RESET_B 20.2728 
4 *437:14 *437:29 42.8952 
5 *437:29 *747:RESET_B 20 
6 *437:8 *437:36 3.0448 
7 *437:36 *741:RESET_B 41.1968 
8 *437:36 *437:47 1.5664 
9 *437:47 *437:51 20.4576 
10 *437:51 *746:RESET_B 22.2352 
11 *437:51 *683:RESET_B 20 
12 *437:47 *748:RESET_B 45.9312 
*END

*D_NET *438 0.00782774
*CONN
*I *744:RESET_B I *D sg13g2_dfrbpq_1
*I *866:A I *D sg13g2_buf_1
*I *745:RESET_B I *D sg13g2_dfrbpq_1
*I *742:RESET_B I *D sg13g2_dfrbpq_1
*I *743:RESET_B I *D sg13g2_dfrbpq_1
*I *740:RESET_B I *D sg13g2_dfrbpq_1
*I *867:X O *D sg13g2_buf_1
*CAP
1 *744:RESET_B 0.000144395
2 *866:A 0.00034706
3 *745:RESET_B 2.59963e-05
4 *742:RESET_B 0.000253468
5 *743:RESET_B 0
6 *740:RESET_B 0.00026471
7 *867:X 0.0008212
8 *438:31 0.000677905
9 *438:14 0.000745395
10 *438:12 0.000436448
11 *438:10 0.00137807
12 *740:RESET_B *740:D 0.000209812
13 *635:A *438:10 0
14 *640:A *866:A 0
15 *641:A2 *866:A 0
16 *721:RESET_B *744:RESET_B 0.000209593
17 *721:D *744:RESET_B 0
18 *739:D *866:A 0
19 *740:CLK *438:12 0
20 *742:D *742:RESET_B 0
21 *742:D *438:31 4.78524e-05
22 *743:D *438:31 0
23 *883:A *438:31 0
24 *124:10 *438:10 0.000235556
25 *125:10 *438:10 0
26 *129:21 *438:10 0.000234224
27 *342:12 *740:RESET_B 7.50937e-05
28 *342:12 *438:10 0.000289002
29 *342:12 *438:12 0.00125067
30 *342:12 *438:14 0.000181298
31 *346:10 *438:10 0
32 *428:53 *438:12 0
*RES
1 *867:X *438:10 46.9344 
2 *438:10 *438:12 4.9456 
3 *438:12 *438:14 0.7216 
4 *438:14 *740:RESET_B 42.7368 
5 *438:14 *438:31 23.8984 
6 *438:31 *743:RESET_B 20 
7 *438:31 *742:RESET_B 22.4464 
8 *438:12 *745:RESET_B 40.2728 
9 *438:10 *866:A 43.1328 
10 *867:X *744:RESET_B 41.1968 
*END

*D_NET *415 0.0269088
*CONN
*I *756:RESET_B I *D sg13g2_dfrbpq_1
*I *755:RESET_B I *D sg13g2_dfrbpq_1
*I *686:RESET_B I *D sg13g2_dfrbpq_1
*I *692:RESET_B I *D sg13g2_dfrbpq_1
*I *693:RESET_B I *D sg13g2_dfrbpq_1
*I *689:RESET_B I *D sg13g2_dfrbpq_1
*I *688:RESET_B I *D sg13g2_dfrbpq_1
*I *687:RESET_B I *D sg13g2_dfrbpq_1
*I *844:X O *D sg13g2_buf_1
*CAP
1 *756:RESET_B 2.60565e-05
2 *755:RESET_B 0.00010552
3 *686:RESET_B 2.77984e-05
4 *692:RESET_B 2.7553e-05
5 *693:RESET_B 8.3081e-05
6 *689:RESET_B 0
7 *688:RESET_B 2.77984e-05
8 *687:RESET_B 0
9 *844:X 0
10 *415:129 0.000963875
11 *415:110 0.00297097
12 *415:74 0.000445718
13 *415:66 0.000850362
14 *415:64 0.00133014
15 *415:37 0.00162303
16 *415:31 0.00110699
17 *415:25 0.00104877
18 *415:18 0.000734208
19 *415:10 0.00126239
20 *415:8 0.000992206
21 *415:4 0.00291984
22 *415:8 *427:234 0
23 *415:18 *687:CLK 0.000565845
24 *415:31 *686:CLK 0
25 *415:31 *440:38 0
26 *415:37 *876:A 4.77425e-05
27 *415:37 *440:38 0
28 *415:64 *440:21 0
29 *415:74 *442:57 0
30 *415:110 *696:CLK 0
31 *415:110 *753:CLK 0
32 *415:110 *755:CLK 0
33 *415:110 *419:38 0.000598055
34 *415:110 *429:68 0
35 *415:129 *704:CLK 0
36 *415:129 *421:76 0.000130055
37 intr_gpio_o[0] *415:8 0
38 *482:A0 *415:129 0
39 *482:A1 *415:129 0
40 *485:A *415:129 0
41 *486:A1 *415:129 0
42 *486:A2 *415:129 0
43 *487:B1 *756:RESET_B 4.77425e-05
44 *487:B1 *415:129 0.00082534
45 *487:B2 *415:129 0
46 *487:A1 *415:129 0.00027466
47 *494:B1 *415:110 0
48 *526:A1 *415:8 0
49 *544:B *686:RESET_B 0
50 *544:B *415:25 0
51 *544:B *415:31 0.000145009
52 *544:C *415:25 4.77425e-05
53 *584:A1 *415:37 0
54 *584:A1 *415:64 0
55 *663:A0 *693:RESET_B 8.02269e-05
56 *663:A0 *415:66 0.000436122
57 *663:S *693:RESET_B 0
58 *680:A *415:64 0
59 *680:A *415:66 0
60 *680:B *415:64 8.00842e-05
61 *681:B *415:64 0
62 *688:D *415:37 0
63 *689:D *415:74 0
64 *755:D *755:RESET_B 0
65 *755:D *415:129 0
66 *764:A *415:64 0
67 *765:A *415:18 0
68 *860:A *415:110 0
69 *1:10 *415:110 0.000234726
70 *21:10 *415:25 0.000144877
71 *35:8 *415:129 0
72 *43:18 *415:8 0
73 *49:45 *415:8 0
74 *67:24 *688:RESET_B 0
75 *67:30 *415:37 0.000371608
76 *67:30 *415:64 8.00842e-05
77 *72:10 *415:8 0
78 *78:21 *415:64 0.00011279
79 *79:18 *415:110 0
80 *79:28 *415:110 0
81 *92:20 *415:64 0
82 *92:91 *415:37 0.000181192
83 *92:106 *415:64 0.000635207
84 *92:106 *415:66 0
85 *160:8 *415:74 0.000670605
86 *167:14 *415:64 0.000287758
87 *173:17 *415:129 0
88 *174:23 *415:129 0.000130055
89 *183:12 *415:8 0
90 *185:12 *756:RESET_B 4.77425e-05
91 *223:29 *415:8 0.0011414
92 *224:12 *415:129 0
93 *239:23 *415:37 0
94 *239:31 *415:31 8.00842e-05
95 *244:10 *415:37 0
96 *279:20 *415:8 0
97 *280:8 *415:18 0
98 *288:18 *415:129 0
99 *290:8 *415:8 0.00108836
100 *296:12 *415:64 0
101 *312:8 *415:8 0
102 *319:31 *415:110 0
103 *319:38 *415:110 0
104 *319:47 *415:110 0.000533678
105 *396:8 *415:18 0
106 *414:33 *692:RESET_B 4.77425e-05
107 *414:33 *415:31 0
108 *414:39 *415:25 0.00043561
109 *414:39 *415:31 0
110 *414:51 *415:18 0.000663396
111 *414:51 *415:25 0.00019696
112 *414:64 *415:18 0
113 *414:104 *688:RESET_B 0
*RES
1 *844:X *415:4 20 
2 *415:4 *415:8 30.4368 
3 *415:8 *415:10 20 
4 *415:10 *415:18 47.4096 
5 *415:18 *687:RESET_B 20 
6 *415:10 *415:25 4.5232 
7 *415:25 *415:31 23.9512 
8 *415:31 *415:37 25.1656 
9 *415:37 *688:RESET_B 20.2992 
10 *415:37 *415:64 49.0068 
11 *415:64 *415:66 2.6752 
12 *415:66 *415:74 44.5584 
13 *415:74 *689:RESET_B 20 
14 *415:66 *693:RESET_B 20.7568 
15 *415:31 *692:RESET_B 40.2728 
16 *415:25 *686:RESET_B 20.2992 
17 *415:4 *415:110 36.808 
18 *415:110 *755:RESET_B 40.968 
19 *415:110 *415:129 49.284 
20 *415:129 *756:RESET_B 40.2728 
*END

*D_NET *421 0.0187117
*CONN
*I *719:RESET_B I *D sg13g2_dfrbpq_1
*I *701:RESET_B I *D sg13g2_dfrbpq_1
*I *697:RESET_B I *D sg13g2_dfrbpq_1
*I *705:RESET_B I *D sg13g2_dfrbpq_1
*I *709:RESET_B I *D sg13g2_dfrbpq_1
*I *704:RESET_B I *D sg13g2_dfrbpq_1
*I *708:RESET_B I *D sg13g2_dfrbpq_1
*I *700:RESET_B I *D sg13g2_dfrbpq_1
*I *850:X O *D sg13g2_buf_1
*CAP
1 *719:RESET_B 0.00100334
2 *701:RESET_B 8.15169e-05
3 *697:RESET_B 0.000447618
4 *705:RESET_B 3.73159e-05
5 *709:RESET_B 0.000217704
6 *704:RESET_B 0.000176438
7 *708:RESET_B 0.000223944
8 *700:RESET_B 0
9 *850:X 0.00011958
10 *421:78 0.000484933
11 *421:76 0.00109331
12 *421:61 0.00148064
13 *421:57 0.0005437
14 *421:33 0.000400381
15 *421:31 0.00141392
16 *421:12 0.00165821
17 *421:8 0.00165976
18 *719:RESET_B *567:B1 0
19 *719:RESET_B *427:250 0
20 *719:RESET_B *427:256 0
21 *719:RESET_B *427:263 0
22 *719:RESET_B *427:270 0
23 *719:RESET_B *429:6 0.000274298
24 *719:RESET_B *429:68 0.000209505
25 *421:31 *429:91 0
26 *421:76 *705:CLK 0.000905813
27 *421:76 *441:8 8.00842e-05
28 *421:76 *441:15 0.000259051
29 *482:A1 *704:RESET_B 0
30 *486:A2 *719:RESET_B 0
31 *516:A *421:31 0
32 *517:A2 *421:12 0.000607077
33 *527:A *697:RESET_B 0
34 *563:A1 *421:31 0
35 *647:B1 *697:RESET_B 0
36 *704:D *421:31 0
37 *708:D *421:57 0
38 *719:D *719:RESET_B 0
39 *792:A *697:RESET_B 0
40 *839:A *704:RESET_B 0
41 *845:A *421:8 0
42 *845:A *421:12 0.000747427
43 *858:A *719:RESET_B 0
44 *900:A *421:8 0.000209713
45 *35:8 *709:RESET_B 0.000112426
46 *63:8 *697:RESET_B 0
47 *63:8 *705:RESET_B 0
48 *66:12 *719:RESET_B 0
49 *79:28 *719:RESET_B 0
50 *96:10 *421:12 7.49633e-05
51 *174:12 *421:61 0.000936254
52 *174:12 *421:76 0.000292457
53 *185:12 *709:RESET_B 0
54 *185:12 *421:76 0
55 *233:8 *421:61 0.000936586
56 *233:8 *421:76 0.000161737
57 *239:45 *719:RESET_B 0
58 *245:12 *697:RESET_B 0
59 *248:14 *421:31 0.000304592
60 *250:20 *421:8 0.000112425
61 *250:20 *421:12 0
62 *288:18 *709:RESET_B 0
63 *297:8 *421:31 0
64 *374:12 *708:RESET_B 0
65 *410:10 *421:12 0
66 *412:8 *421:31 0
67 *412:53 *704:RESET_B 0.000182216
68 *412:53 *708:RESET_B 0.000342629
69 *412:53 *421:57 0
70 *412:66 *701:RESET_B 0
71 *412:66 *421:57 0
72 *413:27 *697:RESET_B 0.000661386
73 *413:27 *705:RESET_B 0.000128662
74 *413:77 *704:RESET_B 0
75 *415:129 *421:76 0.000130055
*RES
1 *850:X *421:8 41.1968 
2 *421:8 *421:12 26.0016 
3 *421:12 *700:RESET_B 20 
4 *421:12 *421:31 9.9352 
5 *421:31 *421:33 20 
6 *421:33 *708:RESET_B 42.7368 
7 *421:33 *704:RESET_B 41.8392 
8 *421:31 *421:57 2.86 
9 *421:57 *421:61 23.6784 
10 *421:61 *709:RESET_B 41.936 
11 *421:61 *421:76 30.7888 
12 *421:76 *421:78 20 
13 *421:78 *705:RESET_B 40.5104 
14 *421:78 *697:RESET_B 44.5584 
15 *421:57 *701:RESET_B 20.7568 
16 *421:8 *719:RESET_B 48.8176 
*END

*D_NET *420 0.0152474
*CONN
*I *850:A I *D sg13g2_buf_1
*I *707:RESET_B I *D sg13g2_dfrbpq_1
*I *695:RESET_B I *D sg13g2_dfrbpq_1
*I *703:RESET_B I *D sg13g2_dfrbpq_1
*I *698:RESET_B I *D sg13g2_dfrbpq_1
*I *699:RESET_B I *D sg13g2_dfrbpq_1
*I *849:X O *D sg13g2_buf_1
*CAP
1 *850:A 0.000596815
2 *707:RESET_B 0
3 *695:RESET_B 0
4 *703:RESET_B 0
5 *698:RESET_B 2.04316e-05
6 *699:RESET_B 0
7 *849:X 0.000319809
8 *420:73 0.00119911
9 *420:63 0.001629
10 *420:54 0.000744913
11 *420:38 0.000673078
12 *420:30 0.00100308
13 *420:24 0.000624586
14 *420:22 0.0021358
15 *420:10 0.00305243
16 *850:A *427:206 0
17 *420:10 *427:13 0
18 *420:22 *424:50 0.000339442
19 *420:22 *427:8 0
20 *420:38 *422:29 0.000508868
21 *420:38 *451:8 0.000286526
22 *420:54 *432:16 0
23 *420:63 *559:A2 0
24 *420:63 *707:CLK 0
25 *480:A1 *420:38 0
26 *520:A *420:38 0.000395488
27 *532:A1 *420:54 0
28 *600:A *420:22 0
29 *601:A *420:22 0
30 *606:B1 *420:22 0
31 *682:RESET_B *420:22 0
32 *682:D *420:22 0.00014502
33 *695:D *420:73 0.000208922
34 *703:D *420:63 0
35 *750:D *420:22 4.78356e-05
36 *845:A *850:A 0.000274781
37 *856:A *420:22 0
38 *65:8 *420:54 0
39 *105:12 *420:22 0
40 *106:10 *420:22 0.000495001
41 *106:20 *420:22 0.000112418
42 *107:20 *420:22 0
43 *108:33 *420:10 0
44 *109:12 *420:10 4.79124e-05
45 *110:12 *420:22 0
46 *111:12 *420:22 0
47 *112:20 *420:22 0.00017724
48 *112:27 *420:22 0
49 *169:6 *420:73 0
50 *169:20 *420:22 0
51 *169:34 *420:22 0
52 *172:18 *420:63 0
53 *180:15 *420:73 0.000208922
54 *210:10 *420:73 0
55 *238:8 *420:73 0
56 *250:20 *850:A 0
57 *319:19 *850:A 0
58 *410:37 *420:30 0
*RES
1 *849:X *420:10 42.0504 
2 *420:10 *420:22 38.788 
3 *420:22 *420:24 20 
4 *420:24 *420:30 23.1592 
5 *420:30 *420:38 47.8056 
6 *420:38 *699:RESET_B 20 
7 *420:30 *698:RESET_B 20.2728 
8 *420:24 *420:54 23.0448 
9 *420:54 *703:RESET_B 20 
10 *420:54 *420:63 3.7136 
11 *420:63 *420:73 49.7152 
12 *420:73 *695:RESET_B 20 
13 *420:63 *707:RESET_B 20 
14 *420:10 *850:A 44.3472 
*END

*D_NET *419 0.00879914
*CONN
*I *710:RESET_B I *D sg13g2_dfrbpq_1
*I *717:RESET_B I *D sg13g2_dfrbpq_1
*I *711:RESET_B I *D sg13g2_dfrbpq_1
*I *694:RESET_B I *D sg13g2_dfrbpq_1
*I *718:RESET_B I *D sg13g2_dfrbpq_1
*I *702:RESET_B I *D sg13g2_dfrbpq_1
*I *706:RESET_B I *D sg13g2_dfrbpq_1
*I *848:X O *D sg13g2_buf_1
*CAP
1 *710:RESET_B 0.000291153
2 *717:RESET_B 9.8124e-05
3 *711:RESET_B 0
4 *694:RESET_B 0
5 *718:RESET_B 0.000199173
6 *702:RESET_B 0.00024213
7 *706:RESET_B 0
8 *848:X 0
9 *419:70 0.000192275
10 *419:59 0.00035658
11 *419:46 0.00078065
12 *419:42 0.000559221
13 *419:40 0.000240174
14 *419:38 0.000753999
15 *419:16 0.000795691
16 *419:8 0.00153391
17 *419:6 0.000517504
18 *702:RESET_B *702:D 0
19 *702:RESET_B *427:250 0
20 *710:RESET_B *431:8 0
21 *419:8 *431:8 0
22 *419:16 *706:D 0
23 *419:16 *427:214 0
24 *419:16 *427:250 0
25 *419:38 *753:CLK 0
26 *419:38 *424:17 0
27 *419:46 *431:14 0
28 *496:A2 *419:46 0.000242089
29 *497:B2 *717:RESET_B 0
30 *497:B2 *419:42 0
31 *513:A *718:RESET_B 0
32 *711:D *419:46 0
33 *844:A *419:38 0
34 *860:A *419:16 0
35 *3:10 *710:RESET_B 1.54008e-05
36 *79:30 *702:RESET_B 0
37 *79:39 *702:RESET_B 0
38 *79:39 *419:16 0
39 *182:12 *419:46 0
40 *182:19 *419:42 0
41 *182:23 *419:38 0.00040429
42 *182:36 *419:38 0.000582709
43 *234:28 *718:RESET_B 0
44 *234:28 *419:59 0.00012816
45 *234:28 *419:70 0
46 *237:22 *419:70 0
47 *322:18 *717:RESET_B 0
48 *322:18 *419:42 0.000129578
49 *322:28 *419:42 1.54008e-05
50 *322:28 *419:46 4.77425e-05
51 *322:28 *419:59 0
52 *322:28 *419:70 7.51285e-05
53 *415:110 *419:38 0.000598055
*RES
1 *848:X *419:6 40 
2 *419:6 *419:8 1.9888 
3 *419:8 *419:16 24.3296 
4 *419:16 *706:RESET_B 20 
5 *419:16 *702:RESET_B 22.2352 
6 *419:8 *419:38 47.3568 
7 *419:38 *419:40 20 
8 *419:40 *419:42 1.1968 
9 *419:42 *419:46 2.2352 
10 *419:46 *718:RESET_B 21.5664 
11 *419:46 *419:59 43.8896 
12 *419:59 *694:RESET_B 20 
13 *419:42 *419:70 41.9888 
14 *419:70 *711:RESET_B 20 
15 *419:40 *717:RESET_B 20.7568 
16 *419:6 *710:RESET_B 42.4464 
*END

*D_NET *443 0.00173214
*CONN
*I *834:A I *D sg13g2_buf_1
*I *878:X O *D sg13g2_dlygate4sd3_1
*CAP
1 *834:A 0.000510159
2 *878:X 0.000510159
3 *834:A *733:D 0.000501797
4 *834:A *835:A 0.000210026
5 *881:A *834:A 0
6 *218:11 *834:A 0
*RES
1 *878:X *834:A 44.8224 
*END

*D_NET *444 0.000541932
*CONN
*I *726:D I *D sg13g2_dfrbpq_1
*I *879:X O *D sg13g2_dlygate4sd3_1
*CAP
1 *726:D 0.000270966
2 *879:X 0.000270966
3 *726:D *733:D 0
4 *726:RESET_B *726:D 0
5 *879:A *726:D 0
*RES
1 *879:X *726:D 42.7368 
*END

*D_NET *445 0.000713782
*CONN
*I *835:A I *D sg13g2_buf_1
*I *880:X O *D sg13g2_dlygate4sd3_1
*CAP
1 *835:A 0.000179321
2 *880:X 0.000179321
3 *835:A *733:D 0
4 *834:A *835:A 0.000210026
5 *881:A *835:A 0.000145113
*RES
1 *880:X *835:A 41.9184 
*END

*D_NET *446 0.0019092
*CONN
*I *733:D I *D sg13g2_dfrbpq_1
*I *881:X O *D sg13g2_dlygate4sd3_1
*CAP
1 *733:D 0.000582458
2 *881:X 0.000582458
3 *726:RESET_B *733:D 0
4 *726:D *733:D 0
5 *733:RESET_B *733:D 0
6 *834:A *733:D 0.000501797
7 *835:A *733:D 0
8 *879:A *733:D 0.000242483
*RES
1 *881:X *733:D 45.9928 
*END

*D_NET *447 0.000400353
*CONN
*I *836:A I *D sg13g2_buf_1
*I *882:X O *D sg13g2_dlygate4sd3_1
*CAP
1 *836:A 0.000200177
2 *882:X 0.000200177
3 *882:A *836:A 0
4 *883:A *836:A 0
*RES
1 *882:X *836:A 41.9184 
*END

*D_NET *448 0.000869949
*CONN
*I *740:D I *D sg13g2_dfrbpq_1
*I *883:X O *D sg13g2_dlygate4sd3_1
*CAP
1 *740:D 0.000330068
2 *883:X 0.000330068
3 *740:RESET_B *740:D 0.000209812
*RES
1 *883:X *740:D 43.6784 
*END

*D_NET *449 0.000705855
*CONN
*I *837:A I *D sg13g2_buf_1
*I *884:X O *D sg13g2_dlygate4sd3_1
*CAP
1 *837:A 0
2 *884:X 0.000352928
3 *449:10 0.000352928
*RES
1 *884:X *449:10 43.5816 
2 *449:10 *837:A 40 
*END

*D_NET *450 0.000715141
*CONN
*I *747:D I *D sg13g2_dfrbpq_1
*I *885:X O *D sg13g2_dlygate4sd3_1
*CAP
1 *747:D 0
2 *885:X 0.000357571
3 *450:10 0.000357571
4 *142:10 *450:10 0
*RES
1 *885:X *450:10 43.5288 
2 *450:10 *747:D 40 
*END

*D_NET *451 0.00184324
*CONN
*I *825:A I *D sg13g2_buf_1
*I *886:X O *D sg13g2_dlygate4sd3_1
*CAP
1 *825:A 0.000306384
2 *886:X 0.000100367
3 *451:16 0.000614267
4 *451:8 0.00040825
5 *519:A2 *825:A 0
6 *521:A1 *825:A 7.99179e-05
7 *572:A *825:A 0
8 *783:A *825:A 0
9 *89:10 *451:8 0
10 *89:10 *451:16 0
11 *251:12 *825:A 4.75265e-05
12 *420:38 *451:8 0.000286526
13 *432:84 *825:A 0
*RES
1 *886:X *451:8 41.144 
2 *451:8 *451:16 42.9744 
3 *451:16 *825:A 42.6312 
*END

*D_NET *452 0.000664089
*CONN
*I *821:A I *D sg13g2_buf_1
*I *887:X O *D sg13g2_dlygate4sd3_1
*CAP
1 *821:A 0
2 *887:X 0.000332045
3 *452:10 0.000332045
4 *886:A *452:10 0
5 *251:12 *452:10 0
6 *432:45 *452:10 0
*RES
1 *887:X *452:10 42.948 
2 *452:10 *821:A 40 
*END

*D_NET *453 0.000413239
*CONN
*I *829:A I *D sg13g2_buf_1
*I *888:X O *D sg13g2_dlygate4sd3_1
*CAP
1 *829:A 0.000166759
2 *888:X 0.000166759
3 *251:12 *829:A 7.97219e-05
*RES
1 *888:X *829:A 41.496 
*END

*D_NET *454 0.00128947
*CONN
*I *827:A I *D sg13g2_buf_1
*I *889:X O *D sg13g2_dlygate4sd3_1
*CAP
1 *827:A 0.000362407
2 *889:X 0.000362407
3 reg_rsp_o[21] *827:A 4.7803e-05
4 *784:A *827:A 0
5 *53:68 *827:A 0
6 *209:13 *827:A 0
7 *288:18 *827:A 0.000209763
8 *388:12 *827:A 0.000307095
9 *413:54 *827:A 0
*RES
1 *889:X *827:A 43.344 
*END

*D_NET *455 0.000568042
*CONN
*I *820:A I *D sg13g2_buf_1
*I *890:X O *D sg13g2_dlygate4sd3_1
*CAP
1 *820:A 0.000284021
2 *890:X 0.000284021
3 reg_rsp_o[19] *820:A 0
4 *570:A *820:A 0
5 *570:B *820:A 0
6 *571:B1 *820:A 0
*RES
1 *890:X *820:A 42.8512 
*END

*D_NET *456 0.000758027
*CONN
*I *818:A I *D sg13g2_buf_1
*I *891:X O *D sg13g2_dlygate4sd3_1
*CAP
1 *818:A 0.000298815
2 *891:X 0.000298815
3 *818:A *824:A 1.54556e-05
4 reg_rsp_o[16] *818:A 0
5 *891:A *818:A 0
6 *258:10 *818:A 0.000144942
*RES
1 *891:X *818:A 42.8512 
*END

*D_NET *457 0.00141196
*CONN
*I *823:A I *D sg13g2_buf_1
*I *892:X O *D sg13g2_dlygate4sd3_1
*CAP
1 *823:A 0.000156976
2 *892:X 0.000365338
3 *457:10 0.000522314
4 *457:10 *458:10 0
5 *556:A *823:A 0.00014365
6 *557:B1 *457:10 0
7 *557:A2 *823:A 0.000143888
8 *669:A *823:A 7.97992e-05
9 *708:D *823:A 0
10 *708:D *457:10 0
11 *35:27 *457:10 0
*RES
1 *892:X *457:10 42.8952 
2 *457:10 *823:A 41.496 
*END

*D_NET *458 0.000726681
*CONN
*I *824:A I *D sg13g2_buf_1
*I *893:X O *D sg13g2_dlygate4sd3_1
*CAP
1 *824:A 0.000100192
2 *893:X 0.000167014
3 *458:10 0.000267205
4 reg_rsp_o[16] *824:A 0.000176815
5 reg_rsp_o[16] *458:10 0
6 *818:A *824:A 1.54556e-05
7 *891:A *824:A 0
8 *457:10 *458:10 0
*RES
1 *893:X *458:10 41.3904 
2 *458:10 *824:A 41.012 
*END

*D_NET *459 9.45957e-05
*CONN
*I *819:A I *D sg13g2_buf_1
*I *894:X O *D sg13g2_dlygate4sd3_1
*CAP
1 *819:A 4.72978e-05
2 *894:X 4.72978e-05
*RES
1 *894:X *819:A 40.5104 
*END

*D_NET *460 0.00045548
*CONN
*I *831:A I *D sg13g2_buf_1
*I *895:X O *D sg13g2_dlygate4sd3_1
*CAP
1 *831:A 0
2 *895:X 0.00022774
3 *460:8 0.00022774
4 *413:27 *460:8 0
*RES
1 *895:X *460:8 42.4112 
2 *460:8 *831:A 40 
*END

*D_NET *461 0.00253352
*CONN
*I *805:A I *D sg13g2_buf_1
*I *896:X O *D sg13g2_dlygate4sd3_1
*CAP
1 *805:A 2.66567e-05
2 *896:X 0.000734339
3 *461:14 0.000760995
4 *695:CLK *461:14 0.000209637
5 *854:A *461:14 1.54556e-05
6 *56:12 *461:14 0
7 *169:6 *461:14 0
8 *180:15 *805:A 4.28471e-05
9 *316:8 *461:14 0
10 *390:6 *461:14 0.000209637
11 *425:20 *461:14 0.000533952
12 *427:117 *461:14 0
*RES
1 *896:X *461:14 46.4768 
2 *461:14 *805:A 40.2442 
*END

*D_NET *462 0.000636641
*CONN
*I *828:A I *D sg13g2_buf_1
*I *897:X O *D sg13g2_dlygate4sd3_1
*CAP
1 *828:A 0
2 *897:X 0.000318321
3 *462:8 0.000318321
*RES
1 *897:X *462:8 43.0448 
2 *462:8 *828:A 40 
*END

*D_NET *463 0.00407985
*CONN
*I *806:A I *D sg13g2_buf_1
*I *898:X O *D sg13g2_dlygate4sd3_1
*CAP
1 *806:A 0.000414975
2 *898:X 0.000907402
3 *463:10 0.00132238
4 *463:10 *474:10 0.00024211
5 cio_gpio_en_o[1] *806:A 0
6 reg_rsp_o[23] *806:A 0.000341535
7 reg_rsp_o[24] *806:A 0.000288173
8 reg_rsp_o[25] *463:10 0.000112388
9 reg_rsp_o[32] *463:10 0.000242181
10 reg_rsp_o[33] *463:10 8.00522e-05
11 *157:16 *806:A 0
12 *181:11 *463:10 0
13 *283:10 *806:A 0.000128662
14 *434:33 *463:10 0
15 *435:16 *463:10 0
16 *435:18 *463:10 0
*RES
1 *898:X *463:10 48.1488 
2 *463:10 *806:A 44.5232 
*END

*D_NET *464 0.000864741
*CONN
*I *830:A I *D sg13g2_buf_1
*I *899:X O *D sg13g2_dlygate4sd3_1
*CAP
1 *830:A 0
2 *899:X 0.000432371
3 *464:10 0.000432371
4 *208:9 *464:10 0
5 *320:10 *464:10 0
*RES
1 *899:X *464:10 44.004 
2 *464:10 *830:A 40 
*END

*D_NET *465 0.00116856
*CONN
*I *567:B1 I *D sg13g2_o21ai_1
*I *900:X O *D sg13g2_dlygate4sd3_1
*CAP
1 *567:B1 0.00052871
2 *900:X 0.00052871
3 *567:B1 *702:D 9.56832e-05
4 *486:A2 *567:B1 0
5 *719:RESET_B *567:B1 0
6 *901:A *567:B1 1.54556e-05
7 *79:28 *567:B1 0
8 *79:39 *567:B1 0
9 *427:250 *567:B1 0
*RES
1 *900:X *567:B1 44.5672 
*END

*D_NET *466 0.000698968
*CONN
*I *702:D I *D sg13g2_dfrbpq_1
*I *901:X O *D sg13g2_dlygate4sd3_1
*CAP
1 *702:D 0.000301642
2 *901:X 0.000301642
3 *567:B1 *702:D 9.56832e-05
4 *702:RESET_B *702:D 0
5 *427:250 *702:D 0
*RES
1 *901:X *702:D 42.816 
*END

*D_NET *467 0.00289188
*CONN
*I *812:A I *D sg13g2_buf_1
*I *902:X O *D sg13g2_dlygate4sd3_1
*CAP
1 *812:A 0.000266064
2 *902:X 0.000883112
3 *467:12 0.00114918
4 *467:12 *476:10 0.0001448
5 *547:A *812:A 0
6 *796:A *467:12 0
7 *911:A *467:12 0
8 *192:9 *812:A 0.000208195
9 *193:19 *812:A 0
10 *198:13 *812:A 0
11 *216:11 *467:12 0
12 *277:10 *812:A 0.000240536
13 *435:16 *812:A 0
14 *435:16 *467:12 0
*RES
1 *902:X *467:12 47.6824 
2 *467:12 *812:A 42.42 
*END

*D_NET *468 0.00355888
*CONN
*I *808:A I *D sg13g2_buf_1
*I *903:X O *D sg13g2_dlygate4sd3_1
*CAP
1 *808:A 0
2 *903:X 0
3 *468:10 0.000958735
4 *468:6 0.000958735
5 cio_gpio_o[2] *468:10 0.000554992
6 *686:CLK *468:10 0
7 *797:A *468:10 0
8 *876:A *468:10 0
9 *903:A *468:10 0
10 *79:12 *468:10 0.00108641
11 *92:91 *468:10 0
12 *167:14 *468:10 0
13 *278:8 *468:10 0
14 *440:38 *468:10 0
*RES
1 *903:X *468:6 40 
2 *468:6 *468:10 30.2256 
3 *468:10 *808:A 20 
*END

*D_NET *469 0.00181469
*CONN
*I *826:A I *D sg13g2_buf_1
*I *904:X O *D sg13g2_dlygate4sd3_1
*CAP
1 *826:A 0.000172983
2 *904:X 0.000734362
3 *469:8 0.000907345
4 *257:10 *469:8 0
5 *257:18 *469:8 0
6 *351:8 *469:8 0
7 *417:21 *826:A 0
8 *423:8 *826:A 0
9 *427:39 *469:8 0
*RES
1 *904:X *469:8 47.48 
2 *469:8 *826:A 41.3816 
*END

*D_NET *470 0.00130315
*CONN
*I *561:B1 I *D sg13g2_o21ai_1
*I *905:X O *D sg13g2_dlygate4sd3_1
*CAP
1 *561:B1 0.000519435
2 *905:X 0.000519435
3 *561:B1 *471:10 0
4 *561:A2 *561:B1 0.00026428
5 *853:A *561:B1 0
6 *906:A *561:B1 0
7 *427:220 *561:B1 0
*RES
1 *905:X *561:B1 44.9104 
*END

*D_NET *471 0.00268954
*CONN
*I *706:D I *D sg13g2_dfrbpq_1
*I *906:X O *D sg13g2_dlygate4sd3_1
*CAP
1 *706:D 0.000338569
2 *906:X 0.000536036
3 *471:10 0.000874605
4 *561:B1 *471:10 0
5 *753:RESET_B *706:D 0
6 *79:39 *706:D 0
7 *182:36 *471:10 0
8 *379:55 *471:10 0.000940327
9 *419:16 *706:D 0
10 *427:214 *706:D 0
11 *427:214 *471:10 0
12 *427:220 *471:10 0
13 *427:234 *471:10 0
*RES
1 *906:X *471:10 45.192 
2 *471:10 *706:D 42.6752 
*END

*D_NET *472 0.00102045
*CONN
*I *832:A I *D sg13g2_buf_1
*I *907:X O *D sg13g2_dlygate4sd3_1
*CAP
1 *832:A 0
2 *907:X 0.000206209
3 *472:8 0.000206209
4 reg_rsp_o[8] *472:8 0.000608026
5 *159:23 *472:8 0
*RES
1 *907:X *472:8 42.4112 
2 *472:8 *832:A 40 
*END

*D_NET *473 0.00101912
*CONN
*I *810:A I *D sg13g2_buf_1
*I *908:X O *D sg13g2_dlygate4sd3_1
*CAP
1 *810:A 0.000153465
2 *908:X 0.000356094
3 *473:8 0.00050956
4 intr_gpio_o[0] *473:8 0
5 reg_rsp_o[14] *473:8 0
6 *770:A *810:A 0
7 *191:9 *810:A 0
*RES
1 *908:X *473:8 43.256 
2 *473:8 *810:A 41.1968 
*END

*D_NET *474 0.00154842
*CONN
*I *809:A I *D sg13g2_buf_1
*I *909:X O *D sg13g2_dlygate4sd3_1
*CAP
1 *809:A 0
2 *909:X 0.000429105
3 *474:10 0.000429105
4 reg_rsp_o[30] *474:10 0
5 *798:A *474:10 0.000159096
6 *909:A *474:10 0
7 *166:10 *474:10 0.000289002
8 *280:8 *474:10 0
9 *435:16 *474:10 0
10 *435:28 *474:10 0
11 *463:10 *474:10 0.00024211
*RES
1 *909:X *474:10 44.4264 
2 *474:10 *809:A 40 
*END

*D_NET *475 0.000705057
*CONN
*I *811:A I *D sg13g2_buf_1
*I *910:X O *D sg13g2_dlygate4sd3_1
*CAP
1 *811:A 0.000176599
2 *910:X 0.000176599
3 *781:A *811:A 0.000143911
4 *435:16 *811:A 0.000207948
*RES
1 *910:X *811:A 41.7072 
*END

*D_NET *476 0.00248169
*CONN
*I *822:A I *D sg13g2_buf_1
*I *911:X O *D sg13g2_dlygate4sd3_1
*CAP
1 *822:A 0.000183662
2 *911:X 0.000552494
3 *476:10 0.000736156
4 *546:A1 *822:A 0.000208398
5 *912:A *822:A 0
6 *74:8 *822:A 0.000208491
7 *193:19 *822:A 0
8 *198:13 *822:A 0
9 *216:11 *476:10 0
10 *277:10 *476:10 0.000447684
11 *277:25 *476:10 0
12 *278:27 *822:A 0
13 *296:12 *476:10 0
14 *435:16 *476:10 0
15 *467:12 *476:10 0.0001448
*RES
1 *911:X *476:10 45.06 
2 *476:10 *822:A 41.8656 
*END

*D_NET *477 0.000720247
*CONN
*I *549:A I *D sg13g2_nor2b_1
*I *912:X O *D sg13g2_dlygate4sd3_1
*CAP
1 *549:A 3.28747e-05
2 *912:X 0.000186265
3 *477:8 0.00021914
4 *548:A1 *549:A 4.77425e-05
5 *76:12 *477:8 0
6 *77:10 *477:8 0.000234224
7 *278:40 *549:A 0
8 *435:10 *477:8 0
*RES
1 *912:X *477:8 41.9888 
2 *477:8 *549:A 40.2728 
*END

*D_NET *478 0.00114747
*CONN
*I *807:A I *D sg13g2_buf_1
*I *913:X O *D sg13g2_dlygate4sd3_1
*CAP
1 *807:A 0.000177116
2 *913:X 0.000396617
3 *478:8 0.000573733
4 reg_rsp_o[5] *478:8 0
5 *77:10 *807:A 0
6 *193:19 *807:A 0
7 *222:11 *478:8 0
8 *282:10 *807:A 0
9 *394:8 *807:A 0
10 *435:10 *478:8 0
11 *435:98 *807:A 0
*RES
1 *913:X *478:8 43.0448 
2 *478:8 *807:A 41.3816 
*END

*D_NET *479 0.000302934
*CONN
*I *804:A I *D sg13g2_buf_1
*I *914:X O *D sg13g2_dlygate4sd3_1
*CAP
1 *804:A 0.000151467
2 *914:X 0.000151467
3 *208:9 *804:A 0
*RES
1 *914:X *804:A 41.6016 
*END

*D_NET *407 0.00021928
*CONN
*I *715:D I *D sg13g2_dfrbpq_1
*I *838:L_HI O *D sg13g2_tiehi
*CAP
1 *715:D 0.00010964
2 *838:L_HI 0.00010964
3 *715:RESET_B *715:D 0
4 *208:9 *715:D 0
*RES
1 *838:L_HI *715:D 41.1792 
*END

*D_NET *188 0.000179406
*CONN
*I *723:D I *D sg13g2_dfrbpq_1
*I *722:L_HI O *D sg13g2_tiehi
*CAP
1 *723:D 8.97028e-05
2 *722:L_HI 8.97028e-05
3 *653:A *723:D 0
4 *721:RESET_B *723:D 0
5 *170:12 *723:D 0
*RES
1 *722:L_HI *723:D 40.968 
*END

*D_NET *199 0.000183207
*CONN
*I *758:D I *D sg13g2_dfrbpq_1
*I *724:L_HI O *D sg13g2_tiehi
*CAP
1 *758:D 9.16035e-05
2 *724:L_HI 9.16035e-05
3 *758:D *758:RESET_B 0
*RES
1 *724:L_HI *758:D 40.968 
*END

*D_NET *161 0.00031178
*CONN
*I *885:A I *D sg13g2_dlygate4sd3_1
*I *837:X O *D sg13g2_buf_1
*CAP
1 *885:A 0.00015589
2 *837:X 0.00015589
*RES
1 *837:X *885:A 41.496 
*END

*D_NET *162 0.000181672
*CONN
*I *883:A I *D sg13g2_dlygate4sd3_1
*I *836:X O *D sg13g2_buf_1
*CAP
1 *883:A 9.08359e-05
2 *836:X 9.08359e-05
3 *883:A *836:A 0
4 *883:A *438:31 0
*RES
1 *836:X *883:A 40.968 
*END

*D_NET *163 0.000857192
*CONN
*I *881:A I *D sg13g2_dlygate4sd3_1
*I *835:X O *D sg13g2_buf_1
*CAP
1 *881:A 0.00035604
2 *835:X 0.00035604
3 *881:A *834:A 0
4 *881:A *835:A 0.000145113
5 *881:A *880:A 0
6 *881:A *218:11 0
*RES
1 *835:X *881:A 43.1592 
*END

*D_NET *164 0.000612101
*CONN
*I *879:A I *D sg13g2_dlygate4sd3_1
*I *834:X O *D sg13g2_buf_1
*CAP
1 *879:A 0.000184809
2 *834:X 0.000184809
3 *879:A *726:D 0
4 *879:A *733:D 0.000242483
*RES
1 *834:X *879:A 41.892 
*END

*D_NET *243 0.00105726
*CONN
*I *547:A I *D sg13g2_nor2b_1
*I *833:X O *D sg13g2_buf_1
*CAP
1 *547:A 0.000497194
2 *833:X 0.000497194
3 *547:A *812:A 0
4 *76:12 *547:A 1.54556e-05
5 *175:8 *547:A 4.74163e-05
6 *193:19 *547:A 0
7 *216:11 *547:A 0
*RES
1 *833:X *547:A 43.9688 
*END

*D_NET *244 0.00378434
*CONN
*I *581:A0 I *D sg13g2_mux2_1
*I *574:A1 I *D sg13g2_mux2_1
*I *832:X O *D sg13g2_buf_1
*CAP
1 *581:A0 3.38102e-05
2 *574:A1 0.000340508
3 *832:X 0.000452824
4 *244:10 0.000827141
5 *574:A1 *409:24 0.000663967
6 *574:A1 *409:46 0.000234224
7 *244:10 *686:CLK 0
8 *244:10 *415:37 0
9 *244:10 *440:38 0
10 *159:23 *244:10 0.000927877
11 *159:35 *581:A0 1.54008e-05
12 *239:23 *574:A1 0
13 *239:23 *244:10 0.000288587
*RES
1 *832:X *244:10 45.4296 
2 *244:10 *574:A1 43.4672 
3 *244:10 *581:A0 40.2728 
*END

*D_NET *245 0.00451125
*CONN
*I *664:A0 I *D sg13g2_mux2_1
*I *666:B I *D sg13g2_nand2_1
*I *831:X O *D sg13g2_buf_1
*CAP
1 *664:A0 0.000701986
2 *666:B 0.000145282
3 *831:X 0.000531815
4 *245:12 0.00137908
5 *664:A0 *413:10 0
6 *666:B *429:27 5.71583e-05
7 *245:12 *552:A 0
8 *245:12 *697:RESET_B 0
9 *245:12 *697:CLK 0.00027388
10 *245:12 *413:27 0
11 *245:12 *429:27 1.54008e-05
12 *245:12 *429:38 0.000143937
13 reg_rsp_o[9] *245:12 0
14 *502:A *664:A0 0
15 *647:B1 *245:12 0
16 *664:A1 *664:A0 0
17 *677:B1 *664:A0 0
18 *792:A *245:12 0
19 *51:14 *664:A0 0
20 *53:18 *664:A0 0.000553246
21 *53:18 *666:B 0.000181192
22 *137:12 *666:B 8.02595e-05
23 *240:12 *664:A0 0.000448012
*RES
1 *831:X *245:12 44.9104 
2 *245:12 *666:B 41.6368 
3 *245:12 *664:A0 47.3568 
*END

*D_NET *246 0.00677722
*CONN
*I *566:B I *D sg13g2_nand2_1
*I *830:X O *D sg13g2_buf_1
*CAP
1 *566:B 0
2 *830:X 0
3 *246:12 0.00249383
4 *246:6 0.00249383
5 *246:12 *751:CLK 0.000963669
6 *246:12 *758:CLK 0
7 *246:12 *250:20 0.000371322
8 *246:12 *320:21 0
9 *246:12 *320:32 0
10 *246:12 *331:33 0
11 *246:12 *411:8 0
12 *246:12 *411:58 0
13 *246:12 *436:24 0.000454569
14 *246:12 *436:32 0
15 *79:30 *246:12 0
16 *79:39 *246:12 0
17 *105:35 *246:12 0
18 *112:33 *246:12 0
*RES
1 *830:X *246:6 40 
2 *246:6 *246:12 46.708 
3 *246:12 *566:B 20 
*END

*D_NET *247 0.000958151
*CONN
*I *564:B I *D sg13g2_nand2_1
*I *829:X O *D sg13g2_buf_1
*CAP
1 *564:B 4.30199e-05
2 *829:X 0.000212015
3 *247:8 0.000255035
4 *564:B *790:A 8.01609e-05
5 *247:8 *251:12 0
6 *247:8 *432:39 0
7 *247:8 *432:41 0
8 *525:A1 *564:B 8.01609e-05
9 *82:8 *247:8 0.000287758
*RES
1 *829:X *247:8 41.7776 
2 *247:8 *564:B 40.4576 
*END

*D_NET *248 0.0060179
*CONN
*I *562:B I *D sg13g2_nand2_1
*I *828:X O *D sg13g2_buf_1
*CAP
1 *562:B 0
2 *828:X 0
3 *248:14 0.00208436
4 *248:6 0.00208436
5 *248:14 reg_rsp_o[20] 0.000886486
6 *248:14 *657:D 0
7 *248:14 *738:D 0
8 *248:14 *297:16 0
9 *248:14 *356:35 0
10 *248:14 *358:8 0
11 *248:14 *421:31 0.000304592
12 *248:14 *429:91 0.000368983
13 *95:33 *248:14 0.000289113
14 *102:36 *248:14 0
*RES
1 *828:X *248:6 40 
2 *248:6 *248:14 40.8824 
3 *248:14 *562:B 20 
*END

*D_NET *249 0.000824089
*CONN
*I *671:B I *D sg13g2_nand2_1
*I *827:X O *D sg13g2_buf_1
*CAP
1 *671:B 0.00014028
2 *827:X 0.000169449
3 *249:8 0.000309729
4 *671:B reg_rsp_o[12] 0
5 *671:B reg_rsp_o[13] 0.000204632
6 *249:8 *388:12 0
7 *249:8 *413:39 0
8 *53:68 *249:8 0
*RES
1 *827:X *249:8 41.5664 
2 *249:8 *671:B 41.1682 
*END

*D_NET *250 0.00815733
*CONN
*I *560:B I *D sg13g2_nand2_1
*I *826:X O *D sg13g2_buf_1
*CAP
1 *560:B 0
2 *826:X 2.41961e-05
3 *250:20 0.00255617
4 *250:8 0.00258036
5 *250:20 *517:B1 0.000661188
6 *250:20 *601:A 0
7 *250:20 *602:B 0
8 *250:20 *610:B 0
9 *250:20 *845:A 0
10 *250:20 *850:A 0
11 *250:20 *257:18 0
12 *250:20 *351:8 0
13 *250:20 *355:10 0.000341216
14 *250:20 *355:42 0.00012816
15 *250:20 *410:10 0.000319628
16 *250:20 *421:8 0.000112425
17 *250:20 *421:12 0
18 *250:20 *427:149 0
19 *561:A2 *250:20 0
20 *592:A *250:20 0.000287757
21 *856:A *250:20 0
22 *900:A *250:20 0.000242423
23 *79:39 *250:20 0
24 *87:8 *250:20 0
25 *96:10 *250:20 0
26 *98:8 *250:20 0.000532482
27 *101:26 *250:20 0
28 *102:16 *250:20 0
29 *169:34 *250:20 0
30 *246:12 *250:20 0.000371322
*RES
1 *826:X *250:8 40.2728 
2 *250:8 *250:20 45.5464 
3 *250:20 *560:B 20 
*END

*D_NET *251 0.000590187
*CONN
*I *558:B I *D sg13g2_nand2_1
*I *825:X O *D sg13g2_buf_1
*CAP
1 *558:B 0
2 *825:X 0.000231469
3 *251:12 0.000231469
4 *251:12 *783:A 0
5 *251:12 *825:A 4.75265e-05
6 *251:12 *829:A 7.97219e-05
7 *251:12 *452:10 0
8 *247:8 *251:12 0
*RES
1 *825:X *251:12 42.0856 
2 *251:12 *558:B 40 
*END

*D_NET *252 0.000257721
*CONN
*I *556:B I *D sg13g2_nand2_1
*I *824:X O *D sg13g2_buf_1
*CAP
1 *556:B 0.000104904
2 *824:X 0.000104904
3 *556:B reg_rsp_o[16] 0
4 *556:B *556:A 0
5 *557:B1 *556:B 4.79124e-05
*RES
1 *824:X *556:B 40.968 
*END

*D_NET *253 0.000413582
*CONN
*I *673:B I *D sg13g2_nand2_1
*I *823:X O *D sg13g2_buf_1
*CAP
1 *673:B 0.000206791
2 *823:X 0.000206791
3 *673:B *673:A 0
4 *673:B *430:38 0
5 *708:D *673:B 0
*RES
1 *823:X *673:B 41.496 
*END

*D_NET *254 0.000729083
*CONN
*I *546:A1 I *D sg13g2_a21oi_1
*I *822:X O *D sg13g2_buf_1
*CAP
1 *546:A1 0.000139935
2 *822:X 0.000139935
3 *546:A1 *546:A2 0.000240816
4 *546:A1 *822:A 0.000208398
5 *74:8 *546:A1 0
*RES
1 *822:X *546:A1 41.3816 
*END

*D_NET *255 0.000273093
*CONN
*I *572:B I *D sg13g2_nand2_1
*I *821:X O *D sg13g2_buf_1
*CAP
1 *572:B 0.000112783
2 *821:X 0.000112783
3 *886:A *572:B 0
4 *89:10 *572:B 4.75265e-05
*RES
1 *821:X *572:B 40.968 
*END

*D_NET *256 0.000280355
*CONN
*I *570:B I *D sg13g2_nand2_1
*I *820:X O *D sg13g2_buf_1
*CAP
1 *570:B 0.000116221
2 *820:X 0.000116221
3 *570:B *570:A 0
4 *570:B *820:A 0
5 *571:B1 *570:B 4.79124e-05
*RES
1 *820:X *570:B 41.1792 
*END

*D_NET *257 0.00551187
*CONN
*I *568:B I *D sg13g2_nand2_1
*I *819:X O *D sg13g2_buf_1
*CAP
1 *568:B 0
2 *819:X 0.000583991
3 *257:18 0.00152825
4 *257:10 0.00211225
5 *257:10 reg_rsp_o[20] 0
6 *257:10 *469:8 0
7 *257:18 reg_rsp_o[20] 0
8 *257:18 *517:A2 0
9 *257:18 *568:A 0
10 *257:18 *297:16 0
11 *257:18 *351:8 0
12 *257:18 *355:42 0
13 *257:18 *427:149 0
14 *257:18 *469:8 0
15 *569:A1 *257:18 0
16 *594:A1 *257:18 0.000181608
17 *96:10 *257:18 0.000447287
18 *98:8 *257:18 0
19 *100:8 *257:18 0.000658479
20 *250:20 *257:18 0
*RES
1 *819:X *257:10 46.0368 
2 *257:10 *257:18 33.992 
3 *257:18 *568:B 20 
*END

*D_NET *258 0.000750805
*CONN
*I *669:B I *D sg13g2_nand2_1
*I *818:X O *D sg13g2_buf_1
*CAP
1 *669:B 0
2 *818:X 0.000302931
3 *258:10 0.000302931
4 *258:10 reg_rsp_o[16] 0
5 *258:10 *818:A 0.000144942
6 *258:10 *292:12 0
7 *258:10 *368:8 0
8 *891:A *258:10 0
*RES
1 *818:X *258:10 42.948 
2 *258:10 *669:B 40 
*END

*D_NET *265 0.00084977
*CONN
*I *546:A2 I *D sg13g2_a21oi_1
*I *817:X O *D sg13g2_buf_1
*CAP
1 *546:A2 0.000304477
2 *817:X 0.000304477
3 *546:A1 *546:A2 0.000240816
4 *193:19 *546:A2 0
*RES
1 *817:X *546:A2 42.7368 
*END

*D_NET *272 0.000500996
*CONN
*I *498:A I *D sg13g2_nor2_1
*I *816:X O *D sg13g2_buf_1
*CAP
1 *498:A 0.000170327
2 *816:X 0.000170327
3 *498:A *498:B 0.000144942
4 *500:A *498:A 0
5 *814:A *498:A 0
6 *45:6 *498:A 0
7 *45:23 *498:A 1.54008e-05
*RES
1 *816:X *498:A 41.584 
*END

*D_NET *273 0.000547792
*CONN
*I *498:B I *D sg13g2_nor2_1
*I *815:X O *D sg13g2_buf_1
*CAP
1 *498:B 0.000193725
2 *815:X 0.000193725
3 *498:A *498:B 0.000144942
4 *45:6 *498:B 0
5 *45:23 *498:B 1.54008e-05
*RES
1 *815:X *498:B 41.9184 
*END

*D_NET *274 0.0015626
*CONN
*I *499:A I *D sg13g2_inv_1
*I *535:A I *D sg13g2_nor2_2
*I *814:X O *D sg13g2_buf_1
*CAP
1 *499:A 0
2 *535:A 0
3 *814:X 0.000197818
4 *274:22 0.000282531
5 *274:14 0.000382858
6 *274:10 0.000298145
7 *500:A *274:10 0
8 *500:A *274:14 0
9 *504:A *274:14 1.54008e-05
10 *504:A *274:22 0.000273693
11 *535:B *274:22 0.00011215
12 *45:23 *274:10 0
13 *46:17 *274:10 0
14 *47:10 *274:22 0
15 *50:6 *274:10 0
16 *53:79 *274:22 0
*RES
1 *814:X *274:10 41.5752 
2 *274:10 *274:14 20.8272 
3 *274:14 *274:22 42.4992 
4 *274:22 *535:A 20 
5 *274:14 *499:A 20 
*END

*D_NET *275 0.00178239
*CONN
*I *500:C I *D sg13g2_nand3_1
*I *503:A_N I *D sg13g2_nand2b_2
*I *813:X O *D sg13g2_buf_1
*CAP
1 *500:C 0.0001395
2 *503:A_N 0.00034418
3 *813:X 0.000304124
4 *275:14 0.000787804
5 *503:A_N *552:A 0
6 *275:14 *413:10 0
7 *502:A *275:14 0
8 *813:A *503:A_N 0
9 *813:A *275:14 2.94832e-05
10 *45:23 *500:C 0
11 *50:12 *500:C 0
12 *50:12 *275:14 0.000177297
13 *53:8 *275:14 0
*RES
1 *813:X *275:14 42.6224 
2 *275:14 *503:A_N 42.8688 
3 *275:14 *500:C 41.232 
*END

*D_NET *277 0.00297418
*CONN
*I *579:C I *D sg13g2_nand4_1
*I *545:C I *D sg13g2_nand3_1
*I *547:B_N I *D sg13g2_nor2b_1
*I *812:X O *D sg13g2_buf_1
*CAP
1 *579:C 0
2 *545:C 0.000285807
3 *547:B_N 0
4 *812:X 0.000300573
5 *277:25 0.000604406
6 *277:10 0.000619173
7 *545:C *278:12 1.54008e-05
8 *545:C *278:27 4.2408e-06
9 *545:C *414:27 0
10 *277:10 *812:A 0.000240536
11 *277:10 *476:10 0.000447684
12 *277:25 *278:27 8.90568e-06
13 *277:25 *278:40 1.54008e-05
14 *277:25 *414:25 0
15 *277:25 *476:10 0
16 *74:14 *277:25 0.000287256
17 *76:12 *277:25 0
18 *216:11 *277:10 0.000144792
*RES
1 *812:X *277:10 43.1592 
2 *277:10 *547:B_N 40 
3 *277:10 *277:25 22.7456 
4 *277:25 *545:C 22.3012 
5 *277:25 *579:C 20 
*END

*D_NET *278 0.0040549
*CONN
*I *548:B1 I *D sg13g2_o21ai_1
*I *579:B I *D sg13g2_nand4_1
*I *545:B I *D sg13g2_nand3_1
*I *811:X O *D sg13g2_buf_1
*CAP
1 *548:B1 0
2 *579:B 0
3 *545:B 0
4 *811:X 0.000365967
5 *278:40 0.000502633
6 *278:27 0.00084738
7 *278:12 0.000402323
8 *278:8 0.000423544
9 *278:8 reg_rsp_o[4] 0
10 *278:8 *903:A 0
11 *278:8 *395:14 0.000556238
12 *278:8 *468:10 0
13 *278:27 *822:A 0
14 *278:40 *549:A 0
15 *278:40 *864:A 8.02763e-05
16 *278:40 *282:10 0
17 *278:40 *414:25 0
18 *278:40 *435:10 8.00279e-05
19 *545:C *278:12 1.54008e-05
20 *545:C *278:27 4.2408e-06
21 *548:A1 *278:40 0
22 *579:A *278:40 4.75151e-05
23 *797:A *278:8 0
24 *74:8 *278:27 0
25 *78:6 *278:40 9.65264e-05
26 *92:14 *278:27 0
27 *167:14 *278:8 0
28 *198:13 *278:8 0.000608526
29 *198:13 *278:27 0
30 *277:25 *278:27 8.90568e-06
31 *277:25 *278:40 1.54008e-05
*RES
1 *811:X *278:8 44.7344 
2 *278:8 *278:12 20.4576 
3 *278:12 *545:B 20 
4 *278:12 *278:27 2.8952 
5 *278:27 *579:B 20 
6 *278:27 *278:40 44.3736 
7 *278:40 *548:B1 20 
*END

*D_NET *279 0.00396159
*CONN
*I *586:A0 I *D sg13g2_mux2_1
*I *555:A1 I *D sg13g2_mux2_1
*I *810:X O *D sg13g2_buf_1
*CAP
1 *586:A0 2.60565e-05
2 *555:A1 6.15796e-05
3 *810:X 0.000239656
4 *279:20 0.00114397
5 *279:10 0.0013481
6 *555:A1 *526:B1 6.99095e-05
7 *555:A1 *416:22 0
8 *279:10 reg_rsp_o[2] 0.000237975
9 *279:20 *541:B 4.78359e-05
10 *279:20 *415:8 0
11 *279:20 *427:234 0
12 *543:B *586:A0 4.77425e-05
13 *555:A0 *555:A1 0
14 *586:S *279:20 7.61961e-05
15 *49:45 *586:A0 4.77425e-05
16 *49:45 *279:20 0
17 *72:10 *279:20 0
18 *165:23 *279:10 0.000614837
19 *223:29 *279:20 0
*RES
1 *810:X *279:10 42.8952 
2 *279:10 *279:20 48.6328 
3 *279:20 *555:A1 40.572 
4 *279:10 *586:A0 40.2728 
*END

*D_NET *280 0.00284989
*CONN
*I *585:A0 I *D sg13g2_mux2_1
*I *554:A1 I *D sg13g2_mux2_1
*I *809:X O *D sg13g2_buf_1
*CAP
1 *585:A0 0
2 *554:A1 0
3 *809:X 0.000625509
4 *280:18 0.000339693
5 *280:12 0.000497168
6 *280:8 0.000782985
7 *280:8 *415:18 0
8 *280:8 *474:10 0
9 *280:18 *425:33 0
10 *585:A1 *280:8 0
11 *585:A1 *280:12 0.00024122
12 *2:8 *280:18 0
13 *92:43 *280:12 0
14 *166:10 *280:8 0
15 *234:10 *280:8 0.00012816
16 *234:16 *280:8 0.000235153
17 *234:16 *280:18 0
*RES
1 *809:X *280:8 46.0016 
2 *280:8 *280:12 21.3816 
3 *280:12 *280:18 43.256 
4 *280:18 *554:A1 20 
5 *280:12 *585:A0 20 
*END

*D_NET *281 0.00163647
*CONN
*I *553:A1 I *D sg13g2_mux2_1
*I *584:A0 I *D sg13g2_mux2_1
*I *808:X O *D sg13g2_buf_1
*CAP
1 *553:A1 0
2 *584:A0 0.00021709
3 *808:X 2.27043e-05
4 *281:19 0.000134878
5 *281:6 0.000374672
6 *574:S *584:A0 0
7 *584:A1 *584:A0 0.000369457
8 *584:A1 *281:6 4.76452e-05
9 *1:10 *584:A0 0
10 *1:10 *281:6 0
11 *1:10 *281:19 0
12 *79:12 *281:19 0.000394895
13 *79:14 *281:19 7.51285e-05
*RES
1 *808:X *281:6 20.2728 
2 *281:6 *584:A0 22.1208 
3 *281:6 *281:19 41.7776 
4 *281:19 *553:A1 20 
*END

*D_NET *282 0.00497639
*CONN
*I *663:A0 I *D sg13g2_mux2_1
*I *675:A1 I *D sg13g2_mux2_1
*I *807:X O *D sg13g2_buf_1
*CAP
1 *663:A0 0.000498625
2 *675:A1 0.000975764
3 *807:X 0.000627016
4 *282:10 0.0021014
5 *663:A0 *693:RESET_B 8.02269e-05
6 *663:A0 *763:A 0
7 *663:A0 *414:12 0.000112349
8 *663:A0 *415:66 0.000436122
9 *663:A0 *442:49 0
10 *675:A1 *697:CLK 0
11 *675:A1 *319:62 0
12 *675:A1 *414:8 0
13 *675:A1 *435:98 0
14 *675:A1 *442:21 0
15 *675:A1 *442:49 0
16 *282:10 reg_rsp_o[5] 0
17 *282:10 *807:A 0
18 *282:10 *308:8 0
19 *282:10 *435:10 0
20 *282:10 *435:98 0
21 *663:S *663:A0 0
22 *679:A2 *675:A1 0
23 *689:D *663:A0 0
24 *713:D *675:A1 0.000144882
25 *77:10 *282:10 0
26 *155:10 *282:10 0
27 *193:19 *282:10 0
28 *236:12 *675:A1 0
29 *278:40 *282:10 0
*RES
1 *807:X *282:10 45.324 
2 *282:10 *675:A1 48.5184 
3 *282:10 *663:A0 44.6376 
*END

*D_NET *283 0.00298052
*CONN
*I *583:A0 I *D sg13g2_mux2_1
*I *577:B I *D sg13g2_nand2_1
*I *806:X O *D sg13g2_buf_1
*CAP
1 *583:A0 0
2 *577:B 0.000399547
3 *806:X 0.000352531
4 *283:10 0.000752078
5 *283:10 *806:A 0.000128662
6 *283:10 *435:32 0
7 *514:A2 *577:B 0.000128248
8 *514:A2 *283:10 5.34469e-05
9 *58:8 *577:B 0
10 *91:8 *577:B 7.56299e-05
11 *157:16 *283:10 0.00109038
*RES
1 *806:X *283:10 44.9808 
2 *283:10 *577:B 44.1008 
3 *283:10 *583:A0 40 
*END

*D_NET *284 0.00174636
*CONN
*I *582:A0 I *D sg13g2_mux2_1
*I *575:B I *D sg13g2_nand2_1
*I *805:X O *D sg13g2_buf_1
*CAP
1 *582:A0 0
2 *575:B 9.56211e-05
3 *805:X 0.000362451
4 *284:25 0.000327221
5 *284:8 0.000785292
6 *575:B *575:A 0
7 *575:B *416:46 0.000112695
8 *575:B *425:20 0
9 *284:8 *512:A2 0
10 *284:8 *390:6 0
11 *284:8 *416:46 0
12 *284:8 *425:20 0
13 *284:25 *575:A 0
14 *284:25 *379:31 0
15 *284:25 *427:117 0
16 *512:B1 *284:8 0
17 *582:A1 *284:25 4.76247e-05
18 *56:12 *284:25 0
19 *90:10 *575:B 1.54556e-05
20 *180:15 *284:8 0
*RES
1 *805:X *284:8 22.7896 
2 *284:8 *575:B 20.9416 
3 *284:8 *284:25 42.8424 
4 *284:25 *582:A0 20 
*END

*D_NET *320 0.0026792
*CONN
*I *757:RESET_B I *D sg13g2_dfrbpq_1
*I *714:RESET_B I *D sg13g2_dfrbpq_1
*I *758:RESET_B I *D sg13g2_dfrbpq_1
*I *715:RESET_B I *D sg13g2_dfrbpq_1
*I *804:X O *D sg13g2_buf_1
*CAP
1 *757:RESET_B 0.000145293
2 *714:RESET_B 0.000122118
3 *758:RESET_B 0.000260909
4 *715:RESET_B 0.000109008
5 *804:X 0.000138825
6 *320:32 0.000720834
7 *320:21 0.000824356
8 *320:10 0.000357858
9 *714:RESET_B *714:D 0
10 *714:RESET_B *427:19 0
11 *714:RESET_B *427:39 0
12 *715:RESET_B *715:D 0
13 *757:RESET_B *757:D 0
14 *757:RESET_B *427:19 0
15 *320:10 *464:10 0
16 *320:32 *715:CLK 0
17 *758:D *758:RESET_B 0
18 *246:12 *320:21 0
19 *246:12 *320:32 0
*RES
1 *804:X *320:10 41.4168 
2 *320:10 *715:RESET_B 41.012 
3 *320:10 *320:21 1.144 
4 *320:21 *758:RESET_B 42.4904 
5 *320:21 *320:32 4.7344 
6 *320:32 *714:RESET_B 41.012 
7 *320:32 *757:RESET_B 41.364 
*END

*D_NET *157 0.00478591
*CONN
*I *803:A I *D sg13g2_buf_1
*I *583:A1 I *D sg13g2_mux2_1
*I *514:A2 I *D sg13g2_a21oi_1
*I *690:Q O *D sg13g2_dfrbpq_1
*CAP
1 *803:A 3.9505e-05
2 *583:A1 0
3 *514:A2 0.000216436
4 *690:Q 0.000100131
5 *157:16 0.000687054
6 *157:12 0.000762691
7 *157:8 0.000352699
8 *514:A2 *514:A1 1.54008e-05
9 *514:A2 *577:B 0.000128248
10 *514:A2 *283:10 5.34469e-05
11 *514:A2 *435:51 0
12 *803:A *177:10 8.00842e-05
13 *803:A *435:32 6.46834e-05
14 *157:8 *435:51 0
15 *157:12 *177:10 0.000468951
16 *157:12 *435:32 0.00024211
17 *157:12 *435:40 0.000241979
18 *157:16 *806:A 0
19 *157:16 *283:10 0.00109038
20 *157:16 *435:51 0
21 *690:D *514:A2 0.00024211
22 *92:66 *514:A2 0
*RES
1 *690:Q *157:8 40.9328 
2 *157:8 *157:12 22.6752 
3 *157:12 *157:16 25.7904 
4 *157:16 *514:A2 42.1032 
5 *157:16 *583:A1 40 
6 *157:12 *803:A 20.4576 
*END

*D_NET *158 0.00291105
*CONN
*I *511:A2 I *D sg13g2_a21oi_1
*I *582:A1 I *D sg13g2_mux2_1
*I *802:A I *D sg13g2_buf_1
*I *691:Q O *D sg13g2_dfrbpq_1
*CAP
1 *511:A2 0.000169502
2 *582:A1 6.43048e-05
3 *802:A 0.000214667
4 *691:Q 0
5 *158:19 0.00082435
6 *158:4 0.000805211
7 *511:A2 *511:A1 1.54556e-05
8 *511:A2 *427:117 0
9 *582:A1 *284:25 4.76247e-05
10 *582:A1 *425:53 0
11 *802:A *177:10 0
12 *158:19 *177:10 0
13 *158:19 *425:53 0
14 *56:12 *511:A2 0.000242088
15 *56:12 *582:A1 4.77425e-05
16 *92:66 *511:A2 0.000274529
17 *92:66 *582:A1 0.000129379
18 *92:66 *158:19 7.61961e-05
*RES
1 *691:Q *158:4 20 
2 *158:4 *802:A 22.1296 
3 *158:4 *158:19 26.4592 
4 *158:19 *582:A1 40.7832 
5 *158:19 *511:A2 41.7512 
*END

*D_NET *159 0.0045743
*CONN
*I *505:B1 I *D sg13g2_a22oi_1
*I *581:A1 I *D sg13g2_mux2_1
*I *801:A I *D sg13g2_buf_1
*I *692:Q O *D sg13g2_dfrbpq_1
*CAP
1 *505:B1 0
2 *581:A1 0
3 *801:A 0.000443657
4 *692:Q 0.000164856
5 *159:35 0.00018671
6 *159:23 0.000593387
7 *159:8 0.00101519
8 *801:A *686:CLK 0
9 *801:A *176:8 0
10 *801:A *191:9 0.000241847
11 *801:A *215:9 0.000144768
12 *801:A *435:16 0
13 *159:8 *686:CLK 0
14 *159:8 *435:16 0
15 *159:23 *244:10 0.000927877
16 *159:23 *409:67 0.000287256
17 *159:23 *472:8 0
18 *159:35 *541:B 8.00842e-05
19 *159:35 *581:A0 1.54008e-05
20 *159:35 *239:31 0.00012816
21 *159:35 *286:10 0
22 *159:35 *409:67 0.000234224
23 reg_rsp_o[8] *159:23 0
24 *49:33 *159:23 4.77425e-05
25 *49:45 *159:23 4.77425e-05
26 *52:14 *159:23 1.54008e-05
27 *92:33 *159:35 0
*RES
1 *692:Q *159:8 21.5224 
2 *159:8 *801:A 23.784 
3 *159:8 *159:23 44.7696 
4 *159:23 *159:35 42.1736 
5 *159:35 *581:A1 20 
6 *159:23 *505:B1 20 
*END

*D_NET *160 0.00374151
*CONN
*I *800:A I *D sg13g2_buf_1
*I *676:A2 I *D sg13g2_a21oi_1
*I *664:A1 I *D sg13g2_mux2_1
*I *693:Q O *D sg13g2_dfrbpq_1
*CAP
1 *800:A 0.000162321
2 *676:A2 6.55615e-05
3 *664:A1 0.000259959
4 *693:Q 0
5 *160:8 0.0010027
6 *160:4 0.000839502
7 *664:A1 *664:A0 0
8 *664:A1 *442:21 0
9 *664:A1 *442:49 0
10 *800:A *193:19 0.000209999
11 *160:8 reg_rsp_o[5] 0
12 *160:8 *415:74 0.000670605
13 *160:8 *435:98 0
14 *677:B1 *664:A1 0
15 *843:A *676:A2 0.000112426
16 *27:10 *664:A1 0
17 *49:10 *676:A2 0.000112426
18 *51:14 *676:A2 1.54008e-05
19 *92:114 *664:A1 0
20 *154:8 *664:A1 0.000290605
*RES
1 *693:Q *160:4 20 
2 *160:4 *160:8 26.6352 
3 *160:8 *664:A1 42.42 
4 *160:8 *676:A2 40.6424 
5 *160:4 *800:A 21.7072 
*END

*D_NET *165 0.00408127
*CONN
*I *586:A1 I *D sg13g2_mux2_1
*I *543:B I *D sg13g2_nand2_1
*I *799:A I *D sg13g2_buf_1
*I *686:Q O *D sg13g2_dfrbpq_1
*CAP
1 *586:A1 0
2 *543:B 0.000256185
3 *799:A 3.03288e-05
4 *686:Q 0.000207922
5 *165:23 0.000600457
6 *165:10 0.000582522
7 *543:B *586:A0 4.77425e-05
8 *543:B *414:39 0.000208999
9 *799:A *435:16 4.77425e-05
10 *165:10 *435:16 0.000129466
11 *165:23 reg_rsp_o[10] 0.00120991
12 *165:23 *279:10 0.000614837
13 *49:45 *543:B 0.000145159
*RES
1 *686:Q *165:10 21.7952 
2 *165:10 *799:A 20.2728 
3 *165:10 *165:23 44.7344 
4 *165:23 *543:B 22.3232 
5 *165:23 *586:A1 20 
*END

*D_NET *166 0.00319038
*CONN
*I *798:A I *D sg13g2_buf_1
*I *540:B I *D sg13g2_nand2_1
*I *585:A1 I *D sg13g2_mux2_1
*I *687:Q O *D sg13g2_dfrbpq_1
*CAP
1 *798:A 9.35708e-05
2 *540:B 0
3 *585:A1 0.000385296
4 *687:Q 0.000143625
5 *166:10 0.000868371
6 *166:8 0.00072027
7 *585:A1 *539:B1 4.78524e-05
8 *585:A1 *539:A2 0
9 *585:A1 *687:CLK 0
10 *585:A1 *280:8 0
11 *585:A1 *280:12 0.00024122
12 *585:A1 *414:64 0
13 *798:A *474:10 0.000159096
14 *166:8 *181:11 0.000242072
15 *166:10 *687:CLK 0
16 *166:10 *280:8 0
17 *166:10 *312:8 0
18 *166:10 *474:10 0.000289002
19 *687:D *585:A1 0
20 *92:43 *585:A1 0
*RES
1 *687:Q *166:8 41.3816 
2 *166:8 *166:10 4.9456 
3 *166:10 *585:A1 43.5024 
4 *166:10 *540:B 40 
5 *166:8 *798:A 40.9944 
*END

*D_NET *167 0.00407153
*CONN
*I *797:A I *D sg13g2_buf_1
*I *537:B I *D sg13g2_nand2_1
*I *584:A1 I *D sg13g2_mux2_1
*I *688:Q O *D sg13g2_dfrbpq_1
*CAP
1 *797:A 0.000239739
2 *537:B 0.000133063
3 *584:A1 0.000300616
4 *688:Q 2.7586e-05
5 *167:14 0.000912295
6 *167:8 0.000745942
7 *584:A1 *584:A0 0.000369457
8 *584:A1 *281:6 4.76452e-05
9 *584:A1 *415:37 0
10 *584:A1 *415:64 0
11 *797:A *903:A 0
12 *797:A *278:8 0
13 *797:A *435:16 0
14 *797:A *468:10 0
15 *167:8 *414:33 0
16 *167:14 *278:8 0
17 *167:14 *395:14 0
18 *167:14 *414:104 0
19 *167:14 *415:64 0.000287758
20 *167:14 *468:10 0
21 *688:D *584:A1 0.000240306
22 *67:30 *537:B 0
23 *67:30 *167:14 0
24 *67:54 *167:14 0
25 *79:12 *167:14 0.000767121
*RES
1 *688:Q *167:8 40.2728 
2 *167:8 *167:14 25.3504 
3 *167:14 *584:A1 23.1592 
4 *167:14 *537:B 21.0648 
5 *167:8 *797:A 42.024 
*END

*D_NET *168 0.00550973
*CONN
*I *663:A1 I *D sg13g2_mux2_1
*I *680:B I *D sg13g2_nand2_1
*I *796:A I *D sg13g2_buf_1
*I *689:Q O *D sg13g2_dfrbpq_1
*CAP
1 *663:A1 0
2 *680:B 4.85372e-05
3 *796:A 0.000553927
4 *689:Q 9.28267e-05
5 *168:29 0.000941734
6 *168:19 0.00145264
7 *168:8 0.0012062
8 *680:B *680:A 1.54008e-05
9 *680:B *415:64 8.00842e-05
10 *796:A *175:8 0
11 *796:A *193:19 0
12 *796:A *222:11 0
13 *796:A *442:57 0
14 *796:A *467:12 0
15 *168:8 *442:57 0
16 *168:29 *679:A2 4.77425e-05
17 *168:29 *308:8 0.00018128
18 *168:29 *409:99 0
19 *51:10 *168:29 0
20 *53:79 *168:29 0.000809271
21 *53:87 *168:29 8.00842e-05
22 *67:12 *168:29 0
23 *67:24 *168:29 0
*RES
1 *689:Q *168:8 20.968 
2 *168:8 *796:A 24.8928 
3 *168:8 *168:19 26.0016 
4 *168:19 *168:29 47.788 
5 *168:29 *680:B 40.4576 
6 *168:19 *663:A1 40 
*END

*D_NET *183 0.0022055
*CONN
*I *795:A I *D sg13g2_buf_1
*I *497:Y O *D sg13g2_a22oi_1
*CAP
1 *795:A 0
2 *497:Y 0.00100102
3 *183:12 0.00100102
4 *183:12 *717:CLK 0
5 *183:12 *290:8 0
6 *183:12 *415:8 0
7 *183:12 *426:23 0
8 *526:A1 *183:12 0
9 *42:8 *183:12 0.000128248
10 *43:18 *183:12 0
11 *49:45 *183:12 7.52158e-05
12 *70:10 *183:12 0
*RES
1 *497:Y *183:12 48.4744 
2 *183:12 *795:A 40 
*END

*D_NET *184 0.000666323
*CONN
*I *794:A I *D sg13g2_buf_1
*I *492:Y O *D sg13g2_a22oi_1
*CAP
1 *794:A 5.65319e-05
2 *492:Y 0.000157733
3 *184:10 0.000214265
4 *794:A *242:12 0
5 *172:18 *184:10 0.000237794
*RES
1 *492:Y *184:10 41.628 
2 *184:10 *794:A 40.4576 
*END

*D_NET *185 0.00349082
*CONN
*I *793:A I *D sg13g2_buf_1
*I *487:Y O *D sg13g2_a22oi_1
*CAP
1 *793:A 0
2 *487:Y 0.00171381
3 *185:12 0.00171381
4 *185:12 reg_rsp_o[13] 0
5 *185:12 *484:B1 0
6 *185:12 *672:A2 0
7 *185:12 *709:RESET_B 0
8 *185:12 *756:RESET_B 4.77425e-05
9 *185:12 *859:A 0
10 *185:12 *870:A 0
11 *185:12 *421:76 0
12 *185:12 *427:282 0
13 *185:12 *441:8 0
14 *487:B1 *185:12 1.54556e-05
15 *487:A2 *185:12 0
16 *705:D *185:12 0
*RES
1 *487:Y *185:12 34.9512 
2 *185:12 *793:A 20 
*END

*D_NET *186 0.00176287
*CONN
*I *792:A I *D sg13g2_buf_1
*I *649:Y O *D sg13g2_a22oi_1
*CAP
1 *792:A 0.000769464
2 *649:Y 0.000769464
3 *792:A *527:A 0
4 *792:A *647:B1 0
5 *792:A *697:RESET_B 0
6 *792:A *705:CLK 0
7 *792:A *245:12 0
8 *649:B2 *792:A 4.79124e-05
9 *649:A1 *792:A 0
10 *697:D *792:A 0.000176034
*RES
1 *649:Y *792:A 46.9784 
*END

*D_NET *286 0.00113764
*CONN
*I *791:A I *D sg13g2_buf_1
*I *534:Y O *D sg13g2_o21ai_1
*CAP
1 *791:A 0
2 *534:Y 0.000537135
3 *286:10 0.000537135
4 *286:10 *526:B1 1.54556e-05
5 *286:10 *409:24 4.79124e-05
6 *286:10 *409:46 0
7 *3:10 *286:10 0
8 *13:8 *286:10 0
9 *159:35 *286:10 0
*RES
1 *534:Y *286:10 45.4296 
2 *286:10 *791:A 40 
*END

*D_NET *287 0.000858625
*CONN
*I *790:A I *D sg13g2_buf_1
*I *532:Y O *D sg13g2_o21ai_1
*CAP
1 *790:A 0.000389232
2 *532:Y 0.000389232
3 *790:A *558:A 0
4 *790:A *783:A 0
5 *790:A *786:A 0
6 *525:A1 *790:A 0
7 *564:B *790:A 8.01609e-05
*RES
1 *532:Y *790:A 43.3704 
*END

*D_NET *288 0.00378591
*CONN
*I *789:A I *D sg13g2_buf_1
*I *530:Y O *D sg13g2_o21ai_1
*CAP
1 *789:A 0
2 *530:Y 0.00142868
3 *288:18 0.00142868
4 *288:18 *482:A1 8.02102e-05
5 *288:18 *704:CLK 0
6 *288:18 *709:RESET_B 0
7 *288:18 *827:A 0.000209763
8 *288:18 *410:85 1.54008e-05
9 *288:18 *413:54 0
10 *288:18 *413:56 0
11 *288:18 *413:77 0
12 *288:18 *415:129 0
13 *485:A *288:18 0
14 *523:A1 *288:18 0.000225239
15 *709:D *288:18 0.000397947
16 *35:8 *288:18 0
17 *53:68 *288:18 0
18 *224:12 *288:18 0
*RES
1 *530:Y *288:18 33.3144 
2 *288:18 *789:A 20 
*END

*D_NET *289 0.0013042
*CONN
*I *788:A I *D sg13g2_buf_1
*I *528:Y O *D sg13g2_o21ai_1
*CAP
1 *788:A 2.78191e-05
2 *528:Y 0.000319406
3 *289:10 0.000347225
4 *788:A *784:A 0
5 *289:10 *413:39 0
6 *528:A1 *289:10 0
7 *705:D *289:10 0.00027466
8 *53:68 *289:10 0
9 *152:10 *788:A 4.78356e-05
10 *152:10 *289:10 0.000287256
*RES
1 *528:Y *289:10 43.1328 
2 *289:10 *788:A 40.2728 
*END

*D_NET *290 0.00219347
*CONN
*I *787:A I *D sg13g2_buf_1
*I *526:Y O *D sg13g2_o21ai_1
*CAP
1 *787:A 6.38819e-05
2 *526:Y 0.000318525
3 *290:8 0.000382407
4 *787:A *541:B 0
5 *290:8 *415:8 0.00108836
6 *539:B2 *787:A 0
7 *49:45 *290:8 0.000340288
8 *67:30 *787:A 0
9 *183:12 *290:8 0
*RES
1 *526:Y *290:8 44.312 
2 *290:8 *787:A 40.4576 
*END

*D_NET *291 0.000994361
*CONN
*I *786:A I *D sg13g2_buf_1
*I *525:Y O *D sg13g2_o21ai_1
*CAP
1 *786:A 0.000425212
2 *525:Y 0.000425212
3 *786:A *564:A 0.000143937
4 *786:A *432:22 0
5 *525:A1 *786:A 0
6 *790:A *786:A 0
7 *85:16 *786:A 0
*RES
1 *525:Y *786:A 43.6696 
*END

*D_NET *292 0.00142829
*CONN
*I *785:A I *D sg13g2_buf_1
*I *524:Y O *D sg13g2_o21ai_1
*CAP
1 *785:A 3.46921e-05
2 *524:Y 0.000581289
3 *292:12 0.000615981
4 *292:12 *413:66 0.000180928
5 *839:A *292:12 1.54008e-05
6 *53:30 *292:12 0
7 *258:10 *292:12 0
*RES
1 *524:Y *292:12 45.0688 
2 *292:12 *785:A 40.2728 
*END

*D_NET *293 0.00149813
*CONN
*I *784:A I *D sg13g2_buf_1
*I *523:Y O *D sg13g2_o21ai_1
*CAP
1 *784:A 0.000442883
2 *523:Y 0.000442883
3 *784:A reg_rsp_o[12] 0.000144943
4 *784:A reg_rsp_o[13] 0
5 *784:A reg_rsp_o[17] 0.000112749
6 *784:A reg_rsp_o[21] 0
7 *784:A *671:A 0
8 *784:A *827:A 0
9 *788:A *784:A 0
10 *53:18 *784:A 1.54008e-05
11 *53:68 *784:A 0.000339267
12 *152:10 *784:A 0
*RES
1 *523:Y *784:A 44.1976 
*END

*D_NET *294 0.000737037
*CONN
*I *783:A I *D sg13g2_buf_1
*I *521:Y O *D sg13g2_o21ai_1
*CAP
1 *783:A 0.000368519
2 *521:Y 0.000368519
3 *783:A *558:A 0
4 *783:A *825:A 0
5 *790:A *783:A 0
6 *251:12 *783:A 0
*RES
1 *521:Y *783:A 43.1592 
*END

*D_NET *295 0.00146141
*CONN
*I *782:A I *D sg13g2_buf_1
*I *519:Y O *D sg13g2_o21ai_1
*CAP
1 *782:A 0
2 *519:Y 0.000264352
3 *295:16 0.000143042
4 *295:8 0.000407393
5 *295:8 *519:A2 0.000129657
6 *571:A1 *295:16 0.000291937
7 *886:A *295:16 0.000112601
8 *89:10 *295:16 0.000112426
*RES
1 *519:Y *295:8 41.7776 
2 *295:8 *295:16 41.7864 
3 *295:16 *782:A 40 
*END

*D_NET *296 0.00425644
*CONN
*I *551:B I *D sg13g2_nor2_2
*I *781:A I *D sg13g2_buf_1
*I *550:Y O *D sg13g2_inv_1
*CAP
1 *551:B 0
2 *781:A 0.000591932
3 *550:Y 0
4 *296:31 0.000177458
5 *296:12 0.0014279
6 *296:4 0.00101343
7 *781:A *811:A 0.000143911
8 *781:A *391:14 0
9 *781:A *435:16 0
10 *296:12 reg_rsp_o[4] 0
11 *296:12 *395:14 0
12 *296:12 *415:64 0
13 *296:12 *440:21 0.000208975
14 *296:12 *476:10 0
15 *296:31 *414:25 3.24022e-05
16 *296:31 *414:27 1.54008e-05
17 *296:31 *440:21 0
18 *545:A *296:12 0
19 *49:29 *296:12 0
20 *74:14 *296:31 7.56299e-05
21 *78:21 *296:12 4.79124e-05
22 *78:21 *296:31 0
23 *79:12 *296:31 0
24 *92:14 *296:12 0
25 *92:14 *296:31 0
26 *192:9 *296:12 0.000340288
27 *216:11 *296:12 0.000181192
*RES
1 *550:Y *296:4 20 
2 *296:4 *296:12 47.832 
3 *296:12 *781:A 24.4528 
4 *296:4 *296:31 41.5048 
5 *296:31 *551:B 20 
*END

*D_NET *297 0.00392373
*CONN
*I *780:A I *D sg13g2_buf_1
*I *517:Y O *D sg13g2_o21ai_1
*CAP
1 *780:A 0
2 *517:Y 0.000108151
3 *297:16 0.0017236
4 *297:8 0.00183175
5 *297:8 *517:B1 1.54008e-05
6 *297:8 *590:A 0
7 *297:8 *421:31 0
8 *297:8 *427:159 0
9 *297:16 *517:A2 0
10 *297:16 *355:42 0
11 *297:16 *389:8 4.74145e-05
12 *297:16 *427:39 0
13 *516:A *297:8 0
14 *59:25 *297:8 1.54008e-05
15 *59:25 *297:16 0
16 *95:33 *297:16 0
17 *99:8 *297:16 0.000182023
18 *248:14 *297:16 0
19 *257:18 *297:16 0
*RES
1 *517:Y *297:8 40.8272 
2 *297:8 *297:16 33.9128 
3 *297:16 *780:A 20 
*END

*D_NET *298 0.000198198
*CONN
*I *779:A I *D sg13g2_buf_1
*I *678:Y O *D sg13g2_o21ai_1
*CAP
1 *779:A 7.51894e-05
2 *678:Y 7.51894e-05
3 *678:B1 *779:A 0
4 *209:13 *779:A 4.78195e-05
*RES
1 *678:Y *779:A 40.7832 
*END

*D_NET *307 0.000522325
*CONN
*I *770:A I *D sg13g2_buf_1
*I *544:Y O *D sg13g2_nand3_1
*CAP
1 *770:A 0.000156605
2 *544:Y 0.000156605
3 *770:A *544:B 0.000209114
4 *770:A *810:A 0
*RES
1 *544:Y *770:A 41.496 
*END

*D_NET *223 0.00441389
*CONN
*I *555:A0 I *D sg13g2_mux2_1
*I *494:A2 I *D sg13g2_a21oi_1
*I *542:A2 I *D sg13g2_a22oi_1
*I *710:Q O *D sg13g2_dfrbpq_1
*CAP
1 *555:A0 0.000132142
2 *494:A2 0.000249312
3 *542:A2 7.51003e-05
4 *710:Q 7.16635e-05
5 *223:29 0.000783979
6 *223:16 0.000796764
7 *223:8 0.000390802
8 *555:A0 *526:B1 0
9 *555:A0 *555:A1 0
10 *555:A0 *416:22 0.00014407
11 *223:8 reg_rsp_o[14] 0.000130062
12 *223:16 *541:B 0
13 *223:16 *303:12 0.000297683
14 *223:29 *279:20 0
15 *223:29 *415:8 0.0011414
16 *223:29 *427:234 0
17 *494:A1 *494:A2 1.54008e-05
18 *43:12 *494:A2 0
19 *67:30 *542:A2 0.000112198
20 *67:30 *223:16 7.33156e-05
*RES
1 *710:Q *223:8 40.7216 
2 *223:8 *223:16 22.6928 
3 *223:16 *542:A2 20.6424 
4 *223:16 *223:29 24.796 
5 *223:29 *494:A2 41.76 
6 *223:29 *555:A0 41.1264 
*END

*D_NET *224 0.00122011
*CONN
*I *484:B1 I *D sg13g2_a21oi_1
*I *529:A I *D sg13g2_inv_1
*I *704:Q O *D sg13g2_dfrbpq_1
*CAP
1 *484:B1 0.000263596
2 *529:A 0
3 *704:Q 0
4 *224:12 0.000338729
5 *224:4 0.000602325
6 *484:B1 *427:282 0
7 *224:12 *482:A1 0
8 *224:12 *704:CLK 0
9 *224:12 *288:18 0
10 *224:12 *415:129 0
11 *484:A1 *484:B1 1.54556e-05
12 *487:B2 *484:B1 0
13 *487:A2 *484:B1 0
14 *185:12 *484:B1 0
*RES
1 *704:Q *224:4 20 
2 *224:4 *224:12 42.7368 
3 *224:12 *529:A 20 
4 *224:4 *484:B1 22.6136 
*END

*D_NET *225 0.00284365
*CONN
*I *647:B1 I *D sg13g2_a21oi_1
*I *527:A I *D sg13g2_inv_1
*I *705:Q O *D sg13g2_dfrbpq_1
*CAP
1 *647:B1 0.0007247
2 *527:A 0.000313333
3 *705:Q 0.000220295
4 *225:8 0.00125833
5 *527:A *697:RESET_B 0
6 *527:A *705:CLK 0
7 *647:B1 *646:A 0
8 *647:B1 *648:A2 1.54008e-05
9 *647:B1 *697:RESET_B 0
10 *647:B1 *245:12 0
11 *647:B1 *429:27 0
12 *225:8 *413:27 0
13 *225:8 *429:38 0
14 *649:B2 *647:B1 0
15 *649:A1 *647:B1 0
16 *667:B1 *647:B1 0
17 *667:A1 *647:B1 0.000112018
18 *697:D *647:B1 0
19 *792:A *527:A 0
20 *792:A *647:B1 0
21 *137:12 *647:B1 0.000199575
22 *174:36 *647:B1 0
*RES
1 *705:Q *225:8 41.9888 
2 *225:8 *527:A 42.5256 
3 *225:8 *647:B1 46.4152 
*END

*D_NET *226 0.000981459
*CONN
*I *495:A I *D sg13g2_inv_1
*I *706:Q O *D sg13g2_dfrbpq_1
*CAP
1 *495:A 0.000402062
2 *706:Q 0.000402062
3 *495:A *494:B1 0
4 *495:A *533:A 0
5 *495:A *319:31 0.000177335
6 *495:A *416:22 0
*RES
1 *706:Q *495:A 43.344 
*END

*D_NET *227 0.000171163
*CONN
*I *490:A I *D sg13g2_inv_1
*I *707:Q O *D sg13g2_dfrbpq_1
*CAP
1 *490:A 8.55816e-05
2 *707:Q 8.55816e-05
3 *490:A *488:A 0
4 *490:A *760:A 0
5 *39:6 *490:A 0
*RES
1 *707:Q *490:A 40.7832 
*END

*D_NET *228 0.000150292
*CONN
*I *485:A I *D sg13g2_inv_1
*I *708:Q O *D sg13g2_dfrbpq_1
*CAP
1 *485:A 7.51462e-05
2 *708:Q 7.51462e-05
3 *485:A *288:18 0
4 *485:A *415:129 0
*RES
1 *708:Q *485:A 40.7832 
*END

*D_NET *229 0.000632295
*CONN
*I *522:A I *D sg13g2_inv_1
*I *709:Q O *D sg13g2_dfrbpq_1
*CAP
1 *522:A 0.000195057
2 *709:Q 0.000195057
3 *522:A *705:CLK 0.000242181
4 *649:A1 *522:A 0
*RES
1 *709:Q *522:A 41.892 
*END

*D_NET *230 0.00301236
*CONN
*I *481:S I *D sg13g2_mux2_1
*I *520:A I *D sg13g2_inv_1
*I *698:Q O *D sg13g2_dfrbpq_1
*CAP
1 *481:S 0.000423652
2 *520:A 0.00045255
3 *698:Q 8.60901e-05
4 *230:10 0.000962292
5 *520:A *698:CLK 0.000454162
6 *520:A *420:38 0.000395488
7 *230:10 *698:CLK 0.000238126
8 *169:20 *481:S 0
9 *169:20 *230:10 0
10 *172:8 *520:A 0
11 *172:12 *481:S 0
12 *172:18 *230:10 0
*RES
1 *698:Q *230:10 41.2056 
2 *230:10 *520:A 45.5176 
3 *230:10 *481:S 43.5992 
*END

*D_NET *231 0.00210703
*CONN
*I *518:A I *D sg13g2_inv_1
*I *480:S I *D sg13g2_mux2_1
*I *699:Q O *D sg13g2_dfrbpq_1
*CAP
1 *518:A 0.000265883
2 *480:S 0.000436678
3 *699:Q 7.00014e-05
4 *231:6 0.000772562
5 *480:S *480:A0 1.54008e-05
6 *480:S *480:A1 0
7 *480:S *336:8 0
8 *518:A *432:84 0
9 *521:A1 *518:A 0
10 *698:D *480:S 0
11 *886:A *480:S 0.000209725
12 *886:A *518:A 0
13 *61:8 *518:A 0
14 *89:10 *518:A 0.000336781
*RES
1 *699:Q *231:6 20.7216 
2 *231:6 *480:S 24.0656 
3 *231:6 *518:A 22.3056 
*END

*D_NET *232 0.00349324
*CONN
*I *482:S I *D sg13g2_mux2_1
*I *516:A I *D sg13g2_inv_1
*I *700:Q O *D sg13g2_dfrbpq_1
*CAP
1 *482:S 0.000467189
2 *516:A 0.000626161
3 *700:Q 0.000232755
4 *232:8 0.0013261
5 *482:S *482:A0 0
6 *482:S *413:83 0.00082563
7 *516:A *517:A2 0
8 *516:A *845:A 0
9 *516:A *297:8 0
10 *516:A *421:31 0
11 *232:8 *845:A 0
12 *755:D *482:S 0
13 *59:25 *516:A 1.54008e-05
14 *173:17 *482:S 0
*RES
1 *700:Q *232:8 41.9888 
2 *232:8 *516:A 44.7432 
3 *232:8 *482:S 44.708 
*END

*D_NET *233 0.00345578
*CONN
*I *668:A I *D sg13g2_inv_1
*I *645:S I *D sg13g2_mux2_1
*I *701:Q O *D sg13g2_dfrbpq_1
*CAP
1 *668:A 0.000292653
2 *645:S 0.000221202
3 *701:Q 0.000552624
4 *233:8 0.00106648
5 *645:S *374:18 0
6 *645:S *412:25 0.000112426
7 *645:S *427:185 0
8 *668:A *645:A1 0.000112078
9 *668:A *875:A 0
10 *233:8 *421:61 0.000936586
11 *233:8 *421:76 0.000161737
12 *174:12 *668:A 0
*RES
1 *701:Q *233:8 46.2128 
2 *233:8 *645:S 41.7864 
3 *233:8 *668:A 42.42 
*END

*D_NET *234 0.00555965
*CONN
*I *539:A2 I *D sg13g2_a22oi_1
*I *554:A0 I *D sg13g2_mux2_1
*I *489:A2 I *D sg13g2_a21oi_1
*I *711:Q O *D sg13g2_dfrbpq_1
*CAP
1 *539:A2 0.000266912
2 *554:A0 0
3 *489:A2 0.000517334
4 *711:Q 6.85498e-05
5 *234:28 0.00125661
6 *234:16 0.00135039
7 *234:10 0.000946579
8 *489:A2 *491:A2 0
9 *489:A2 *323:10 0.0001448
10 *489:A2 *431:48 0
11 *539:A2 *539:B1 0
12 *539:A2 *414:64 0
13 *234:10 *280:8 0.00012816
14 *234:16 *717:CLK 0
15 *234:16 *280:8 0.000235153
16 *234:16 *280:18 0
17 *234:16 *403:10 0
18 *234:16 *416:32 0
19 *234:16 *426:23 0
20 *234:16 *431:14 0
21 *234:28 *513:A 0
22 *234:28 *578:A2 0
23 *234:28 *718:RESET_B 0
24 *234:28 *237:22 0
25 *234:28 *416:32 0
26 *234:28 *419:59 0.00012816
27 *234:28 *419:70 0
28 *234:28 *425:33 0
29 *234:28 *431:25 4.77537e-05
30 *234:28 *431:48 0
31 *541:C *539:A2 0
32 *576:A1 *489:A2 0
33 *585:A1 *539:A2 0
34 *718:D *489:A2 0
35 *718:D *234:28 0
36 *2:8 *234:16 0
37 *2:8 *234:28 0
38 *182:12 *234:28 0.000469253
*RES
1 *711:Q *234:10 40.7832 
2 *234:10 *234:16 25.5088 
3 *234:16 *234:28 46.7672 
4 *234:28 *489:A2 24.6376 
5 *234:16 *554:A0 20 
6 *234:10 *539:A2 42.3056 
*END

*D_NET *235 0.00376138
*CONN
*I *536:A2 I *D sg13g2_a22oi_1
*I *553:A0 I *D sg13g2_mux2_1
*I *484:A2 I *D sg13g2_a21oi_1
*I *712:Q O *D sg13g2_dfrbpq_1
*CAP
1 *536:A2 0.000130124
2 *553:A0 0.000340656
3 *484:A2 0
4 *712:Q 0
5 *235:23 0.000518509
6 *235:12 0.00115759
7 *235:4 0.00120531
8 *553:A0 *696:CLK 0
9 *553:A0 *404:8 0
10 *235:12 *536:B1 0
11 *235:12 *704:CLK 0
12 *235:12 *719:CLK 0
13 *235:12 *236:12 0
14 *235:12 *409:10 0
15 *235:12 *427:282 0
16 *235:12 *427:294 0
17 *235:12 *440:12 0
18 *235:12 *442:10 0
19 *536:A1 *536:A2 0.000233586
20 *536:A1 *553:A0 0
21 *536:A1 *235:23 0
22 *1:10 *553:A0 0
23 *67:54 *536:A2 4.77425e-05
24 *67:54 *553:A0 0
25 *68:10 *536:A2 0.000127867
*RES
1 *712:Q *235:4 20 
2 *235:4 *235:12 31.2728 
3 *235:12 *484:A2 40 
4 *235:4 *235:23 20.4576 
5 *235:23 *553:A0 42.8952 
6 *235:23 *536:A2 41.628 
*END

*D_NET *236 0.00408889
*CONN
*I *679:A2 I *D sg13g2_a22oi_1
*I *675:A0 I *D sg13g2_mux2_1
*I *647:A2 I *D sg13g2_a21oi_1
*I *713:Q O *D sg13g2_dfrbpq_1
*CAP
1 *679:A2 0.000226798
2 *675:A0 2.77263e-05
3 *647:A2 0.000364873
4 *713:Q 0
5 *236:12 0.00114941
6 *236:6 0.000983607
7 *647:A2 *697:CLK 0.000534111
8 *647:A2 *429:27 0
9 *679:A2 *675:A1 0
10 *236:12 *675:A1 0
11 *236:12 *719:CLK 8.00842e-05
12 *236:12 *319:62 0.000289003
13 *236:12 *405:10 0
14 *236:12 *429:16 0
15 *236:12 *429:27 0
16 *236:12 *440:12 0
17 *647:A1 *647:A2 0.000209637
18 *713:D *647:A2 0
19 *713:D *675:A0 0
20 *713:D *236:12 0
21 *67:12 *679:A2 4.77425e-05
22 *155:10 *679:A2 0.00012816
23 *168:29 *679:A2 4.77425e-05
24 *235:12 *236:12 0
*RES
1 *713:Q *236:6 40 
2 *236:6 *236:12 27.3304 
3 *236:12 *647:A2 23.4144 
4 *236:12 *675:A0 20.2992 
5 *236:6 *679:A2 42.0856 
*END

*D_NET *237 0.00157231
*CONN
*I *496:A2 I *D sg13g2_a21oi_1
*I *513:A I *D sg13g2_inv_1
*I *694:Q O *D sg13g2_dfrbpq_1
*CAP
1 *496:A2 0.000143816
2 *513:A 0.000356065
3 *694:Q 0.000433457
4 *237:22 0.000221209
5 *496:A2 *322:28 4.78524e-05
6 *496:A2 *419:46 0.000242089
7 *513:A *718:RESET_B 0
8 *513:A *431:25 0
9 *513:A *431:48 0.000112426
10 *237:22 *322:28 0
11 *237:22 *419:70 0
12 *57:21 *513:A 1.54008e-05
13 *182:12 *496:A2 0
14 *234:28 *513:A 0
15 *234:28 *237:22 0
*RES
1 *694:Q *513:A 43.344 
2 *694:Q *237:22 40.7216 
3 *237:22 *496:A2 41.3816 
*END

*D_NET *238 0.0023873
*CONN
*I *509:A I *D sg13g2_inv_1
*I *491:A2 I *D sg13g2_a21oi_1
*I *695:Q O *D sg13g2_dfrbpq_1
*CAP
1 *509:A 6.6553e-06
2 *491:A2 6.24775e-05
3 *695:Q 0.000522536
4 *238:14 0.000434688
5 *238:8 0.000888091
6 *491:A2 *488:A 1.15917e-05
7 *509:A *488:A 0
8 *238:8 *420:73 0
9 *238:14 *488:A 0
10 *238:14 *760:A 0.00024211
11 reg_rsp_o[7] *238:14 0
12 *489:A2 *491:A2 0
13 *695:D *238:14 0
14 *55:6 *238:14 0
15 *55:14 *509:A 0
16 *55:14 *238:14 0
17 *169:6 *238:8 0
18 *210:10 *238:8 7.52158e-05
19 *210:10 *238:14 0.000143932
*RES
1 *695:Q *238:8 45.368 
2 *238:8 *238:14 23.3198 
3 *238:14 *491:A2 20.6996 
4 *238:14 *509:A 20.1122 
*END

*D_NET *239 0.0060304
*CONN
*I *486:A2 I *D sg13g2_a21oi_1
*I *505:A2 I *D sg13g2_a22oi_1
*I *574:A0 I *D sg13g2_mux2_1
*I *696:Q O *D sg13g2_dfrbpq_1
*CAP
1 *486:A2 0.000548742
2 *505:A2 0
3 *574:A0 8.14089e-05
4 *696:Q 0.000924281
5 *239:45 0.00134878
6 *239:31 0.000146988
7 *239:23 0.000804974
8 *239:8 0.000863635
9 *486:A2 *483:A 0
10 *486:A2 *486:A1 0.000241924
11 *486:A2 *567:B1 0
12 *486:A2 *719:RESET_B 0
13 *486:A2 *415:129 0
14 *486:A2 *429:6 0
15 *486:A2 *429:68 0
16 *239:23 *574:A1 0
17 *239:23 *244:10 0.000288587
18 *239:23 *415:37 0
19 *239:31 *414:33 4.77425e-05
20 *239:31 *414:39 4.77425e-05
21 *239:31 *415:31 8.00842e-05
22 *239:45 *719:RESET_B 0
23 *239:45 *409:24 0
24 *574:S *574:A0 0
25 *574:S *239:8 0
26 *692:D *239:23 0.000176532
27 *858:A *486:A2 0
28 *49:33 *239:23 9.64366e-05
29 *49:45 *239:23 8.00842e-05
30 *52:14 *239:31 0.000124293
31 *66:12 *239:45 0
32 *79:12 *239:45 0
33 *79:14 *239:45 0
34 *79:16 *239:45 0
35 *79:18 *239:45 0
36 *79:28 *486:A2 0
37 *79:28 *239:45 0
38 *92:91 *239:23 0
39 *159:35 *239:31 0.00012816
*RES
1 *696:Q *239:8 21.1528 
2 *239:8 *574:A0 20.6424 
3 *239:8 *239:23 45.7464 
4 *239:23 *239:31 41.6016 
5 *239:31 *505:A2 20 
6 *696:Q *239:45 47.9024 
7 *239:45 *486:A2 44.708 
*END

*D_NET *240 0.00262632
*CONN
*I *665:A I *D sg13g2_inv_1
*I *648:A1 I *D sg13g2_a21oi_1
*I *697:Q O *D sg13g2_dfrbpq_1
*CAP
1 *665:A 2.58733e-05
2 *648:A1 0
3 *697:Q 0.00039712
4 *240:22 0.000378815
5 *240:14 0.000404688
6 *240:12 0.00039712
7 *665:A *697:CLK 3.23472e-05
8 *240:12 *552:A 0
9 *240:12 *664:A0 0.000448012
10 *240:12 *413:10 0.000112426
11 *240:22 *697:CLK 0.000307051
12 *677:B1 *240:22 0
13 *813:A *240:12 0
14 *47:27 *240:12 0.000122871
*RES
1 *697:Q *240:12 44.092 
2 *240:12 *240:14 20 
3 *240:14 *240:22 43.5288 
4 *240:22 *648:A1 20 
5 *240:14 *665:A 20.2728 
*END

*D_NET *241 0.00270191
*CONN
*I *533:A I *D sg13g2_inv_1
*I *494:B1 I *D sg13g2_a21oi_1
*I *702:Q O *D sg13g2_dfrbpq_1
*CAP
1 *533:A 0.00016004
2 *494:B1 0.00073157
3 *702:Q 0
4 *241:4 0.000891609
5 *494:B1 *319:31 0.000177335
6 *494:B1 *322:18 0.000410064
7 *494:B1 *415:110 0
8 *494:B1 *416:22 0
9 *494:B1 *431:14 0
10 *495:A *494:B1 0
11 *495:A *533:A 0
12 *534:A1 *533:A 0
13 *43:12 *494:B1 0.0001863
14 *66:12 *533:A 0.000144992
15 *182:36 *494:B1 0
*RES
1 *702:Q *241:4 20 
2 *241:4 *494:B1 26.5736 
3 *241:4 *533:A 22.1032 
*END

*D_NET *242 0.00161835
*CONN
*I *489:B1 I *D sg13g2_a21oi_1
*I *531:A I *D sg13g2_inv_1
*I *703:Q O *D sg13g2_dfrbpq_1
*CAP
1 *489:B1 0
2 *531:A 0
3 *703:Q 0
4 *242:25 0.000168343
5 *242:12 0.000392661
6 *242:4 0.000561004
7 *242:12 *707:CLK 0.000241973
8 *242:12 *432:16 0
9 *242:25 *861:A 0.000238973
10 *242:25 *432:16 1.54008e-05
11 *718:D *242:25 0
12 *794:A *242:12 0
*RES
1 *703:Q *242:4 20 
2 *242:4 *242:12 43.7928 
3 *242:12 *531:A 20 
4 *242:4 *242:25 41.9976 
5 *242:25 *489:B1 20 
*END

*D_NET *216 0.00407879
*CONN
*P reg_req_i[0] I
*I *833:A I *D sg13g2_buf_1
*CAP
1 reg_req_i[0] 0.00159388
2 *833:A 0
3 *216:11 0.00159388
4 *216:11 *547:A 0
5 *216:11 *277:10 0.000144792
6 *216:11 *296:12 0.000181192
7 *216:11 *435:16 0.000565046
8 *216:11 *467:12 0
9 *216:11 *476:10 0
10 *175:8 *216:11 0
11 *192:9 *216:11 0
*RES
1 reg_req_i[0] *216:11 33.6048 
2 *216:11 *833:A 20 
*END

*D_NET *215 0.00311603
*CONN
*P reg_req_i[10] I
*I *907:A I *D sg13g2_dlygate4sd3_1
*CAP
1 reg_req_i[10] 0.00148563
2 *907:A 0
3 *215:9 0.00148563
4 *215:9 *686:CLK 0
5 cio_gpio_en_o[2] *215:9 0
6 reg_rsp_o[8] *215:9 0
7 *801:A *215:9 0.000144768
*RES
1 reg_req_i[10] *215:9 30.164 
2 *215:9 *907:A 20 
*END

*D_NET *214 0.0021319
*CONN
*P reg_req_i[11] I
*I *895:A I *D sg13g2_dlygate4sd3_1
*CAP
1 reg_req_i[11] 0.00106595
2 *895:A 0.00106595
3 reg_rsp_o[9] *895:A 0
*RES
1 reg_req_i[11] *895:A 29.0992 
*END

*D_NET *213 0.00226655
*CONN
*P reg_req_i[12] I
*I *899:A I *D sg13g2_dlygate4sd3_1
*CAP
1 reg_req_i[12] 0.00112558
2 *899:A 0.00112558
3 *914:A *899:A 1.54008e-05
4 *208:9 *899:A 0
*RES
1 reg_req_i[12] *899:A 49.5128 
*END

*D_NET *212 0.00319421
*CONN
*P reg_req_i[13] I
*I *888:A I *D sg13g2_dlygate4sd3_1
*CAP
1 reg_req_i[13] 0.000785636
2 *888:A 0.000279838
3 *212:11 0.00106547
4 *886:A *888:A 0
5 *887:A *212:11 0
6 *207:15 *212:11 0.00106326
*RES
1 reg_req_i[13] *212:11 47.8936 
2 *212:11 *888:A 22.6752 
*END

*D_NET *211 0.00371549
*CONN
*P reg_req_i[14] I
*I *897:A I *D sg13g2_dlygate4sd3_1
*CAP
1 reg_req_i[14] 0.000864932
2 *897:A 0
3 *211:15 0.000864932
4 *894:A *211:15 0.00198562
*RES
1 reg_req_i[14] *211:15 30.7976 
2 *211:15 *897:A 20 
*END

*D_NET *209 0.00376721
*CONN
*P reg_req_i[15] I
*I *889:A I *D sg13g2_dlygate4sd3_1
*CAP
1 reg_req_i[15] 0.00139447
2 *889:A 9.63389e-05
3 *209:13 0.00149081
4 *209:13 reg_rsp_o[0] 0
5 *209:13 reg_rsp_o[21] 0
6 *209:13 *678:A2 0
7 *209:13 *779:A 4.78195e-05
8 *209:13 *827:A 0
9 *209:13 *388:12 0.000307095
10 *209:13 *413:54 7.91362e-05
11 *678:B1 *889:A 0.000160307
12 *678:B1 *209:13 0
13 *53:24 *209:13 0
14 *53:30 *889:A 1.53311e-05
15 *150:23 *889:A 0.000175901
*RES
1 reg_req_i[15] *209:13 33.244 
2 *209:13 *889:A 41.012 
*END

*D_NET *208 0.00271994
*CONN
*P reg_req_i[16] I
*I *904:A I *D sg13g2_dlygate4sd3_1
*CAP
1 reg_req_i[16] 0.00135997
2 *904:A 0
3 *208:9 0.00135997
4 *208:9 *715:D 0
5 *208:9 *804:A 0
6 *208:9 *899:A 0
7 *208:9 *464:10 0
8 *914:A *208:9 0
*RES
1 reg_req_i[16] *208:9 33.8072 
2 *208:9 *904:A 20 
*END

*D_NET *207 0.00525712
*CONN
*P reg_req_i[17] I
*I *886:A I *D sg13g2_dlygate4sd3_1
*CAP
1 reg_req_i[17] 0.000697077
2 *886:A 0.00123869
3 *207:15 0.00193577
4 *886:A reg_rsp_o[19] 0
5 *886:A *480:S 0.000209725
6 *886:A *518:A 0
7 *886:A *572:B 0
8 *886:A *888:A 0
9 *886:A *295:16 0.000112601
10 *886:A *422:29 0
11 *886:A *452:10 0
12 *207:15 *212:11 0.00106326
13 *571:B1 *886:A 0
14 *887:A *886:A 0
15 *887:A *207:15 0
16 *11:10 *886:A 0
17 *89:10 *886:A 0
*RES
1 reg_req_i[17] *207:15 47.304 
2 *207:15 *886:A 31.3432 
*END

*D_NET *206 0.00227056
*CONN
*P reg_req_i[18] I
*I *893:A I *D sg13g2_dlygate4sd3_1
*CAP
1 reg_req_i[18] 0.00113528
2 *893:A 0.00113528
3 *893:A reg_rsp_o[16] 0
4 *891:A *893:A 0
*RES
1 reg_req_i[18] *893:A 29.4864 
*END

*D_NET *205 0.00205835
*CONN
*P reg_req_i[19] I
*I *892:A I *D sg13g2_dlygate4sd3_1
*CAP
1 reg_req_i[19] 0.00102917
2 *892:A 0.00102917
3 *892:A reg_rsp_o[16] 0
4 *200:11 *892:A 0
*RES
1 reg_req_i[19] *892:A 29.6976 
*END

*D_NET *204 0.00293927
*CONN
*P reg_req_i[1] I
*I *911:A I *D sg13g2_dlygate4sd3_1
*CAP
1 reg_req_i[1] 0.000591112
2 *911:A 0.000878522
3 *204:11 0.00146963
4 *911:A *435:10 0
5 *911:A *467:12 0
6 cio_gpio_en_o[3] *911:A 0
*RES
1 reg_req_i[1] *204:11 45.148 
2 *204:11 *911:A 49.1696 
*END

*D_NET *203 0.00221547
*CONN
*P reg_req_i[20] I
*I *887:A I *D sg13g2_dlygate4sd3_1
*CAP
1 reg_req_i[20] 0.00110001
2 *887:A 0.00110001
3 *887:A reg_rsp_o[19] 1.54556e-05
4 *887:A *886:A 0
5 *887:A *207:15 0
6 *887:A *212:11 0
*RES
1 reg_req_i[20] *887:A 29.5128 
*END

*D_NET *202 0.00175005
*CONN
*P reg_req_i[21] I
*I *890:A I *D sg13g2_dlygate4sd3_1
*CAP
1 reg_req_i[21] 0.000875023
2 *890:A 0.000875023
3 *890:A reg_rsp_o[19] 0
*RES
1 reg_req_i[21] *890:A 29.3016 
*END

*D_NET *201 0.00319536
*CONN
*P reg_req_i[22] I
*I *894:A I *D sg13g2_dlygate4sd3_1
*CAP
1 reg_req_i[22] 0.000604869
2 *894:A 0.000604869
3 *894:A reg_rsp_o[20] 0
4 *894:A *211:15 0.00198562
*RES
1 reg_req_i[22] *894:A 48.316 
*END

*D_NET *200 0.00347119
*CONN
*P reg_req_i[23] I
*I *891:A I *D sg13g2_dlygate4sd3_1
*CAP
1 reg_req_i[23] 0.000816852
2 *891:A 0.000918743
3 *200:11 0.0017356
4 *891:A reg_rsp_o[16] 0
5 *891:A *818:A 0
6 *891:A *824:A 0
7 *891:A *893:A 0
8 *891:A *258:10 0
9 *200:11 reg_rsp_o[16] 0
10 *200:11 *892:A 0
*RES
1 reg_req_i[23] *200:11 46.2304 
2 *200:11 *891:A 28.1488 
*END

*D_NET *198 0.00475449
*CONN
*P reg_req_i[2] I
*I *817:A I *D sg13g2_buf_1
*CAP
1 reg_req_i[2] 0.00080324
2 *817:A 0
3 *198:13 0.00080324
4 *198:13 reg_rsp_o[4] 0.00253948
5 *198:13 *812:A 0
6 *198:13 *822:A 0
7 *198:13 *278:8 0.000608526
8 *198:13 *278:27 0
9 *198:13 *391:14 0
10 *198:13 *435:16 0
*RES
1 reg_req_i[2] *198:13 31 
2 *198:13 *817:A 20 
*END

*D_NET *197 0.00275364
*CONN
*P reg_req_i[36] I
*I *816:A I *D sg13g2_buf_1
*CAP
1 reg_req_i[36] 0.00110002
2 *816:A 0.00110002
3 *813:A *816:A 0
4 *814:A *816:A 0
5 *815:A *816:A 0
6 *195:11 *816:A 0.000553594
*RES
1 reg_req_i[36] *816:A 29.3016 
*END

*D_NET *196 0.00204412
*CONN
*P reg_req_i[37] I
*I *815:A I *D sg13g2_buf_1
*CAP
1 reg_req_i[37] 0.00102206
2 *815:A 0.00102206
3 *815:A *816:A 0
4 *195:11 *815:A 0
*RES
1 reg_req_i[37] *815:A 29.3016 
*END

*D_NET *195 0.0034622
*CONN
*P reg_req_i[38] I
*I *814:A I *D sg13g2_buf_1
*CAP
1 reg_req_i[38] 0.00107742
2 *814:A 0.000376878
3 *195:11 0.0014543
4 *814:A *498:A 0
5 *814:A *816:A 0
6 *195:11 *815:A 0
7 *195:11 *816:A 0.000553594
8 *813:A *814:A 0
9 *45:23 *814:A 0
*RES
1 reg_req_i[38] *195:11 48.7648 
2 *195:11 *814:A 23.5288 
*END

*D_NET *194 0.00369729
*CONN
*P reg_req_i[39] I
*I *813:A I *D sg13g2_buf_1
*CAP
1 reg_req_i[39] 0.00177766
2 *813:A 0.00177766
3 *813:A *503:A_N 0
4 *813:A *552:A 0
5 *813:A *814:A 0
6 *813:A *816:A 0
7 *813:A *240:12 0
8 *813:A *275:14 2.94832e-05
9 *813:A *413:10 0.000112486
10 *500:A *813:A 0
11 *50:6 *813:A 0
*RES
1 reg_req_i[39] *813:A 36.1326 
*END

*D_NET *193 0.00598748
*CONN
*P reg_req_i[40] I
*I *902:A I *D sg13g2_dlygate4sd3_1
*CAP
1 reg_req_i[40] 0.00267161
2 *902:A 0
3 *193:19 0.00267161
4 *193:19 reg_rsp_o[4] 0
5 *193:19 *546:A2 0
6 *193:19 *547:A 0
7 *193:19 *807:A 0
8 *193:19 *812:A 0
9 *193:19 *822:A 0
10 *193:19 *282:10 0
11 *193:19 *394:8 0
12 *796:A *193:19 0
13 *800:A *193:19 0.000209999
14 *912:A *193:19 0
15 *76:12 *193:19 4.78685e-05
16 *77:10 *193:19 0
17 *175:8 *193:19 0.000339507
18 *192:9 *193:19 4.6881e-05
*RES
1 reg_req_i[40] *193:19 40.108 
2 *193:19 *902:A 20 
*END

*D_NET *192 0.00354584
*CONN
*P reg_req_i[41] I
*I *910:A I *D sg13g2_dlygate4sd3_1
*CAP
1 reg_req_i[41] 0.00147524
2 *910:A 0
3 *192:9 0.00147524
4 *192:9 *812:A 0.000208195
5 *192:9 *193:19 4.6881e-05
6 *192:9 *216:11 0
7 *192:9 *296:12 0.000340288
*RES
1 reg_req_i[41] *192:9 30.5336 
2 *192:9 *910:A 20 
*END

*D_NET *191 0.00294714
*CONN
*P reg_req_i[4] I
*I *908:A I *D sg13g2_dlygate4sd3_1
*CAP
1 reg_req_i[4] 0.00135265
2 *908:A 0
3 *191:9 0.00135265
4 *191:9 *810:A 0
5 *191:9 *435:16 0
6 cio_gpio_en_o[2] *191:9 0
7 cio_gpio_o[0] *191:9 0
8 *801:A *191:9 0.000241847
*RES
1 reg_req_i[4] *191:9 32.3816 
2 *191:9 *908:A 20 
*END

*D_NET *393 0.00244328
*CONN
*P reg_req_i[5] I
*I *909:A I *D sg13g2_dlygate4sd3_1
*CAP
1 reg_req_i[5] 0.00118146
2 *909:A 0.00118146
3 *909:A reg_rsp_o[3] 0
4 *909:A *474:10 0
5 cio_gpio_o[1] *909:A 0
6 *181:11 *909:A 8.03692e-05
*RES
1 reg_req_i[5] *909:A 49.7944 
*END

*D_NET *299 0.00357696
*CONN
*P reg_req_i[6] I
*I *903:A I *D sg13g2_dlygate4sd3_1
*CAP
1 reg_req_i[6] 0.000838589
2 *903:A 0.000838589
3 *903:A cio_gpio_o[2] 0
4 *903:A *391:14 0.00189978
5 *903:A *435:16 0
6 *903:A *468:10 0
7 *797:A *903:A 0
8 *278:8 *903:A 0
*RES
1 reg_req_i[6] *903:A 49.7944 
*END

*D_NET *222 0.00262336
*CONN
*P reg_req_i[7] I
*I *913:A I *D sg13g2_dlygate4sd3_1
*CAP
1 reg_req_i[7] 0.00131168
2 *913:A 0
3 *222:11 0.00131168
4 *222:11 cio_gpio_o[3] 0
5 *222:11 reg_rsp_o[5] 0
6 *222:11 *478:8 0
7 cio_gpio_en_o[3] *222:11 0
8 *796:A *222:11 0
9 *175:8 *222:11 0
*RES
1 reg_req_i[7] *222:11 30.9912 
2 *222:11 *913:A 20 
*END

*D_NET *181 0.00472649
*CONN
*P reg_req_i[8] I
*I *898:A I *D sg13g2_dlygate4sd3_1
*CAP
1 reg_req_i[8] 0.00220202
2 *898:A 0
3 *181:11 0.00220202
4 *181:11 cio_gpio_o[1] 0
5 *181:11 reg_rsp_o[31] 0
6 *181:11 reg_rsp_o[32] 0
7 *181:11 reg_rsp_o[33] 0
8 *181:11 *765:A 0
9 *181:11 *909:A 8.03692e-05
10 *181:11 *396:8 0
11 *181:11 *435:16 0
12 *181:11 *435:18 0
13 *181:11 *435:28 0
14 *181:11 *463:10 0
15 cio_gpio_en_o[0] *181:11 0
16 *166:8 *181:11 0.000242072
*RES
1 reg_req_i[8] *181:11 36.588 
2 *181:11 *898:A 20 
*END

*D_NET *180 0.00397935
*CONN
*P reg_req_i[9] I
*I *896:A I *D sg13g2_dlygate4sd3_1
*CAP
1 reg_req_i[9] 0.00127172
2 *896:A 8.69194e-05
3 *180:21 0.000398549
4 *180:15 0.00158335
5 *896:A *416:46 0
6 *896:A *431:48 0.000144925
7 *180:15 reg_rsp_o[6] 0
8 *180:15 reg_rsp_o[7] 0
9 *180:15 *512:A2 0
10 *180:15 *805:A 4.28471e-05
11 *180:15 *284:8 0
12 *180:15 *390:6 0
13 *180:15 *420:73 0.000208922
14 *695:D *180:15 0.00024211
15 *37:14 *180:21 0
*RES
1 reg_req_i[9] *180:15 33.0944 
2 *180:15 *180:21 43.2296 
3 *180:21 *896:A 40.8272 
*END

*D_NET *285 0.00181669
*CONN
*P reg_rsp_o[0] O
*I *759:L_HI O *D sg13g2_tiehi
*CAP
1 reg_rsp_o[0] 0.000908343
2 *759:L_HI 0.000908343
3 *209:13 reg_rsp_o[0] 0
*RES
1 *759:L_HI reg_rsp_o[0] 29.1168 
*END

*D_NET *190 0.00492033
*CONN
*P reg_rsp_o[10] O
*I *791:X O *D sg13g2_buf_1
*CAP
1 reg_rsp_o[10] 0.00152115
2 *791:X 0.000104136
3 *190:8 0.00162528
4 reg_rsp_o[10] reg_rsp_o[2] 2.2407e-05
5 *190:8 *541:B 0
6 cio_gpio_o[0] reg_rsp_o[10] 2.2407e-05
7 *21:10 reg_rsp_o[10] 0.000237794
8 *49:45 *190:8 0.00017724
9 *165:23 reg_rsp_o[10] 0.00120991
*RES
1 *791:X *190:8 41.012 
2 *190:8 reg_rsp_o[10] 13.9216 
*END

*D_NET *306 0.00293772
*CONN
*P reg_rsp_o[11] O
*I *790:X O *D sg13g2_buf_1
*CAP
1 reg_rsp_o[11] 0.000969692
2 *790:X 0.000969692
3 reg_rsp_o[15] reg_rsp_o[11] 0
4 *189:10 reg_rsp_o[11] 0
5 *302:10 reg_rsp_o[11] 0.000998339
*RES
1 *790:X reg_rsp_o[11] 30.164 
*END

*D_NET *305 0.00331526
*CONN
*P reg_rsp_o[12] O
*I *789:X O *D sg13g2_buf_1
*CAP
1 reg_rsp_o[12] 0.00143692
2 *789:X 5.75988e-05
3 *305:8 0.00149452
4 *305:8 *413:39 0.000181279
5 reg_rsp_o[13] reg_rsp_o[12] 0
6 reg_rsp_o[17] reg_rsp_o[12] 0
7 *671:B reg_rsp_o[12] 0
8 *784:A reg_rsp_o[12] 0.000144943
*RES
1 *789:X *305:8 40.7216 
2 *305:8 reg_rsp_o[12] 30.9472 
*END

*D_NET *304 0.00328422
*CONN
*P reg_rsp_o[13] O
*I *788:X O *D sg13g2_buf_1
*CAP
1 reg_rsp_o[13] 0.00134804
2 *788:X 0.00134804
3 reg_rsp_o[13] intr_gpio_o[2] 0
4 reg_rsp_o[13] reg_rsp_o[12] 0
5 reg_rsp_o[13] *671:A 0.000238557
6 reg_rsp_o[13] *413:31 0
7 *671:B reg_rsp_o[13] 0.000204632
8 *784:A reg_rsp_o[13] 0
9 *152:10 reg_rsp_o[13] 0.000144942
10 *185:12 reg_rsp_o[13] 0
*RES
1 *788:X reg_rsp_o[13] 32.6456 
*END

*D_NET *303 0.00509328
*CONN
*P reg_rsp_o[14] O
*I *787:X O *D sg13g2_buf_1
*CAP
1 reg_rsp_o[14] 0.00182949
2 *787:X 0.000321659
3 *303:12 0.00215115
4 reg_rsp_o[14] intr_gpio_o[0] 0
5 reg_rsp_o[14] reg_rsp_o[2] 0
6 reg_rsp_o[14] *473:8 0
7 *303:12 *541:B 0.00036323
8 *72:10 reg_rsp_o[14] 0
9 *223:8 reg_rsp_o[14] 0.000130062
10 *223:16 *303:12 0.000297683
*RES
1 *787:X *303:12 42.904 
2 *303:12 reg_rsp_o[14] 14.828 
*END

*D_NET *302 0.00285107
*CONN
*P reg_rsp_o[15] O
*I *786:X O *D sg13g2_buf_1
*CAP
1 reg_rsp_o[15] 6.10919e-05
2 *786:X 0.000865274
3 *302:10 0.000926366
4 reg_rsp_o[15] reg_rsp_o[11] 0
5 *302:10 reg_rsp_o[11] 0.000998339
6 reg_rsp_o[18] reg_rsp_o[15] 0
*RES
1 *786:X *302:10 48.9672 
2 *302:10 reg_rsp_o[15] 20.5984 
*END

*D_NET *301 0.00394593
*CONN
*P reg_rsp_o[16] O
*I *785:X O *D sg13g2_buf_1
*CAP
1 reg_rsp_o[16] 0.00188456
2 *785:X 0.00188456
3 reg_rsp_o[16] *556:A 0
4 reg_rsp_o[16] *669:A 0
5 reg_rsp_o[16] *818:A 0
6 reg_rsp_o[16] *824:A 0.000176815
7 reg_rsp_o[16] *875:A 0
8 reg_rsp_o[16] *458:10 0
9 *556:B reg_rsp_o[16] 0
10 *670:B1 reg_rsp_o[16] 0
11 *708:D reg_rsp_o[16] 0
12 *891:A reg_rsp_o[16] 0
13 *892:A reg_rsp_o[16] 0
14 *893:A reg_rsp_o[16] 0
15 *150:8 reg_rsp_o[16] 0
16 *150:23 reg_rsp_o[16] 0
17 *200:11 reg_rsp_o[16] 0
18 *258:10 reg_rsp_o[16] 0
*RES
1 *785:X reg_rsp_o[16] 35.7696 
*END

*D_NET *300 0.00265923
*CONN
*P reg_rsp_o[17] O
*I *784:X O *D sg13g2_buf_1
*CAP
1 reg_rsp_o[17] 0.00127324
2 *784:X 0.00127324
3 reg_rsp_o[17] reg_rsp_o[12] 0
4 reg_rsp_o[17] reg_rsp_o[21] 0
5 *784:A reg_rsp_o[17] 0.000112749
*RES
1 *784:X reg_rsp_o[17] 29.768 
*END

*D_NET *189 0.00195057
*CONN
*P reg_rsp_o[18] O
*I *783:X O *D sg13g2_buf_1
*CAP
1 reg_rsp_o[18] 0.000309946
2 *783:X 0.00066534
3 *189:10 0.000975286
4 reg_rsp_o[18] reg_rsp_o[15] 0
5 *189:10 reg_rsp_o[11] 0
*RES
1 *783:X *189:10 46.8024 
2 *189:10 reg_rsp_o[18] 23.1856 
*END

*D_NET *392 0.0030593
*CONN
*P reg_rsp_o[19] O
*I *782:X O *D sg13g2_buf_1
*CAP
1 reg_rsp_o[19] 0.00144985
2 *782:X 0.00144985
3 reg_rsp_o[19] *570:A 0.000144145
4 reg_rsp_o[19] *820:A 0
5 *571:B1 reg_rsp_o[19] 0
6 *886:A reg_rsp_o[19] 0
7 *887:A reg_rsp_o[19] 1.54556e-05
8 *890:A reg_rsp_o[19] 0
*RES
1 *782:X reg_rsp_o[19] 33.1912 
*END

*D_NET *391 0.00372459
*CONN
*P reg_rsp_o[1] O
*I *781:X O *D sg13g2_buf_1
*CAP
1 reg_rsp_o[1] 3.53389e-05
2 *781:X 0.000877065
3 *391:14 0.000912404
4 *781:A *391:14 0
5 *903:A *391:14 0.00189978
6 *198:13 *391:14 0
*RES
1 *781:X *391:14 49.988 
2 *391:14 reg_rsp_o[1] 0.2552 
*END

*D_NET *389 0.00410115
*CONN
*P reg_rsp_o[20] O
*I *780:X O *D sg13g2_buf_1
*CAP
1 reg_rsp_o[20] 0.00148951
2 *780:X 9.41197e-05
3 *389:8 0.00158363
4 *389:8 *427:39 0
5 *894:A reg_rsp_o[20] 0
6 *248:14 reg_rsp_o[20] 0.000886486
7 *257:10 reg_rsp_o[20] 0
8 *257:18 reg_rsp_o[20] 0
9 *297:16 *389:8 4.74145e-05
*RES
1 *780:X *389:8 40.6424 
2 *389:8 reg_rsp_o[20] 16.0952 
*END

*D_NET *388 0.00330285
*CONN
*P reg_rsp_o[21] O
*I *779:X O *D sg13g2_buf_1
*CAP
1 reg_rsp_o[21] 0.00107689
2 *779:X 0.000243539
3 *388:12 0.00132043
4 reg_rsp_o[21] *827:A 4.7803e-05
5 *388:12 *827:A 0.000307095
6 reg_rsp_o[17] reg_rsp_o[21] 0
7 *784:A reg_rsp_o[21] 0
8 *209:13 reg_rsp_o[21] 0
9 *209:13 *388:12 0.000307095
10 *249:8 *388:12 0
*RES
1 *779:X *388:12 42.5344 
2 *388:12 reg_rsp_o[21] 29.4864 
*END

*D_NET *387 0.00209336
*CONN
*P reg_rsp_o[22] O
*I *778:X O *D sg13g2_buf_1
*CAP
1 reg_rsp_o[22] 0.00104668
2 *778:X 0.00104668
3 reg_rsp_o[24] reg_rsp_o[22] 0
4 reg_rsp_o[28] reg_rsp_o[22] 0
5 *382:8 reg_rsp_o[22] 0
*RES
1 *778:X reg_rsp_o[22] 48.7032 
*END

*D_NET *386 0.00324431
*CONN
*P reg_rsp_o[23] O
*I *777:X O *D sg13g2_buf_1
*CAP
1 reg_rsp_o[23] 0.00136272
2 *777:X 0.00136272
3 reg_rsp_o[23] *806:A 0.000341535
4 reg_rsp_o[23] *434:22 0.000177334
5 reg_rsp_o[23] *434:33 0
6 cio_gpio_en_o[1] reg_rsp_o[23] 0
7 reg_rsp_o[24] reg_rsp_o[23] 0
8 reg_rsp_o[25] reg_rsp_o[23] 0
*RES
1 *777:X reg_rsp_o[23] 49.9264 
*END

*D_NET *385 0.00287609
*CONN
*P reg_rsp_o[24] O
*I *776:X O *D sg13g2_buf_1
*CAP
1 reg_rsp_o[24] 0.00129396
2 *776:X 0.00129396
3 reg_rsp_o[24] reg_rsp_o[22] 0
4 reg_rsp_o[24] reg_rsp_o[23] 0
5 reg_rsp_o[24] *806:A 0.000288173
6 reg_rsp_o[24] *434:15 0
7 reg_rsp_o[24] *434:35 0
8 reg_rsp_o[29] reg_rsp_o[24] 0
*RES
1 *776:X reg_rsp_o[24] 49.1608 
*END

*D_NET *384 0.00264338
*CONN
*P reg_rsp_o[25] O
*I *775:X O *D sg13g2_buf_1
*CAP
1 reg_rsp_o[25] 0.0012655
2 *775:X 0.0012655
3 reg_rsp_o[25] reg_rsp_o[23] 0
4 reg_rsp_o[25] *434:33 0
5 reg_rsp_o[25] *463:10 0.000112388
6 cio_gpio_en_o[1] reg_rsp_o[25] 0
*RES
1 *775:X reg_rsp_o[25] 48.5008 
*END

*D_NET *383 0.00441792
*CONN
*P reg_rsp_o[26] O
*I *774:X O *D sg13g2_buf_1
*CAP
1 reg_rsp_o[26] 0.000668848
2 *774:X 0.000422962
3 *383:10 0.00109181
4 *383:10 *774:A 0
5 *383:10 *434:35 0
6 *383:10 *434:37 0
7 reg_rsp_o[27] reg_rsp_o[26] 0.00184755
8 reg_rsp_o[27] *383:10 0.000306662
9 reg_rsp_o[28] *383:10 8.00842e-05
10 reg_rsp_o[29] reg_rsp_o[26] 0
*RES
1 *774:X *383:10 43.8984 
2 *383:10 reg_rsp_o[26] 8.008 
*END

*D_NET *382 0.00411248
*CONN
*P reg_rsp_o[27] O
*I *773:X O *D sg13g2_buf_1
*CAP
1 reg_rsp_o[27] 0.00092239
2 *773:X 5.67417e-05
3 *382:8 0.000979132
4 reg_rsp_o[27] reg_rsp_o[26] 0.00184755
5 reg_rsp_o[27] *383:10 0.000306662
6 *382:8 reg_rsp_o[22] 0
7 reg_rsp_o[28] reg_rsp_o[27] 0
*RES
1 *773:X *382:8 40.5104 
2 *382:8 reg_rsp_o[27] 49.1872 
*END

*D_NET *381 0.00255823
*CONN
*P reg_rsp_o[28] O
*I *772:X O *D sg13g2_buf_1
*CAP
1 reg_rsp_o[28] 0.00123907
2 *772:X 0.00123907
3 reg_rsp_o[28] reg_rsp_o[22] 0
4 reg_rsp_o[28] reg_rsp_o[27] 0
5 reg_rsp_o[28] *383:10 8.00842e-05
6 reg_rsp_o[28] *434:35 0
7 reg_rsp_o[28] *434:37 0
*RES
1 *772:X reg_rsp_o[28] 48.316 
*END

*D_NET *380 0.00211782
*CONN
*P reg_rsp_o[29] O
*I *771:X O *D sg13g2_buf_1
*CAP
1 reg_rsp_o[29] 0.00105891
2 *771:X 0.00105891
3 reg_rsp_o[29] reg_rsp_o[24] 0
4 reg_rsp_o[29] reg_rsp_o[26] 0
*RES
1 *771:X reg_rsp_o[29] 47.8584 
*END

*D_NET *401 0.00348544
*CONN
*P reg_rsp_o[2] O
*I *770:X O *D sg13g2_buf_1
*CAP
1 reg_rsp_o[2] 0.00161253
2 *770:X 0
3 *401:6 0.00161253
4 reg_rsp_o[10] reg_rsp_o[2] 2.2407e-05
5 reg_rsp_o[14] reg_rsp_o[2] 0
6 *279:10 reg_rsp_o[2] 0.000237975
*RES
1 *770:X *401:6 40 
2 *401:6 reg_rsp_o[2] 11.9944 
*END

*D_NET *400 0.00208501
*CONN
*P reg_rsp_o[30] O
*I *769:X O *D sg13g2_buf_1
*CAP
1 reg_rsp_o[30] 0.0010425
2 *769:X 0.0010425
3 reg_rsp_o[30] *474:10 0
4 reg_rsp_o[31] reg_rsp_o[30] 0
5 reg_rsp_o[32] reg_rsp_o[30] 0
*RES
1 *769:X reg_rsp_o[30] 49.6448 
*END

*D_NET *399 0.00257214
*CONN
*P reg_rsp_o[31] O
*I *768:X O *D sg13g2_buf_1
*CAP
1 reg_rsp_o[31] 0.00128607
2 *768:X 0.00128607
3 reg_rsp_o[31] reg_rsp_o[30] 0
4 reg_rsp_o[31] *435:28 0
5 reg_rsp_o[33] reg_rsp_o[31] 0
6 *181:11 reg_rsp_o[31] 0
*RES
1 *768:X reg_rsp_o[31] 49.7592 
*END

*D_NET *398 0.00399605
*CONN
*P reg_rsp_o[32] O
*I *767:X O *D sg13g2_buf_1
*CAP
1 reg_rsp_o[32] 0.000898763
2 *767:X 0.000898763
3 reg_rsp_o[32] reg_rsp_o[30] 0
4 reg_rsp_o[32] *435:18 0
5 reg_rsp_o[32] *463:10 0.000242181
6 reg_rsp_o[33] reg_rsp_o[32] 0.00195634
7 *181:11 reg_rsp_o[32] 0
*RES
1 *767:X reg_rsp_o[32] 49.6976 
*END

*D_NET *397 0.00352971
*CONN
*P reg_rsp_o[33] O
*I *766:X O *D sg13g2_buf_1
*CAP
1 reg_rsp_o[33] 0.000746661
2 *766:X 0.000746661
3 reg_rsp_o[33] reg_rsp_o[31] 0
4 reg_rsp_o[33] reg_rsp_o[32] 0.00195634
5 reg_rsp_o[33] *463:10 8.00522e-05
6 *181:11 reg_rsp_o[33] 0
*RES
1 *766:X reg_rsp_o[33] 48.9496 
*END

*D_NET *396 0.00225757
*CONN
*P reg_rsp_o[3] O
*I *765:X O *D sg13g2_buf_1
*CAP
1 reg_rsp_o[3] 0.00101029
2 *765:X 0.000118501
3 *396:8 0.00112879
4 *396:8 *415:18 0
5 cio_gpio_o[1] reg_rsp_o[3] 0
6 intr_gpio_o[0] reg_rsp_o[3] 0
7 *909:A reg_rsp_o[3] 0
8 *181:11 *396:8 0
*RES
1 *765:X *396:8 41.012 
2 *396:8 reg_rsp_o[3] 10.8152 
*END

*D_NET *395 0.0062256
*CONN
*P reg_rsp_o[4] O
*I *764:X O *D sg13g2_buf_1
*CAP
1 reg_rsp_o[4] 0.00101274
2 *764:X 0.000343987
3 *395:14 0.00135673
4 *395:14 *414:104 0.00023464
5 *545:A *395:14 0.000181781
6 *167:14 *395:14 0
7 *193:19 reg_rsp_o[4] 0
8 *198:13 reg_rsp_o[4] 0.00253948
9 *278:8 reg_rsp_o[4] 0
10 *278:8 *395:14 0.000556238
11 *296:12 reg_rsp_o[4] 0
12 *296:12 *395:14 0
*RES
1 *764:X *395:14 44.5232 
2 *395:14 reg_rsp_o[4] 10.3928 
*END

*D_NET *394 0.00243023
*CONN
*P reg_rsp_o[5] O
*I *763:X O *D sg13g2_buf_1
*CAP
1 reg_rsp_o[5] 0.00116299
2 *763:X 5.2125e-05
3 *394:8 0.00121511
4 reg_rsp_o[5] *442:57 0
5 reg_rsp_o[5] *478:8 0
6 *394:8 *807:A 0
7 *394:8 *435:98 0
8 *763:A *394:8 0
9 *160:8 reg_rsp_o[5] 0
10 *193:19 *394:8 0
11 *222:11 reg_rsp_o[5] 0
12 *282:10 reg_rsp_o[5] 0
*RES
1 *763:X *394:8 40.4576 
2 *394:8 reg_rsp_o[5] 11.4488 
*END

*D_NET *390 0.00320734
*CONN
*P reg_rsp_o[6] O
*I *762:X O *D sg13g2_buf_1
*CAP
1 reg_rsp_o[6] 0.000299059
2 *762:X 0.00119209
3 *390:6 0.00149115
4 *390:6 *695:CLK 0
5 *390:6 *425:20 1.54008e-05
6 *390:6 *461:14 0.000209637
7 reg_rsp_o[7] reg_rsp_o[6] 0
8 *180:15 reg_rsp_o[6] 0
9 *180:15 *390:6 0
10 *284:8 *390:6 0
*RES
1 *762:X *390:6 31.7304 
2 *390:6 reg_rsp_o[6] 42.8512 
*END

*D_NET *210 0.00244338
*CONN
*P reg_rsp_o[7] O
*I *760:X O *D sg13g2_buf_1
*CAP
1 reg_rsp_o[7] 0.000906218
2 *760:X 0.000205897
3 *210:10 0.00111211
4 reg_rsp_o[7] reg_rsp_o[6] 0
5 reg_rsp_o[7] *238:14 0
6 *210:10 *238:8 7.52158e-05
7 *210:10 *238:14 0.000143932
8 *210:10 *420:73 0
9 *695:D reg_rsp_o[7] 0
10 *695:D *210:10 0
11 *180:15 reg_rsp_o[7] 0
*RES
1 *760:X *210:10 41.76 
2 *210:10 reg_rsp_o[7] 29.4688 
*END

*D_NET *93 0.00310649
*CONN
*P reg_rsp_o[8] O
*I *580:X O *D sg13g2_buf_1
*CAP
1 reg_rsp_o[8] 0.00124923
2 *580:X 0
3 *93:6 0.00124923
4 reg_rsp_o[8] *159:23 0
5 reg_rsp_o[8] *215:9 0
6 reg_rsp_o[8] *472:8 0.000608026
*RES
1 *580:X *93:6 40 
2 *93:6 reg_rsp_o[8] 11.0264 
*END

*D_NET *80 0.00243814
*CONN
*P reg_rsp_o[9] O
*I *552:X O *D sg13g2_buf_1
*CAP
1 reg_rsp_o[9] 0.00121907
2 *552:X 0.00121907
3 reg_rsp_o[9] *552:A 0
4 reg_rsp_o[9] *895:A 0
5 reg_rsp_o[9] *245:12 0
*RES
1 *552:X reg_rsp_o[9] 30.5072 
*END

*D_NET *319 0.0134683
*CONN
*I *712:RESET_B I *D sg13g2_dfrbpq_1
*I *713:RESET_B I *D sg13g2_dfrbpq_1
*I *720:RESET_B I *D sg13g2_dfrbpq_1
*I *696:RESET_B I *D sg13g2_dfrbpq_1
*I *848:A I *D sg13g2_buf_1
*I *849:A I *D sg13g2_buf_1
*I *714:Q O *D sg13g2_dfrbpq_1
*CAP
1 *712:RESET_B 2.77263e-05
2 *713:RESET_B 0
3 *720:RESET_B 0
4 *696:RESET_B 0
5 *848:A 0
6 *849:A 0
7 *714:Q 0.000912738
8 *319:62 0.000300621
9 *319:49 0.000624899
10 *319:47 0.00074746
11 *319:38 0.000775034
12 *319:31 0.000480788
13 *319:19 0.00184465
14 *319:8 0.00189702
15 *319:8 *568:A 0
16 *319:8 *326:50 0.000927791
17 *319:8 *351:8 0
18 *319:8 *417:10 0
19 *319:8 *427:13 0
20 *319:8 *427:17 0
21 *319:19 *850:A 0
22 *319:19 *416:8 0.00130026
23 *319:19 *427:206 0
24 *319:19 *427:250 0
25 *319:31 *415:110 0
26 *319:31 *416:8 0
27 *319:38 *415:110 0
28 *319:47 *415:110 0.000533678
29 *319:47 *427:263 0
30 *319:47 *439:29 0.000209483
31 *319:49 *719:CLK 0.000274583
32 *319:49 *427:270 0
33 *319:49 *429:16 0.000533766
34 *319:62 *697:CLK 0
35 *319:62 *719:CLK 0.000414527
36 *319:62 *429:16 0.000324129
37 *494:B1 *319:31 0.000177335
38 *495:A *319:31 0.000177335
39 *675:A1 *319:62 0
40 *860:A *319:31 0.000145003
41 *860:A *319:38 0.000550494
42 *860:A *319:47 0
43 *87:8 *319:8 0
44 *101:26 *319:8 0
45 *236:12 *319:62 0.000289003
*RES
1 *714:Q *319:8 49.8032 
2 *319:8 *849:A 40 
3 *319:8 *319:19 29.8032 
4 *319:19 *319:31 44.312 
5 *319:31 *848:A 20 
6 *319:19 *319:38 3.2296 
7 *319:38 *696:RESET_B 20 
8 *319:38 *319:47 3.7136 
9 *319:47 *319:49 3.4144 
10 *319:49 *720:RESET_B 20 
11 *319:49 *319:62 43.5024 
12 *319:62 *713:RESET_B 20 
13 *319:47 *712:RESET_B 20.2992 
*END

*D_NET *179 0.00201949
*CONN
*P rst_ni I
*I *914:A I *D sg13g2_dlygate4sd3_1
*CAP
1 rst_ni 0.00100204
2 *914:A 0.00100204
3 *914:A *899:A 1.54008e-05
4 *914:A *208:9 0
*RES
1 rst_ni *914:A 48.316 
*END

*D_NET *321 0.000308688
*CONN
*I *757:D I *D sg13g2_dfrbpq_1
*I *758:Q O *D sg13g2_dfrbpq_1
*CAP
1 *757:D 0.000154344
2 *758:Q 0.000154344
3 *757:D *840:A 0
4 *757:D *427:19 0
5 *757:RESET_B *757:D 0
*RES
1 *758:Q *757:D 41.3816 
*END

*D_NET *322 0.00299488
*CONN
*I *493:A I *D sg13g2_inv_1
*I *496:A1 I *D sg13g2_a21oi_1
*I *753:Q O *D sg13g2_dfrbpq_1
*CAP
1 *493:A 0
2 *496:A1 0
3 *753:Q 0.000831953
4 *322:28 0.000141318
5 *322:18 0.00097327
6 *322:18 *717:RESET_B 0
7 *322:18 *419:42 0.000129578
8 *322:18 *431:14 0
9 *322:28 *419:42 1.54008e-05
10 *322:28 *419:46 4.77425e-05
11 *322:28 *419:59 0
12 *322:28 *419:70 7.51285e-05
13 *494:A1 *322:18 0.000210012
14 *494:B1 *322:18 0.000410064
15 *496:A2 *322:28 4.78524e-05
16 *497:B2 *322:18 0
17 *497:A2 *322:18 0.000112558
18 *182:12 *322:28 0
19 *182:19 *322:28 0
20 *182:36 *322:18 0
21 *237:22 *322:28 0
*RES
1 *753:Q *322:18 27.5592 
2 *322:18 *322:28 41.2672 
3 *322:28 *496:A1 20 
4 *322:18 *493:A 20 
*END

*D_NET *323 0.00159688
*CONN
*I *491:A1 I *D sg13g2_a21oi_1
*I *488:A I *D sg13g2_inv_1
*I *754:Q O *D sg13g2_dfrbpq_1
*CAP
1 *491:A1 0
2 *488:A 0.000183548
3 *754:Q 0.000149079
4 *323:18 0.000183548
5 *323:16 0.000215084
6 *323:10 0.000364163
7 *323:10 *379:31 0
8 *489:A2 *323:10 0.0001448
9 *490:A *488:A 0
10 *491:A2 *488:A 1.15917e-05
11 *491:B1 *488:A 0
12 *492:B1 *488:A 0
13 *492:B2 *488:A 0
14 *509:A *488:A 0
15 *718:D *323:10 0
16 *760:A *488:A 0
17 *37:14 *323:16 0.000345067
18 *39:12 *488:A 0
19 *238:14 *488:A 0
*RES
1 *754:Q *323:10 41.1264 
2 *323:10 *323:16 42.3056 
3 *323:16 *323:18 20 
4 *323:18 *488:A 21.5664 
5 *323:18 *491:A1 20 
*END

*D_NET *324 0.00150562
*CONN
*I *483:A I *D sg13g2_inv_1
*I *486:A1 I *D sg13g2_a21oi_1
*I *755:Q O *D sg13g2_dfrbpq_1
*CAP
1 *483:A 0.000186038
2 *486:A1 0.000229452
3 *755:Q 0.000152232
4 *324:8 0.000567723
5 *483:A *429:68 0
6 *486:A1 *755:CLK 0
7 *486:A1 *415:129 0
8 *324:8 *755:CLK 0
9 *324:8 *427:282 0
10 *324:8 *429:16 0.000128248
11 *324:8 *429:68 0
12 *486:A2 *483:A 0
13 *486:A2 *486:A1 0.000241924
14 *719:D *483:A 0
*RES
1 *755:Q *324:8 41.5664 
2 *324:8 *486:A1 42.1032 
3 *324:8 *483:A 41.3816 
*END

*D_NET *325 0.00059643
*CONN
*I *646:A I *D sg13g2_inv_1
*I *648:A2 I *D sg13g2_a21oi_1
*I *756:Q O *D sg13g2_dfrbpq_1
*CAP
1 *646:A 2.36489e-05
2 *648:A2 0.000199252
3 *756:Q 6.76141e-05
4 *325:8 0.000290515
5 *648:A2 *429:27 0
6 *325:8 *429:27 0
7 *647:B1 *646:A 0
8 *647:B1 *648:A2 1.54008e-05
9 *720:D *325:8 0
10 *174:36 *648:A2 0
*RES
1 *756:Q *325:8 20.572 
2 *325:8 *648:A2 21.5664 
3 *325:8 *646:A 20.2992 
*END

*D_NET *326 0.0113883
*CONN
*I *751:RESET_B I *D sg13g2_dfrbpq_1
*I *682:RESET_B I *D sg13g2_dfrbpq_1
*I *750:RESET_B I *D sg13g2_dfrbpq_1
*I *749:RESET_B I *D sg13g2_dfrbpq_1
*I *737:RESET_B I *D sg13g2_dfrbpq_1
*I *846:A I *D sg13g2_buf_1
*I *752:RESET_B I *D sg13g2_dfrbpq_1
*I *867:A I *D sg13g2_buf_1
*I *723:Q O *D sg13g2_dfrbpq_1
*CAP
1 *751:RESET_B 0.000457013
2 *682:RESET_B 0.00045023
3 *750:RESET_B 2.77263e-05
4 *749:RESET_B 3.93835e-05
5 *737:RESET_B 0
6 *846:A 0
7 *752:RESET_B 0.000229772
8 *867:A 0.000395054
9 *723:Q 8.01708e-05
10 *326:85 0.00108448
11 *326:70 0.000958286
12 *326:66 0.00100989
13 *326:50 0.000342012
14 *326:42 0.00121363
15 *326:36 0.00111212
16 *326:16 0.00110644
17 *326:10 0.000561787
18 *682:RESET_B *652:A1 0.000177164
19 *682:RESET_B *750:CLK 0
20 *682:RESET_B *336:45 0
21 *682:RESET_B *420:22 0
22 *751:RESET_B *751:D 0.000304962
23 *751:RESET_B *410:37 0
24 *752:RESET_B *752:D 0
25 *752:RESET_B *427:73 0
26 *867:A *752:D 0
27 *326:16 *629:A 0
28 *326:16 *752:D 0
29 *326:16 *379:8 0
30 *326:16 *427:73 0
31 *326:42 *427:55 0
32 *326:42 *427:64 0
33 *326:42 *427:73 0
34 *326:42 *427:149 0
35 *326:42 *436:24 0
36 *326:42 *436:32 0
37 *326:50 *427:17 0
38 *326:70 *327:10 0
39 *326:70 *379:10 0
40 *326:85 *610:A 0
41 *326:85 *750:CLK 0
42 *326:85 *331:33 0
43 *326:85 *332:27 0
44 *326:85 *424:38 0.000339267
45 *326:85 *424:50 0.000179542
46 *682:D *682:RESET_B 0
47 *721:D *326:42 0
48 *105:29 *749:RESET_B 0
49 *107:8 *326:85 0
50 *107:20 *682:RESET_B 0
51 *107:20 *326:85 0
52 *108:33 *749:RESET_B 0
53 *108:33 *326:85 0.000391514
54 *111:31 *751:RESET_B 0
55 *111:31 *326:66 0
56 *124:10 *867:A 0
57 *126:8 *867:A 0
58 *126:8 *326:42 0
59 *126:8 *326:66 0
60 *319:8 *326:50 0.000927791
*RES
1 *723:Q *326:10 20.8712 
2 *326:10 *326:16 23.7928 
3 *326:16 *867:A 43.8896 
4 *326:16 *752:RESET_B 41.7512 
5 *326:10 *326:36 20 
6 *326:36 *326:42 27.6208 
7 *326:42 *326:50 43.9512 
8 *326:50 *846:A 20 
9 *326:42 *737:RESET_B 20 
10 *326:36 *326:66 22.42 
11 *326:66 *326:70 22.8336 
12 *326:70 *749:RESET_B 40.2728 
13 *326:70 *326:85 25.852 
14 *326:85 *750:RESET_B 20.2992 
15 *326:85 *682:RESET_B 24.224 
16 *326:66 *751:RESET_B 24.3208 
*END

*D_NET *327 0.000594073
*CONN
*I *749:D I *D sg13g2_dfrbpq_1
*I *612:Y O *D sg13g2_a21oi_1
*CAP
1 *749:D 0
2 *612:Y 0.0002084
3 *327:10 0.0002084
4 *327:10 *612:A2 0
5 *105:29 *327:10 0.000177273
6 *105:35 *327:10 0
7 *108:33 *327:10 0
8 *326:70 *327:10 0
*RES
1 *612:Y *327:10 41.7336 
2 *327:10 *749:D 40 
*END

*D_NET *328 0.000883407
*CONN
*I *750:D I *D sg13g2_dfrbpq_1
*I *651:B I *D sg13g2_nand4_1
*I *611:Y O *D sg13g2_a21oi_1
*CAP
1 *750:D 0.000130475
2 *651:B 2.48775e-05
3 *611:Y 0
4 *328:12 0.000309331
5 *328:6 0.000153979
6 *750:D *420:22 4.78356e-05
7 *651:C *651:B 4.79124e-05
8 *106:20 *750:D 4.78356e-05
9 *111:12 *651:B 4.78356e-05
10 *111:31 *750:D 7.33256e-05
11 *169:26 *328:12 0
*RES
1 *611:Y *328:6 40 
2 *328:6 *328:12 41.5664 
3 *328:12 *651:B 40.2728 
4 *328:12 *750:D 41.2056 
*END

*D_NET *329 0.00100854
*CONN
*I *751:D I *D sg13g2_dfrbpq_1
*I *607:Y O *D sg13g2_nor2b_1
*CAP
1 *751:D 0.000184897
2 *607:Y 0.000166889
3 *329:8 0.000351786
4 *751:RESET_B *751:D 0.000304962
*RES
1 *607:Y *329:8 41.5664 
2 *329:8 *751:D 41.7512 
*END

*D_NET *330 0.00255154
*CONN
*I *651:D I *D sg13g2_nand4_1
*I *752:D I *D sg13g2_dfrbpq_1
*I *614:Y O *D sg13g2_a21oi_1
*CAP
1 *651:D 0.000303158
2 *752:D 0.000633636
3 *614:Y 2.5301e-05
4 *330:8 0.000962095
5 *651:D *334:42 0.000126358
6 *651:C *651:D 4.78192e-05
7 *752:RESET_B *752:D 0
8 *867:A *752:D 0
9 *105:12 *651:D 1.54008e-05
10 *105:18 *651:D 0.000390033
11 *105:25 *651:D 4.77425e-05
12 *111:31 *651:D 0
13 *112:16 *651:D 0
14 *126:8 *752:D 0
15 *326:16 *752:D 0
*RES
1 *614:Y *330:8 40.2992 
2 *330:8 *752:D 45.9048 
3 *330:8 *651:D 43.0888 
*END

*D_NET *331 0.00253837
*CONN
*I *650:B I *D sg13g2_nand2_1
*I *612:A2 I *D sg13g2_a21oi_1
*I *602:B I *D sg13g2_nand2_1
*I *610:B I *D sg13g2_xnor2_1
*I *749:Q O *D sg13g2_dfrbpq_1
*CAP
1 *650:B 4.73419e-05
2 *612:A2 0.000117618
3 *602:B 0.000119276
4 *610:B 0.000189786
5 *749:Q 0.00052226
6 *331:33 0.00068722
7 *331:4 0.000309062
8 *602:B *332:27 0
9 *610:B *610:A 4.77425e-05
10 *610:B *332:27 0.000209637
11 *331:33 *332:27 0
12 *331:33 *424:50 0
13 *561:A2 *602:B 0
14 *561:A2 *610:B 0
15 *561:A2 *331:33 0
16 *651:C *650:B 4.78359e-05
17 *105:29 *612:A2 0
18 *107:8 *331:33 0
19 *108:33 *612:A2 8.0216e-05
20 *108:33 *650:B 8.0216e-05
21 *112:27 *650:B 0
22 *113:10 *610:B 8.01612e-05
23 *246:12 *331:33 0
24 *250:20 *602:B 0
25 *250:20 *610:B 0
26 *326:85 *331:33 0
27 *327:10 *612:A2 0
*RES
1 *749:Q *331:4 20 
2 *331:4 *610:B 21.892 
3 *331:4 *602:B 21.1528 
4 *749:Q *331:33 44.7168 
5 *331:33 *612:A2 40.968 
6 *331:33 *650:B 40.4576 
*END

*D_NET *332 0.00247796
*CONN
*I *602:A I *D sg13g2_nand2_1
*I *610:A I *D sg13g2_xnor2_1
*I *750:Q O *D sg13g2_dfrbpq_1
*CAP
1 *602:A 0
2 *610:A 2.77655e-05
3 *750:Q 0.000448779
4 *332:27 0.000345619
5 *332:12 0.000373384
6 *332:10 0.000448779
7 *332:10 *694:CLK 0
8 *332:10 *379:16 0
9 *332:10 *424:30 0
10 *332:27 *424:38 0
11 *602:B *332:27 0
12 *610:B *610:A 4.77425e-05
13 *610:B *332:27 0.000209637
14 *43:26 *332:10 0.000448099
15 *83:8 *332:27 0
16 *107:8 *332:10 0
17 *107:8 *332:27 0
18 *113:10 *332:10 0.00012816
19 *326:85 *610:A 0
20 *326:85 *332:27 0
21 *331:33 *332:27 0
*RES
1 *750:Q *332:10 44.4264 
2 *332:10 *332:12 20 
3 *332:12 *610:A 20.2728 
4 *332:12 *332:27 43.3176 
5 *332:27 *602:A 20 
*END

*D_NET *333 0.000492597
*CONN
*I *601:A I *D sg13g2_inv_1
*I *751:Q O *D sg13g2_dfrbpq_1
*CAP
1 *601:A 0.000246298
2 *751:Q 0.000246298
3 *601:A *420:22 0
4 *601:A *424:38 0
5 *106:10 *601:A 0
6 *169:34 *601:A 0
7 *250:20 *601:A 0
*RES
1 *751:Q *601:A 42.1032 
*END

*D_NET *334 0.00201524
*CONN
*I *613:A I *D sg13g2_inv_1
*I *609:B I *D sg13g2_nand2_1
*I *605:A I *D sg13g2_nor2_1
*I *752:Q O *D sg13g2_dfrbpq_1
*CAP
1 *613:A 0
2 *609:B 0
3 *605:A 0.000221371
4 *752:Q 0
5 *334:42 9.06345e-05
6 *334:34 0.000287252
7 *334:21 5.61257e-05
8 *334:6 0.000346583
9 *334:4 0.000265704
10 *605:B *605:A 0.000207986
11 *605:B *334:6 0.000112141
12 *605:B *334:34 7.92465e-05
13 *605:B *334:42 8.00842e-05
14 *651:D *334:42 0.000126358
15 *109:12 *334:42 1.54008e-05
16 *111:31 *334:42 0.000126358
17 *114:8 *334:21 0
*RES
1 *752:Q *334:4 20 
2 *334:4 *334:6 0.6424 
3 *334:6 *605:A 21.8656 
4 *334:6 *334:21 40.5104 
5 *334:21 *609:B 20 
6 *334:4 *334:34 41.8392 
7 *334:34 *334:42 40.968 
8 *334:42 *613:A 20 
*END

*D_NET *335 0.000795124
*CONN
*I *599:B I *D sg13g2_xnor2_1
*I *748:Q O *D sg13g2_dfrbpq_1
*CAP
1 *599:B 3.7009e-05
2 *748:Q 0.000151972
3 *335:8 0.000188981
4 *335:8 *336:19 0.000342034
5 *335:8 *336:30 7.51285e-05
6 *104:8 *335:8 0
*RES
1 *748:Q *335:8 41.5664 
2 *335:8 *599:B 40.2728 
*END

*D_NET *336 0.00483504
*CONN
*I *652:A0 I *D sg13g2_mux2_1
*I *481:A0 I *D sg13g2_mux2_1
*I *599:A I *D sg13g2_xnor2_1
*I *748:D I *D sg13g2_dfrbpq_1
*I *746:Q O *D sg13g2_dfrbpq_1
*CAP
1 *652:A0 0
2 *481:A0 0
3 *599:A 0
4 *748:D 0
5 *746:Q 0.000392142
6 *336:45 0.00052461
7 *336:30 0.000753934
8 *336:19 0.000824322
9 *336:8 0.000987139
10 *336:8 *422:12 0
11 *336:8 *422:14 0
12 *336:8 *427:86 0
13 *336:19 *480:A0 0.000500419
14 *336:19 *422:12 0
15 *336:19 *427:100 0
16 *336:30 *427:100 0
17 *336:45 *481:A1 0.000404515
18 *336:45 *652:A1 1.54008e-05
19 *480:S *336:8 0
20 *682:RESET_B *336:45 0
21 *682:D *336:45 0
22 *22:8 *336:45 0
23 *104:8 *336:30 0
24 *107:20 *336:45 1.54008e-05
25 *169:20 *336:30 0
26 *169:20 *336:45 0
27 *335:8 *336:19 0.000342034
28 *335:8 *336:30 7.51285e-05
*RES
1 *746:Q *336:8 23.1856 
2 *336:8 *748:D 20 
3 *336:8 *336:19 26.908 
4 *336:19 *599:A 40 
5 *336:19 *336:30 22.4112 
6 *336:30 *481:A0 20 
7 *336:30 *336:45 44.8576 
8 *336:45 *652:A0 20 
*END

*D_NET *337 0.000328823
*CONN
*I *746:D I *D sg13g2_dfrbpq_1
*I *747:Q O *D sg13g2_dfrbpq_1
*CAP
1 *746:D 0.000164411
2 *747:Q 0.000164411
3 *683:D *746:D 0
*RES
1 *747:Q *746:D 41.5224 
*END

*D_NET *338 0.00215899
*CONN
*I *481:A1 I *D sg13g2_mux2_1
*I *652:A1 I *D sg13g2_mux2_1
*I *682:Q O *D sg13g2_dfrbpq_1
*CAP
1 *481:A1 0.00023933
2 *652:A1 0.000247479
3 *682:Q 0.000294146
4 *338:8 0.000780955
5 *481:A1 *682:CLK 0
6 *682:RESET_B *652:A1 0.000177164
7 *682:D *652:A1 0
8 *182:8 *338:8 0
9 *336:45 *481:A1 0.000404515
10 *336:45 *652:A1 1.54008e-05
*RES
1 *682:Q *338:8 43.0448 
2 *338:8 *652:A1 42.3672 
3 *338:8 *481:A1 42.4904 
*END

*D_NET *339 0.00256922
*CONN
*I *742:D I *D sg13g2_dfrbpq_1
*I *639:Y O *D sg13g2_a21oi_1
*CAP
1 *742:D 0.000221135
2 *639:Y 0.000913795
3 *339:12 0.00113493
4 *742:D *742:RESET_B 0
5 *742:D *743:D 0
6 *742:D *438:31 4.78524e-05
7 *339:12 *637:B 0
8 *339:12 *743:D 0
9 *339:12 *344:10 0
10 *638:B1 *339:12 0
11 *639:B1 *339:12 0
12 *125:16 *339:12 0
13 *133:12 *339:12 0.000251511
*RES
1 *639:Y *339:12 47.4184 
2 *339:12 *742:D 42.1208 
*END

*D_NET *340 0.00245172
*CONN
*I *654:B I *D sg13g2_nand4_1
*I *743:D I *D sg13g2_dfrbpq_1
*I *638:Y O *D sg13g2_a21oi_1
*CAP
1 *654:B 0.000268839
2 *743:D 0.000858883
3 *638:Y 2.66532e-05
4 *340:8 0.00115438
5 *743:D *630:A 0
6 *743:D *438:31 0
7 *632:A *654:B 0
8 *638:B1 *340:8 4.75278e-05
9 *639:A1 *340:8 4.75278e-05
10 *654:C *654:B 4.79124e-05
11 *742:D *743:D 0
12 *127:10 *654:B 0
13 *339:12 *743:D 0
*RES
1 *638:Y *340:8 40.2728 
2 *340:8 *743:D 46.8816 
3 *340:8 *654:B 42.1824 
*END

*D_NET *341 0.000372682
*CONN
*I *744:D I *D sg13g2_dfrbpq_1
*I *635:Y O *D sg13g2_nor2b_1
*CAP
1 *744:D 0.000186341
2 *635:Y 0.000186341
3 *631:B *744:D 0
4 *635:A *744:D 0
5 *721:RESET_B *744:D 0
*RES
1 *635:Y *744:D 41.5224 
*END

*D_NET *342 0.00353791
*CONN
*I *654:D I *D sg13g2_nand4_1
*I *745:D I *D sg13g2_dfrbpq_1
*I *641:Y O *D sg13g2_a21oi_1
*CAP
1 *654:D 0.000231419
2 *745:D 0
3 *641:Y 2.89857e-05
4 *342:12 0.000507211
5 *342:6 0.000767616
6 *654:D *630:A 0
7 *654:D *630:B 0
8 *654:D *343:27 1.54556e-05
9 *342:12 *630:A 0
10 *342:12 *637:A 0
11 *342:12 *740:RESET_B 7.50937e-05
12 *342:12 *438:10 0.000289002
13 *342:12 *438:12 0.00125067
14 *342:12 *438:14 0.000181298
15 *632:A *654:D 0
16 *641:B1 *654:D 9.71568e-05
17 *641:B1 *342:6 1.54008e-05
18 *654:C *654:D 1.54556e-05
19 *129:21 *654:D 1.54008e-05
20 *129:21 *342:6 4.77425e-05
21 *142:10 *654:D 0
*RES
1 *641:Y *342:6 20.2728 
2 *342:6 *342:12 46.8464 
3 *342:12 *745:D 20 
4 *342:6 *654:D 21.936 
*END

*D_NET *343 0.0035935
*CONN
*I *653:B I *D sg13g2_nand2_1
*I *639:A2 I *D sg13g2_a21oi_1
*I *630:B I *D sg13g2_nand2_1
*I *637:B I *D sg13g2_xnor2_1
*I *742:Q O *D sg13g2_dfrbpq_1
*CAP
1 *653:B 0
2 *639:A2 0
3 *630:B 0.000259858
4 *637:B 0.000445529
5 *742:Q 1.45849e-05
6 *343:27 0.00065588
7 *343:23 0.000529963
8 *343:8 0.000594055
9 *630:B *630:A 0.000225583
10 *637:B *637:A 1.54556e-05
11 *637:B *743:CLK 0
12 *637:B *344:10 0.000208955
13 *637:B *411:8 0
14 *637:B *411:23 0
15 *343:23 *411:8 0
16 *343:27 *630:A 0
17 *639:A1 *630:B 1.54556e-05
18 *639:A1 *343:27 0
19 *639:B1 *630:B 0
20 *653:A *343:27 0
21 *654:C *343:27 0.000435692
22 *654:D *630:B 0
23 *654:D *343:27 1.54556e-05
24 *125:16 *630:B 0
25 *127:10 *630:B 0.000177032
26 *132:14 *637:B 0
27 *132:14 *343:27 0
28 *133:12 *637:B 0
29 *133:12 *343:23 0
30 *339:12 *637:B 0
*RES
1 *742:Q *343:8 40.2728 
2 *343:8 *637:B 44.3472 
3 *343:8 *343:23 21.3552 
4 *343:23 *343:27 3.9248 
5 *343:27 *630:B 22.5344 
6 *343:27 *639:A2 20 
7 *343:23 *653:B 20 
*END

*D_NET *344 0.00205392
*CONN
*I *630:A I *D sg13g2_nand2_1
*I *637:A I *D sg13g2_xnor2_1
*I *743:Q O *D sg13g2_dfrbpq_1
*CAP
1 *630:A 0.000349069
2 *637:A 0.00011914
3 *743:Q 0.000213397
4 *344:10 0.000681606
5 *630:B *630:A 0.000225583
6 *637:B *637:A 1.54556e-05
7 *637:B *344:10 0.000208955
8 *641:B1 *630:A 0.000112558
9 *654:D *630:A 0
10 *743:D *630:A 0
11 *127:10 *630:A 0.00012816
12 *133:12 *344:10 0
13 *339:12 *344:10 0
14 *342:12 *630:A 0
15 *342:12 *637:A 0
16 *343:27 *630:A 0
*RES
1 *743:Q *344:10 42.0504 
2 *344:10 *637:A 41.1528 
3 *344:10 *630:A 43.5508 
*END

*D_NET *345 0.000150292
*CONN
*I *629:A I *D sg13g2_inv_1
*I *744:Q O *D sg13g2_dfrbpq_1
*CAP
1 *629:A 7.51462e-05
2 *744:Q 7.51462e-05
3 *326:16 *629:A 0
*RES
1 *744:Q *629:A 40.7832 
*END

*D_NET *346 0.00463393
*CONN
*I *636:B I *D sg13g2_nand2_1
*I *633:A I *D sg13g2_nor2_1
*I *640:A I *D sg13g2_inv_1
*I *745:Q O *D sg13g2_dfrbpq_1
*CAP
1 *636:B 0
2 *633:A 2.60565e-05
3 *640:A 0.000228314
4 *745:Q 0.000330916
5 *346:52 0.000571035
6 *346:20 0.000443576
7 *346:12 0.00076024
8 *346:10 0.000330916
9 *633:A *428:53 4.77425e-05
10 *640:A *866:A 0
11 *640:A *428:53 0.00012816
12 *346:10 *428:53 0
13 *346:10 *438:10 0
14 *346:20 *428:42 0
15 *631:A *346:52 8.02595e-05
16 *632:A *346:52 0.000598318
17 *633:B *346:20 0.000177164
18 *633:B *346:52 3.23417e-05
19 *634:A1 *346:52 0
20 *634:B1 *346:20 0.000177164
21 *634:B1 *346:52 0.000112437
22 *641:A2 *640:A 0.000307238
23 *127:10 *346:52 0
24 *129:21 *346:10 0.000234311
25 *132:14 *346:52 0
26 *142:10 *633:A 4.77425e-05
*RES
1 *745:Q *346:10 43.1064 
2 *346:10 *346:12 20 
3 *346:12 *346:20 22.2176 
4 *346:20 *640:A 42.4728 
5 *346:20 *633:A 40.2728 
6 *346:12 *346:52 45.2888 
7 *346:52 *636:B 20 
*END

*D_NET *347 0.000934797
*CONN
*I *627:B I *D sg13g2_xnor2_1
*I *741:Q O *D sg13g2_dfrbpq_1
*CAP
1 *627:B 0.000126436
2 *741:Q 0.000147194
3 *347:8 0.000273631
4 *627:B *627:A 0.000242483
5 *627:B *422:12 0.000145053
6 *347:8 *480:A0 0
7 *347:8 *422:8 0
*RES
1 *741:Q *347:8 41.3552 
2 *347:8 *627:B 41.3816 
*END

*D_NET *348 0.00543298
*CONN
*I *480:A0 I *D sg13g2_mux2_1
*I *627:A I *D sg13g2_xnor2_1
*I *741:D I *D sg13g2_dfrbpq_1
*I *655:A0 I *D sg13g2_mux2_1
*I *739:Q O *D sg13g2_dfrbpq_1
*CAP
1 *480:A0 0.000550587
2 *627:A 0.000220904
3 *741:D 5.3681e-05
4 *655:A0 0.000403933
5 *739:Q 0.00070505
6 *348:33 0.00104089
7 *348:22 0.000624196
8 *480:A0 *480:A1 1.54008e-05
9 *480:A0 *748:RESET_B 0
10 *480:A0 *410:37 0
11 *480:A0 *422:8 0
12 *480:A0 *427:100 0
13 *627:A *422:12 0
14 *655:A0 *350:14 0
15 *741:D *428:42 0.000182109
16 *741:D *437:36 0
17 *348:22 *741:RESET_B 0.000177164
18 *348:22 *350:14 0.000144942
19 *348:33 *748:RESET_B 0
20 *348:33 *428:42 0.000555823
21 *348:33 *437:47 0
22 *480:S *480:A0 1.54008e-05
23 *627:B *627:A 0.000242483
24 *683:D *348:22 0
25 *142:10 *655:A0 0
26 *142:10 *348:22 0
27 *336:19 *480:A0 0.000500419
28 *347:8 *480:A0 0
*RES
1 *739:Q *655:A0 43.5552 
2 *739:Q *348:22 42.6752 
3 *348:22 *741:D 40.7216 
4 *348:22 *348:33 3.256 
5 *348:33 *627:A 42.1208 
6 *348:33 *480:A0 45.6936 
*END

*D_NET *349 0.00102872
*CONN
*I *739:D I *D sg13g2_dfrbpq_1
*I *740:Q O *D sg13g2_dfrbpq_1
*CAP
1 *739:D 0.00051436
2 *740:Q 0.00051436
3 *739:D *739:RESET_B 0
4 *739:D *866:A 0
5 *739:D *437:14 0
*RES
1 *740:Q *739:D 45.0072 
*END

*D_NET *350 0.00372364
*CONN
*I *480:A1 I *D sg13g2_mux2_1
*I *655:A1 I *D sg13g2_mux2_1
*I *683:Q O *D sg13g2_dfrbpq_1
*CAP
1 *480:A1 0.000252907
2 *655:A1 0
3 *683:Q 0
4 *350:14 0.00116455
5 *350:6 0.00141745
6 *480:A1 *410:37 0
7 *480:A1 *420:38 0
8 *480:A1 *427:100 0
9 *350:14 *427:88 0
10 *350:14 *427:100 0
11 *480:A0 *480:A1 1.54008e-05
12 *480:S *480:A1 0
13 *655:A0 *350:14 0
14 *683:D *350:14 0.000728391
15 *142:10 *350:14 0
16 *348:22 *350:14 0.000144942
*RES
1 *683:Q *350:6 40 
2 *350:6 *350:14 31.22 
3 *350:14 *655:A1 20 
4 *350:6 *480:A1 42.2088 
*END

*D_NET *351 0.00131092
*CONN
*I *735:D I *D sg13g2_dfrbpq_1
*I *608:Y O *D sg13g2_a21oi_1
*CAP
1 *735:D 5.70291e-05
2 *608:Y 0.00059843
3 *351:8 0.000655459
4 *735:D *417:14 0
5 *735:D *423:8 0
6 *351:8 *355:10 0
7 *351:8 *417:10 0
8 *351:8 *427:39 0
9 *351:8 *469:8 0
10 *250:20 *351:8 0
11 *257:18 *351:8 0
12 *319:8 *351:8 0
*RES
1 *608:Y *351:8 45.7904 
2 *351:8 *735:D 40.4576 
*END

*D_NET *352 0.000910559
*CONN
*I *736:D I *D sg13g2_dfrbpq_1
*I *657:B I *D sg13g2_nand4_1
*I *598:Y O *D sg13g2_a21oi_1
*CAP
1 *736:D 0.000274103
2 *657:B 0
3 *598:Y 0.00015722
4 *352:10 0.000274103
5 *352:8 0.00015722
6 *588:A *736:D 0
7 *598:B1 *736:D 0
8 *598:B1 *352:8 0
9 *657:C *736:D 4.79124e-05
10 *658:S *736:D 0
11 *95:16 *736:D 0
12 *102:36 *736:D 0
13 *102:36 *352:8 0
*RES
1 *598:Y *352:8 41.5664 
2 *352:8 *352:10 20 
3 *352:10 *657:B 20 
4 *352:10 *736:D 22.6312 
*END

*D_NET *353 0.00029244
*CONN
*I *737:D I *D sg13g2_dfrbpq_1
*I *595:Y O *D sg13g2_nor2b_1
*CAP
1 *737:D 0.00014622
2 *595:Y 0.00014622
3 *737:D *656:B 0
4 *737:D *427:149 0
5 *595:A *737:D 0
6 *657:C *737:D 0
*RES
1 *595:Y *737:D 41.3904 
*END

*D_NET *354 0.00198791
*CONN
*I *657:D I *D sg13g2_nand4_1
*I *738:D I *D sg13g2_dfrbpq_1
*I *616:Y O *D sg13g2_a21oi_1
*CAP
1 *657:D 0.000199781
2 *738:D 0.000493525
3 *616:Y 0.00029294
4 *354:14 0.000986246
5 *657:D *358:8 0
6 *616:B1 *354:14 0
7 *735:CLK *354:14 0
8 *95:16 *657:D 0
9 *95:16 *354:14 1.54201e-05
10 *95:33 *354:14 0
11 *248:14 *657:D 0
12 *248:14 *738:D 0
*RES
1 *616:Y *354:14 42.6224 
2 *354:14 *738:D 45.1568 
3 *354:14 *657:D 41.7776 
*END

*D_NET *355 0.00377379
*CONN
*I *597:B I *D sg13g2_xnor2_1
*I *590:B I *D sg13g2_nand2_1
*I *656:B I *D sg13g2_nand2_1
*I *608:A2 I *D sg13g2_a21oi_1
*I *735:Q O *D sg13g2_dfrbpq_1
*CAP
1 *597:B 0.000259271
2 *590:B 5.54366e-05
3 *656:B 7.09518e-05
4 *608:A2 2.88152e-05
5 *735:Q 0.000168378
6 *355:44 0.000314708
7 *355:42 0.000557894
8 *355:14 0.000184672
9 *355:10 0.000811177
10 *590:B *590:A 4.77425e-05
11 *597:B *590:A 0.000273749
12 *597:B *356:35 0
13 *594:A2 *597:B 0
14 *595:A *608:A2 0
15 *595:A *656:B 0
16 *598:A2 *597:B 0
17 *657:C *656:B 0
18 *657:C *355:14 0.000114872
19 *657:C *355:42 0.000208884
20 *657:A *597:B 0
21 *737:D *656:B 0
22 *95:33 *355:10 0
23 *97:12 *597:B 0
24 *100:8 *355:42 0.00012816
25 *101:26 *656:B 0
26 *102:10 *608:A2 0
27 *102:10 *355:14 7.97013e-05
28 *102:16 *355:42 0
29 *250:20 *355:10 0.000341216
30 *250:20 *355:42 0.00012816
31 *257:18 *355:42 0
32 *297:16 *355:42 0
33 *351:8 *355:10 0
*RES
1 *735:Q *355:10 41.8128 
2 *355:10 *355:14 20.8272 
3 *355:14 *608:A2 20.2992 
4 *355:14 *656:B 20.792 
5 *355:10 *355:42 44.3296 
6 *355:42 *355:44 20 
7 *355:44 *590:B 20.4246 
8 *355:44 *597:B 22.4992 
*END

*D_NET *356 0.00268111
*CONN
*I *597:A I *D sg13g2_xnor2_1
*I *590:A I *D sg13g2_nand2_1
*I *736:Q O *D sg13g2_dfrbpq_1
*CAP
1 *597:A 0
2 *590:A 0.000314484
3 *736:Q 0.000280403
4 *356:35 0.00024946
5 *356:12 0.000838175
6 *356:8 0.000554635
7 *590:A *427:159 0
8 *356:8 *482:A0 0
9 *356:12 *427:159 0
10 *356:12 *427:165 0
11 *356:12 *427:172 0
12 *356:12 *427:185 0
13 *590:B *590:A 4.77425e-05
14 *594:A2 *356:35 0
15 *597:B *590:A 0.000273749
16 *597:B *356:35 0
17 *598:A2 *590:A 0
18 *598:A2 *356:12 0
19 *598:B1 *356:12 0
20 *657:A *356:35 0
21 *97:12 *590:A 0
22 *102:36 *356:35 0.000122463
23 *248:14 *356:35 0
24 *297:8 *590:A 0
*RES
1 *736:Q *356:8 42.8336 
2 *356:8 *356:12 22.3056 
3 *356:12 *590:A 22.9656 
4 *356:12 *356:35 42.508 
5 *356:35 *597:A 20 
*END

*D_NET *357 0.000653278
*CONN
*I *589:A I *D sg13g2_inv_1
*I *737:Q O *D sg13g2_dfrbpq_1
*CAP
1 *589:A 0.000206335
2 *737:Q 0.000206335
3 *589:A *410:37 0.000240608
*RES
1 *737:Q *589:A 42.1912 
*END

*D_NET *358 0.00251461
*CONN
*I *593:A I *D sg13g2_nor2_1
*I *596:B I *D sg13g2_nand2_1
*I *615:A I *D sg13g2_inv_1
*I *738:Q O *D sg13g2_dfrbpq_1
*CAP
1 *593:A 0
2 *596:B 4.37077e-05
3 *615:A 0
4 *738:Q 0.000119433
5 *358:36 0.000192869
6 *358:21 0.000444521
7 *358:12 0.00035105
8 *358:8 0.000262539
9 *616:A2 *358:12 1.54556e-05
10 *616:A2 *358:21 0
11 *657:C *358:12 0
12 *657:D *358:8 0
13 *735:CLK *358:36 0
14 *95:16 *358:12 0
15 *95:33 *596:B 8.00842e-05
16 *95:33 *358:21 0.000127979
17 *99:8 *358:36 0.000182023
18 *100:8 *358:36 0.000341119
19 *102:10 *596:B 8.00842e-05
20 *102:10 *358:21 4.78359e-05
21 *102:36 *358:12 0
22 *102:36 *358:21 0.000225913
23 *248:14 *358:8 0
*RES
1 *738:Q *358:8 40.9328 
2 *358:8 *358:12 21.1968 
3 *358:12 *615:A 20 
4 *358:12 *358:21 2.0768 
5 *358:21 *596:B 20.4576 
6 *358:21 *358:36 42.024 
7 *358:36 *593:A 20 
*END

*D_NET *359 0.000505667
*CONN
*I *587:B I *D sg13g2_xnor2_1
*I *734:Q O *D sg13g2_dfrbpq_1
*CAP
1 *587:B 0.000156524
2 *734:Q 0.000156524
3 *587:B *587:A 4.78195e-05
4 *588:A *587:B 0.0001448
5 *658:S *587:B 0
*RES
1 *734:Q *587:B 41.496 
*END

*D_NET *360 0.00794527
*CONN
*I *482:A0 I *D sg13g2_mux2_1
*I *658:A0 I *D sg13g2_mux2_1
*I *587:A I *D sg13g2_xnor2_1
*I *734:D I *D sg13g2_dfrbpq_1
*I *732:Q O *D sg13g2_dfrbpq_1
*CAP
1 *482:A0 0.00091391
2 *658:A0 0.000401997
3 *587:A 2.78714e-05
4 *734:D 0.000411241
5 *732:Q 0.000162718
6 *360:32 0.00151587
7 *360:21 0.000547367
8 *360:8 0.000893492
9 *482:A0 *482:A1 0.000209763
10 *482:A0 *563:A2 0
11 *482:A0 *658:A1 0
12 *482:A0 *410:85 0.00023464
13 *482:A0 *413:83 0
14 *482:A0 *415:129 0
15 *482:A0 *417:72 0
16 *482:A0 *429:68 0
17 *658:A0 *658:A1 0
18 *658:A0 *736:RESET_B 8.02763e-05
19 *658:A0 *417:57 0.000291595
20 *734:D *417:21 0.000209505
21 *734:D *417:29 0
22 *734:D *418:23 4.77425e-05
23 *734:D *423:37 0
24 *360:8 *417:21 0
25 *360:8 *417:29 0.00020973
26 *360:8 *418:39 0
27 *360:21 *417:29 0
28 *360:21 *417:33 0
29 *360:21 *417:44 0
30 *360:32 *417:44 0
31 *360:32 *417:57 0
32 *482:S *482:A0 0
33 *563:A1 *482:A0 0.000395131
34 *587:B *587:A 4.78195e-05
35 *658:S *658:A0 0.000630923
36 *54:12 *482:A0 0.000448099
37 *54:34 *482:A0 0
38 *54:34 *360:21 0
39 *54:34 *360:32 0
40 *54:40 *734:D 0
41 *54:40 *360:21 0
42 *64:8 *482:A0 0.000265575
43 *173:17 *482:A0 0
44 *356:8 *482:A0 0
*RES
1 *732:Q *360:8 41.5664 
2 *360:8 *734:D 43.3968 
3 *360:8 *360:21 3.256 
4 *360:21 *587:A 40.2728 
5 *360:21 *360:32 1.9888 
6 *360:32 *658:A0 44.1096 
7 *360:32 *482:A0 49.9176 
*END

*D_NET *361 0.000163341
*CONN
*I *732:D I *D sg13g2_dfrbpq_1
*I *733:Q O *D sg13g2_dfrbpq_1
*CAP
1 *732:D 8.16706e-05
2 *733:Q 8.16706e-05
*RES
1 *733:Q *732:D 40.7832 
*END

*D_NET *362 0.00358911
*CONN
*I *482:A1 I *D sg13g2_mux2_1
*I *658:A1 I *D sg13g2_mux2_1
*I *684:Q O *D sg13g2_dfrbpq_1
*CAP
1 *482:A1 0.000542013
2 *658:A1 0.000873078
3 *684:Q 0
4 *362:6 0.00141509
5 *482:A1 *704:RESET_B 0
6 *482:A1 *415:129 0
7 *658:A1 *685:CLK 0
8 *658:A1 *412:10 0
9 *658:A1 *417:57 0
10 *658:A1 *417:72 0
11 *482:A0 *482:A1 0.000209763
12 *482:A0 *658:A1 0
13 *563:A1 *482:A1 0
14 *658:A0 *658:A1 0
15 *684:D *658:A1 0.000468951
16 *54:12 *658:A1 0
17 *64:8 *482:A1 0
18 *224:12 *482:A1 0
19 *288:18 *482:A1 8.02102e-05
*RES
1 *684:Q *362:6 40 
2 *362:6 *658:A1 47.832 
3 *362:6 *482:A1 44.9808 
*END

*D_NET *363 0.000524084
*CONN
*I *728:D I *D sg13g2_dfrbpq_1
*I *644:Y O *D sg13g2_a21oi_1
*CAP
1 *728:D 0.000140924
2 *644:Y 0.000140924
3 *624:A *728:D 0
4 *120:19 *728:D 0.000242236
*RES
1 *644:Y *728:D 41.3816 
*END

*D_NET *364 0.00194621
*CONN
*I *729:D I *D sg13g2_dfrbpq_1
*I *661:A I *D sg13g2_nand3_1
*I *626:Y O *D sg13g2_a21oi_1
*CAP
1 *729:D 0
2 *661:A 7.65766e-05
3 *626:Y 0.000310659
4 *364:14 0.000299792
5 *364:10 0.000533874
6 *364:10 *728:RESET_B 0
7 *364:10 *367:29 0.000128247
8 *626:A1 *661:A 0
9 *626:A1 *364:10 0.00046906
10 *626:A1 *364:14 8.01609e-05
11 *661:B *661:A 4.78359e-05
12 *661:B *364:14 0
13 *728:CLK *661:A 0
14 *728:CLK *364:14 0
15 *120:38 *364:10 0
*RES
1 *626:Y *364:10 43.1856 
2 *364:10 *364:14 21.7512 
3 *364:14 *661:A 20.7832 
4 *364:14 *729:D 20 
*END

*D_NET *365 0.00190952
*CONN
*I *730:D I *D sg13g2_dfrbpq_1
*I *643:Y O *D sg13g2_a21oi_1
*CAP
1 *730:D 0.000260134
2 *643:Y 0.00062147
3 *365:8 0.000881604
4 *730:D *731:RESET_B 1.54556e-05
5 *730:D *418:69 0
6 *48:20 *365:8 0
7 *121:14 *365:8 0.000130859
*RES
1 *643:Y *365:8 46.424 
2 *365:8 *730:D 42.1208 
*END

*D_NET *366 0.00128505
*CONN
*I *731:D I *D sg13g2_dfrbpq_1
*I *622:Y O *D sg13g2_a21oi_1
*CAP
1 *731:D 4.68882e-05
2 *622:Y 0.000531057
3 *366:8 0.000577945
4 *731:D *731:RESET_B 0
5 *366:8 *370:8 0.000129163
*RES
1 *622:Y *366:8 45.7904 
2 *366:8 *731:D 40.4576 
*END

*D_NET *367 0.00289492
*CONN
*I *625:B I *D sg13g2_xnor2_1
*I *659:B I *D sg13g2_nand2_1
*I *644:A2 I *D sg13g2_a21oi_1
*I *617:B I *D sg13g2_and2_1
*I *728:Q O *D sg13g2_dfrbpq_1
*CAP
1 *625:B 0.00020863
2 *659:B 0
3 *644:A2 0
4 *617:B 2.78801e-05
5 *728:Q 0.000143552
6 *367:39 0.000185693
7 *367:29 0.000436661
8 *367:14 0.000462829
9 *367:10 0.000392611
10 *367:8 0.000143552
11 *617:B *625:A 4.78192e-05
12 *625:B *625:A 0
13 *367:14 *625:A 0.000226819
14 *367:29 *728:RESET_B 0
15 *642:B1 *367:39 0
16 *642:A2 *367:39 0
17 *661:B *367:39 4.77425e-05
18 *116:8 *367:8 0
19 *116:8 *367:29 0
20 *116:8 *367:39 0.000234224
21 *119:10 *367:39 0
22 *120:8 *367:39 8.00842e-05
23 *122:23 *367:29 0.000128576
24 *364:10 *367:29 0.000128247
*RES
1 *728:Q *367:8 41.5664 
2 *367:8 *367:10 20 
3 *367:10 *367:14 1.892 
4 *367:14 *617:B 20.2728 
5 *367:14 *367:29 42.2616 
6 *367:29 *367:39 41.848 
7 *367:39 *644:A2 20 
8 *367:29 *659:B 20 
9 *367:10 *625:B 21.936 
*END

*D_NET *368 0.00239299
*CONN
*I *625:A I *D sg13g2_xnor2_1
*I *617:A I *D sg13g2_and2_1
*I *729:Q O *D sg13g2_dfrbpq_1
*CAP
1 *625:A 0.000500236
2 *617:A 0
3 *729:Q 0.000448305
4 *368:12 0.000610871
5 *368:8 0.000558939
6 *617:B *625:A 4.78192e-05
7 *625:B *625:A 0
8 *626:A1 *625:A 0
9 *626:A2 *625:A 0
10 *728:CLK *625:A 0
11 *728:CLK *368:12 0
12 *729:CLK *368:8 0
13 *116:8 *368:8 0
14 *119:10 *368:8 0
15 *258:10 *368:8 0
16 *367:14 *625:A 0.000226819
*RES
1 *729:Q *368:8 44.5232 
2 *368:8 *368:12 20.8272 
3 *368:12 *617:A 20 
4 *368:12 *625:A 24.2944 
*END

*D_NET *369 0.00117539
*CONN
*I *642:A1 I *D sg13g2_o21ai_1
*I *618:B I *D sg13g2_nand2_1
*I *730:Q O *D sg13g2_dfrbpq_1
*CAP
1 *642:A1 8.94646e-05
2 *618:B 0.000136931
3 *730:Q 0.000137052
4 *369:8 0.000363447
5 *624:A *618:B 0.000177034
6 *624:A *642:A1 0
7 *642:A2 *618:B 0
8 *642:A2 *642:A1 8.01609e-05
9 *48:10 *369:8 0
10 *117:10 *618:B 4.77425e-05
11 *117:10 *642:A1 0
12 *117:10 *369:8 0
13 *118:31 *642:A1 1.54008e-05
14 *135:8 *642:A1 0.000106064
15 *135:8 *369:8 2.20966e-05
*RES
1 *730:Q *369:8 41.144 
2 *369:8 *618:B 41.2848 
3 *369:8 *642:A1 40.968 
*END

*D_NET *370 0.0013488
*CONN
*I *619:A I *D sg13g2_inv_1
*I *624:B I *D sg13g2_nand2_1
*I *731:Q O *D sg13g2_dfrbpq_1
*CAP
1 *619:A 0.000153093
2 *624:B 0
3 *731:Q 0.000113998
4 *370:12 0.00019074
5 *370:8 0.000151645
6 *118:8 *619:A 0.000259259
7 *118:8 *370:12 1.54008e-05
8 *118:19 *370:12 4.77425e-05
9 *120:25 *370:8 0.000287757
10 *120:38 *619:A 0
11 *366:8 *370:8 0.000129163
*RES
1 *731:Q *370:8 41.5664 
2 *370:8 *370:12 20.2728 
3 *370:12 *624:B 20 
4 *370:12 *619:A 21.5664 
*END

*D_NET *371 0.00070809
*CONN
*I *620:B I *D sg13g2_xnor2_1
*I *727:Q O *D sg13g2_dfrbpq_1
*CAP
1 *620:B 0.000249188
2 *727:Q 0.000249188
3 *620:B *620:A 0.000209713
*RES
1 *727:Q *620:B 42.552 
*END

*D_NET *372 0.00418278
*CONN
*I *620:A I *D sg13g2_xnor2_1
*I *645:A0 I *D sg13g2_mux2_1
*I *662:A0 I *D sg13g2_mux2_1
*I *727:D I *D sg13g2_dfrbpq_1
*I *725:Q O *D sg13g2_dfrbpq_1
*CAP
1 *620:A 0.000193066
2 *645:A0 0
3 *662:A0 8.05036e-05
4 *727:D 0.000355214
5 *725:Q 0
6 *372:42 0.000430162
7 *372:32 0.000789713
8 *372:21 0.000402637
9 *372:6 0.000510863
10 *620:A *729:RESET_B 0
11 *662:A0 *729:RESET_B 0
12 *727:D *417:33 0
13 *727:D *417:79 0
14 *372:21 *417:33 0
15 *372:21 *417:44 0
16 *372:32 *729:RESET_B 0
17 *372:42 *374:18 0
18 *372:42 *412:31 0.00121091
19 *620:B *620:A 0.000209713
20 *685:D *662:A0 0
*RES
1 *725:Q *372:6 40 
2 *372:6 *727:D 43.5816 
3 *372:6 *372:21 21.5664 
4 *372:21 *662:A0 20.6424 
5 *372:21 *372:32 1.496 
6 *372:32 *372:42 45.5176 
7 *372:42 *645:A0 20 
8 *372:32 *620:A 21.7512 
*END

*D_NET *373 0.000186565
*CONN
*I *725:D I *D sg13g2_dfrbpq_1
*I *726:Q O *D sg13g2_dfrbpq_1
*CAP
1 *725:D 9.32824e-05
2 *726:Q 9.32824e-05
3 *725:D *725:RESET_B 0
*RES
1 *726:Q *725:D 40.9944 
*END

*D_NET *374 0.00222879
*CONN
*I *645:A1 I *D sg13g2_mux2_1
*I *662:A1 I *D sg13g2_mux2_1
*I *685:Q O *D sg13g2_dfrbpq_1
*CAP
1 *645:A1 0.000251472
2 *662:A1 0
3 *685:Q 0.000232691
4 *374:18 0.00052638
5 *374:12 0.00101054
6 *645:A1 *412:25 0
7 *374:12 *708:RESET_B 0
8 *374:12 *412:25 0
9 *374:18 *685:CLK 0
10 *374:18 *412:10 0
11 *374:18 *417:44 0
12 *374:18 *417:57 0
13 *645:S *374:18 0
14 *668:A *645:A1 0.000112078
15 *708:D *645:A1 8.02269e-05
16 *708:D *374:12 1.54008e-05
17 *372:42 *374:18 0
*RES
1 *685:Q *374:12 22.0944 
2 *374:12 *374:18 45.1568 
3 *374:18 *662:A1 20 
4 *374:12 *645:A1 22.3232 
*END

*D_NET *379 0.0136691
*CONN
*I *844:A I *D sg13g2_buf_1
*I *753:RESET_B I *D sg13g2_dfrbpq_1
*I *690:RESET_B I *D sg13g2_dfrbpq_1
*I *691:RESET_B I *D sg13g2_dfrbpq_1
*I *754:RESET_B I *D sg13g2_dfrbpq_1
*I *721:Q O *D sg13g2_dfrbpq_1
*CAP
1 *844:A 0.000395785
2 *753:RESET_B 0.000178944
3 *690:RESET_B 2.51612e-05
4 *691:RESET_B 0.000152262
5 *754:RESET_B 7.44026e-05
6 *721:Q 0.000102389
7 *379:55 0.000814743
8 *379:47 0.00114816
9 *379:31 0.00124747
10 *379:16 0.00219635
11 *379:10 0.00210976
12 *379:8 0.00104367
13 *690:RESET_B *690:CLK 0
14 *691:RESET_B *690:CLK 0
15 *691:RESET_B *425:53 0
16 *753:RESET_B *706:D 0
17 *753:RESET_B *427:214 0
18 *754:RESET_B *698:CLK 7.62389e-05
19 *754:RESET_B *754:CLK 5.38157e-05
20 *754:RESET_B *433:25 4.77425e-05
21 *844:A *419:38 0
22 *844:A *424:17 0
23 *844:A *424:30 0.000235055
24 *379:10 *424:30 0.000480193
25 *379:10 *424:38 0.000555321
26 *379:16 *682:CLK 0
27 *379:16 *750:CLK 0
28 *379:16 *433:21 0.000273979
29 *379:16 *433:25 4.77425e-05
30 *379:31 *575:A 0
31 *379:31 *754:CLK 0.000401086
32 *379:31 *861:A 0
33 *379:31 *427:115 0
34 *379:47 *424:30 0.000394566
35 *379:55 *753:CLK 0
36 *379:55 *424:17 0
37 *379:55 *471:10 0.000940327
38 *690:D *690:RESET_B 0
39 *691:D *691:RESET_B 0
40 *694:D *379:16 0.000598779
41 *43:26 *844:A 7.51285e-05
42 *58:8 *379:31 0
43 *90:10 *379:31 0
44 *92:66 *690:RESET_B 0
45 *92:66 *691:RESET_B 0
46 *92:66 *379:31 0
47 *106:20 *379:10 0
48 *108:33 *379:10 0
49 *111:31 *379:8 0
50 *111:31 *379:10 0
51 *113:10 *379:10 0
52 *172:18 *754:RESET_B 0
53 *182:36 *379:55 0
54 *284:25 *379:31 0
55 *323:10 *379:31 0
56 *326:16 *379:8 0
57 *326:70 *379:10 0
58 *332:10 *379:16 0
*RES
1 *721:Q *379:8 40.8272 
2 *379:8 *379:10 9.3808 
3 *379:10 *379:16 49.8824 
4 *379:16 *754:RESET_B 40.7832 
5 *379:16 *379:31 30.648 
6 *379:31 *691:RESET_B 21.3816 
7 *379:31 *690:RESET_B 20.2728 
8 *379:10 *379:47 1.5664 
9 *379:47 *379:55 46.0896 
10 *379:55 *753:RESET_B 41.1968 
11 *379:47 *844:A 43.652 
*END

*D_NET *402 0.0017091
*CONN
*I *542:B1 I *D sg13g2_a22oi_1
*I *717:Q O *D sg13g2_dfrbpq_1
*CAP
1 *542:B1 0.00042637
2 *717:Q 0.00042637
3 *542:B1 *539:B1 0
4 *539:A1 *542:B1 0.000339552
5 *72:10 *542:B1 0.000112519
6 *92:43 *542:B1 0.00040429
*RES
1 *717:Q *542:B1 44.3384 
*END

*D_NET *403 0.00184384
*CONN
*I *539:B1 I *D sg13g2_a22oi_1
*I *718:Q O *D sg13g2_dfrbpq_1
*CAP
1 *539:B1 0.000254108
2 *718:Q 0.000442955
3 *403:10 0.000697063
4 *403:10 *687:CLK 0
5 *403:10 *416:32 0
6 *539:A2 *539:B1 0
7 *539:A1 *539:B1 4.79124e-05
8 *542:B1 *539:B1 0
9 *585:A1 *539:B1 4.78524e-05
10 *70:10 *539:B1 4.79124e-05
11 *92:43 *539:B1 0
12 *92:43 *403:10 0.000306035
13 *92:52 *403:10 0
14 *234:16 *403:10 0
*RES
1 *718:Q *403:10 43.7928 
2 *403:10 *539:B1 42.3232 
*END

*D_NET *404 0.000967266
*CONN
*I *536:B1 I *D sg13g2_a22oi_1
*I *719:Q O *D sg13g2_dfrbpq_1
*CAP
1 *536:B1 0.000138462
2 *719:Q 0.000297429
3 *404:8 0.00043589
4 *536:B1 *409:10 0
5 *404:8 *427:294 0
6 *536:A1 *536:B1 4.77425e-05
7 *553:A0 *404:8 0
8 *1:10 *404:8 0
9 *49:14 *536:B1 0
10 *68:10 *536:B1 4.77425e-05
11 *235:12 *536:B1 0
*RES
1 *719:Q *404:8 42.6224 
2 *404:8 *536:B1 41.1968 
*END

*D_NET *405 0.00155988
*CONN
*I *679:B1 I *D sg13g2_a22oi_1
*I *720:Q O *D sg13g2_dfrbpq_1
*CAP
1 *679:B1 0.000118803
2 *720:Q 0.000183212
3 *405:10 0.000302015
4 *405:10 *409:99 0.00012816
5 *405:10 *440:12 0.000555571
6 *405:10 *442:10 4.76053e-05
7 *49:14 *679:B1 0.000176597
8 *67:24 *679:B1 0
9 *155:10 *679:B1 4.79124e-05
10 *236:12 *405:10 0
*RES
1 *720:Q *405:10 42.4728 
2 *405:10 *679:B1 41.012 
*END

*D_NET *406 0.00015273
*CONN
*I *714:D I *D sg13g2_dfrbpq_1
*I *715:Q O *D sg13g2_dfrbpq_1
*CAP
1 *714:D 7.63652e-05
2 *715:Q 7.63652e-05
3 *714:RESET_B *714:D 0
*RES
1 *715:Q *714:D 40.7832 
*END
