*SPEF "ieee 1481-1999"
*DESIGN "gpio"
*DATE "23:50:32 Tuesday September 15, 2026"
*VENDOR "The OpenROAD Project"
*PROGRAM "OpenROAD"
*VERSION "26Q3-1305-gf552262465"
*DESIGN_FLOW "NAME_SCOPE LOCAL" "PIN_CAP NONE"
*DIVIDER /
*DELIMITER :
*BUS_DELIMITER []
*T_UNIT 1 NS
*C_UNIT 1 PF
*R_UNIT 1 OHM
*L_UNIT 1 HENRY

*NAME_MAP
*1 _000_
*2 _001_
*3 _002_
*4 _003_
*5 _004_
*6 _005_
*7 _006_
*8 _007_
*9 _008_
*10 _009_
*11 _010_
*12 _011_
*13 _012_
*14 _013_
*15 _014_
*16 _015_
*17 _016_
*18 _017_
*19 _018_
*20 _019_
*21 _020_
*22 _021_
*23 _022_
*24 _023_
*25 _024_
*26 _025_
*27 _026_
*28 _027_
*29 _028_
*30 _029_
*31 _030_
*32 _031_
*33 _032_
*34 _033_
*35 _034_
*36 _035_
*37 _036_
*38 _037_
*39 _038_
*40 _039_
*41 _040_
*42 _041_
*43 _042_
*44 _043_
*45 _044_
*46 _045_
*47 _046_
*48 _047_
*49 _048_
*50 _049_
*51 _050_
*52 _051_
*53 _052_
*54 _053_
*55 _054_
*56 _055_
*57 _056_
*58 _057_
*59 _058_
*60 _059_
*61 _060_
*62 _061_
*63 _062_
*64 _063_
*65 _064_
*66 _065_
*67 _066_
*68 _067_
*69 _068_
*70 _069_
*71 _070_
*72 _071_
*73 _072_
*74 _073_
*75 _074_
*76 _075_
*77 _076_
*78 _077_
*79 _078_
*80 _079_
*81 _080_
*82 _081_
*83 _082_
*84 _083_
*85 _084_
*86 _085_
*87 _086_
*88 _087_
*89 _088_
*90 _089_
*91 _090_
*92 _091_
*93 _092_
*94 _093_
*95 _094_
*96 _095_
*97 _096_
*98 _097_
*99 _098_
*100 _099_
*101 _100_
*102 _101_
*103 _102_
*104 _103_
*105 _104_
*106 _105_
*107 _106_
*108 _107_
*109 _108_
*110 _109_
*111 _110_
*112 _111_
*113 _112_
*115 _114_
*117 _116_
*118 _117_
*119 _118_
*120 _119_
*121 _120_
*122 _121_
*123 _122_
*124 _123_
*125 _124_
*126 _125_
*128 _127_
*129 _128_
*130 _129_
*131 _130_
*132 _131_
*133 _132_
*134 _133_
*135 _134_
*136 _135_
*137 _136_
*138 _137_
*139 _138_
*140 _139_
*141 _140_
*142 _141_
*143 _142_
*144 _143_
*145 _144_
*146 _145_
*147 _146_
*148 _147_
*149 _148_
*150 _149_
*151 _150_
*152 _151_
*153 _152_
*154 _153_
*155 _154_
*156 _155_
*158 _157_
*159 _158_
*160 _159_
*161 _160_
*162 _161_
*163 _162_
*164 _163_
*165 _164_
*166 _165_
*167 _166_
*168 _167_
*169 _168_
*170 _169_
*171 _170_
*172 _171_
*173 _172_
*174 _173_
*175 _174_
*176 _175_
*177 _176_
*178 _177_
*179 _178_
*180 _179_
*181 _180_
*182 _181_
*183 _182_
*184 _183_
*185 _184_
*186 _185_
*187 _186_
*188 _187_
*189 _188_
*190 _189_
*191 _190_
*193 _192_
*194 _193_
*195 _194_
*196 _195_
*197 _196_
*198 _197_
*199 _198_
*200 _199_
*201 _200_
*202 _201_
*203 _202_
*204 _203_
*205 _204_
*206 _205_
*207 _206_
*208 _207_
*209 _208_
*210 _209_
*211 _210_
*212 _211_
*213 _212_
*214 _213_
*215 _214_
*216 _215_
*217 _216_
*218 _217_
*219 _218_
*220 _219_
*221 _220_
*222 _221_
*223 _222_
*224 _223_
*225 _224_
*226 _225_
*227 _226_
*228 _227_
*229 _228_
*230 _229_
*231 _230_
*232 _231_
*233 _232_
*234 _233_
*235 _234_
*236 _235_
*237 _236_
*238 _237_
*239 _238_
*240 _239_
*241 _240_
*242 _241_
*243 _242_
*244 _243_
*245 _244_
*246 _245_
*247 _246_
*248 _247_
*249 _248_
*250 _249_
*251 _250_
*252 _251_
*253 _252_
*254 _253_
*602 cio_gpio_en_o[0]
*601 cio_gpio_en_o[1]
*600 cio_gpio_en_o[2]
*599 cio_gpio_en_o[3]
*344 cio_gpio_i[0]
*343 cio_gpio_i[1]
*342 cio_gpio_i[2]
*340 cio_gpio_i[3]
*649 cio_gpio_o[0]
*295 cio_gpio_o[1]
*294 cio_gpio_o[2]
*648 cio_gpio_o[3]
*267 clk_i
*680 clknet_0_clk_i
*669 clknet_4_0_0_clk_i
*676 clknet_4_10_0_clk_i
*673 clknet_4_11_0_clk_i
*677 clknet_4_12_0_clk_i
*672 clknet_4_13_0_clk_i
*687 clknet_4_14_0_clk_i
*688 clknet_4_15_0_clk_i
*663 clknet_4_1_0_clk_i
*659 clknet_4_2_0_clk_i
*666 clknet_4_3_0_clk_i
*665 clknet_4_4_0_clk_i
*330 clknet_4_5_0_clk_i
*686 clknet_4_6_0_clk_i
*662 clknet_4_7_0_clk_i
*661 clknet_4_8_0_clk_i
*345 clknet_4_9_0_clk_i
*689 clknet_5_0__leaf_clk_i
*699 clknet_5_10__leaf_clk_i
*700 clknet_5_11__leaf_clk_i
*701 clknet_5_12__leaf_clk_i
*702 clknet_5_13__leaf_clk_i
*703 clknet_5_14__leaf_clk_i
*704 clknet_5_15__leaf_clk_i
*705 clknet_5_16__leaf_clk_i
*706 clknet_5_17__leaf_clk_i
*707 clknet_5_18__leaf_clk_i
*708 clknet_5_19__leaf_clk_i
*690 clknet_5_1__leaf_clk_i
*709 clknet_5_20__leaf_clk_i
*710 clknet_5_21__leaf_clk_i
*711 clknet_5_22__leaf_clk_i
*712 clknet_5_23__leaf_clk_i
*713 clknet_5_24__leaf_clk_i
*714 clknet_5_25__leaf_clk_i
*715 clknet_5_26__leaf_clk_i
*716 clknet_5_27__leaf_clk_i
*717 clknet_5_28__leaf_clk_i
*718 clknet_5_29__leaf_clk_i
*691 clknet_5_2__leaf_clk_i
*719 clknet_5_30__leaf_clk_i
*720 clknet_5_31__leaf_clk_i
*692 clknet_5_3__leaf_clk_i
*693 clknet_5_4__leaf_clk_i
*694 clknet_5_5__leaf_clk_i
*695 clknet_5_6__leaf_clk_i
*696 clknet_5_7__leaf_clk_i
*697 clknet_5_8__leaf_clk_i
*698 clknet_5_9__leaf_clk_i
*268 core_rst_ni
*270 hw2reg_10_
*271 hw2reg_11_
*272 hw2reg_12_
*280 hw2reg_9_
*293 intr_gpio_o[0]
*292 intr_gpio_o[1]
*291 intr_gpio_o[2]
*647 intr_gpio_o[3]
*397 net100
*398 net101
*399 net102
*400 net103
*402 net104
*403 net105
*404 net106
*405 net107
*406 net108
*407 net109
*408 net110
*409 net111
*410 net112
*411 net113
*413 net114
*414 net115
*415 net116
*416 net117
*430 net118
*431 net119
*432 net120
*435 net121
*436 net122
*437 net123
*438 net124
*470 net125
*471 net126
*472 net127
*473 net128
*474 net129
*475 net130
*476 net131
*477 net132
*255 net133
*256 net134
*257 net135
*258 net136
*263 net137
*264 net138
*265 net139
*266 net140
*281 net141
*282 net142
*283 net143
*284 net144
*479 net145
*486 net146
*487 net147
*488 net148
*489 net149
*490 net150
*491 net151
*492 net152
*493 net153
*494 net154
*495 net155
*496 net156
*497 net157
*498 net158
*499 net159
*500 net160
*502 net161
*503 net162
*504 net163
*505 net164
*506 net165
*507 net166
*508 net167
*509 net168
*510 net169
*511 net170
*513 net171
*514 net172
*515 net173
*516 net174
*517 net175
*518 net176
*519 net177
*520 net178
*522 net179
*524 net180
*525 net181
*526 net182
*527 net183
*528 net184
*529 net185
*530 net186
*531 net187
*532 net188
*537 net189
*540 net190
*682 net269
*681 net270
*679 net271
*684 net272
*685 net273
*346 net274
*341 net275
*319 net276
*286 net277
*308 net278
*655 net279
*609 net280
*683 net281
*668 net282
*604 net283
*285 net284
*192 net285
*157 net286
*657 net287
*660 net288
*116 net289
*114 net290
*658 net291
*127 net292
*297 net293
*671 net294
*667 net295
*674 net296
*675 net297
*664 net298
*670 net299
*678 net300
*721 net301
*722 net302
*723 net303
*724 net304
*725 net305
*726 net306
*727 net307
*728 net308
*729 net309
*730 net310
*731 net311
*732 net312
*733 net313
*734 net314
*735 net315
*736 net316
*737 net317
*738 net318
*739 net319
*740 net320
*741 net321
*742 net322
*743 net323
*744 net324
*745 net325
*746 net326
*747 net327
*748 net328
*749 net329
*750 net330
*751 net331
*752 net332
*753 net333
*754 net334
*755 net335
*756 net336
*757 net337
*758 net338
*759 net339
*760 net340
*761 net341
*762 net342
*763 net343
*764 net344
*765 net345
*766 net346
*767 net347
*768 net348
*769 net349
*770 net350
*771 net351
*772 net352
*773 net353
*774 net354
*775 net355
*776 net356
*777 net357
*778 net358
*779 net359
*780 net360
*781 net361
*782 net362
*783 net363
*784 net364
*785 net365
*786 net366
*787 net367
*296 net82
*298 net83
*299 net84
*300 net85
*259 net86
*260 net87
*261 net88
*262 net89
*369 net90
*370 net91
*371 net92
*372 net93
*376 net94
*377 net95
*378 net96
*379 net97
*395 net98
*396 net99
*348 reg2hw_0_
*349 reg2hw_10_
*350 reg2hw_11_
*351 reg2hw_12_
*352 reg2hw_13_
*353 reg2hw_14_
*354 reg2hw_15_
*355 reg2hw_16_
*356 reg2hw_17_
*357 reg2hw_18_
*358 reg2hw_19_
*359 reg2hw_1_
*360 reg2hw_2_
*361 reg2hw_3_
*362 reg2hw_4_
*363 reg2hw_5_
*364 reg2hw_6_
*365 reg2hw_7_
*366 reg2hw_8_
*367 reg2hw_9_
*368 reg_rst_ni
*339 rst_ni
*338 tl_i[0]
*337 tl_i[100]
*336 tl_i[101]
*373 tl_i[102]
*374 tl_i[103]
*375 tl_i[104]
*335 tl_i[105]
*334 tl_i[106]
*333 tl_i[107]
*332 tl_i[108]
*380 tl_i[10]
*381 tl_i[11]
*382 tl_i[12]
*383 tl_i[13]
*384 tl_i[14]
*385 tl_i[15]
*386 tl_i[16]
*387 tl_i[17]
*388 tl_i[18]
*389 tl_i[19]
*390 tl_i[1]
*391 tl_i[20]
*392 tl_i[21]
*393 tl_i[22]
*394 tl_i[23]
*331 tl_i[24]
*329 tl_i[25]
*328 tl_i[26]
*327 tl_i[27]
*326 tl_i[28]
*325 tl_i[29]
*401 tl_i[2]
*324 tl_i[30]
*323 tl_i[31]
*322 tl_i[32]
*321 tl_i[33]
*320 tl_i[34]
*318 tl_i[35]
*317 tl_i[36]
*316 tl_i[37]
*315 tl_i[38]
*314 tl_i[39]
*412 tl_i[3]
*313 tl_i[40]
*312 tl_i[41]
*311 tl_i[42]
*310 tl_i[43]
*417 tl_i[44]
*418 tl_i[45]
*419 tl_i[46]
*420 tl_i[47]
*421 tl_i[48]
*422 tl_i[49]
*423 tl_i[4]
*424 tl_i[50]
*425 tl_i[51]
*426 tl_i[52]
*427 tl_i[53]
*428 tl_i[54]
*429 tl_i[55]
*309 tl_i[56]
*307 tl_i[57]
*306 tl_i[58]
*433 tl_i[59]
*434 tl_i[5]
*305 tl_i[60]
*304 tl_i[61]
*303 tl_i[62]
*302 tl_i[63]
*439 tl_i[64]
*440 tl_i[65]
*441 tl_i[66]
*442 tl_i[67]
*443 tl_i[68]
*444 tl_i[69]
*445 tl_i[6]
*446 tl_i[70]
*447 tl_i[71]
*448 tl_i[72]
*449 tl_i[73]
*450 tl_i[74]
*451 tl_i[75]
*452 tl_i[76]
*453 tl_i[77]
*454 tl_i[78]
*455 tl_i[79]
*456 tl_i[7]
*457 tl_i[80]
*458 tl_i[81]
*459 tl_i[82]
*460 tl_i[83]
*461 tl_i[84]
*462 tl_i[85]
*463 tl_i[86]
*464 tl_i[87]
*465 tl_i[88]
*466 tl_i[89]
*467 tl_i[8]
*468 tl_i[90]
*469 tl_i[91]
*279 tl_i[92]
*278 tl_i[93]
*277 tl_i[94]
*276 tl_i[95]
*275 tl_i[96]
*274 tl_i[97]
*273 tl_i[98]
*269 tl_i[99]
*478 tl_i[9]
*646 tl_o[0]
*480 tl_o[10]
*481 tl_o[11]
*482 tl_o[12]
*483 tl_o[13]
*484 tl_o[14]
*485 tl_o[15]
*645 tl_o[16]
*644 tl_o[17]
*643 tl_o[18]
*642 tl_o[19]
*641 tl_o[1]
*640 tl_o[20]
*639 tl_o[21]
*638 tl_o[22]
*290 tl_o[23]
*637 tl_o[24]
*636 tl_o[25]
*635 tl_o[26]
*634 tl_o[27]
*633 tl_o[28]
*632 tl_o[29]
*501 tl_o[2]
*631 tl_o[30]
*630 tl_o[31]
*629 tl_o[32]
*628 tl_o[33]
*627 tl_o[34]
*626 tl_o[35]
*625 tl_o[36]
*624 tl_o[37]
*623 tl_o[38]
*622 tl_o[39]
*512 tl_o[3]
*621 tl_o[40]
*620 tl_o[41]
*619 tl_o[42]
*618 tl_o[43]
*617 tl_o[44]
*616 tl_o[45]
*615 tl_o[46]
*614 tl_o[47]
*521 tl_o[48]
*613 tl_o[49]
*523 tl_o[4]
*612 tl_o[50]
*611 tl_o[51]
*610 tl_o[52]
*608 tl_o[53]
*607 tl_o[54]
*606 tl_o[55]
*605 tl_o[56]
*289 tl_o[57]
*288 tl_o[58]
*533 tl_o[59]
*534 tl_o[5]
*535 tl_o[60]
*536 tl_o[61]
*287 tl_o[62]
*538 tl_o[63]
*539 tl_o[64]
*347 tl_o[65]
*541 tl_o[6]
*542 tl_o[7]
*543 tl_o[8]
*544 tl_o[9]
*545 u_core_reset_sync_intq
*546 u_gpio_core_data_in_q_0_
*547 u_gpio_core_data_in_q_1_
*548 u_gpio_core_data_in_q_2_
*549 u_gpio_core_data_in_q_3_
*550 u_gpio_core_filter_rst_ni
*551 u_gpio_core_gen_input_filter_0__u_filter_diff_ctr_d_0_
*552 u_gpio_core_gen_input_filter_0__u_filter_diff_ctr_d_1_
*553 u_gpio_core_gen_input_filter_0__u_filter_diff_ctr_d_2_
*554 u_gpio_core_gen_input_filter_0__u_filter_diff_ctr_d_3_
*555 u_gpio_core_gen_input_filter_0__u_filter_diff_ctr_q_0_
*556 u_gpio_core_gen_input_filter_0__u_filter_diff_ctr_q_1_
*557 u_gpio_core_gen_input_filter_0__u_filter_diff_ctr_q_2_
*558 u_gpio_core_gen_input_filter_0__u_filter_diff_ctr_q_3_
*559 u_gpio_core_gen_input_filter_0__u_filter_filter_q
*560 u_gpio_core_gen_input_filter_0__u_filter_filter_synced
*561 u_gpio_core_gen_input_filter_0__u_filter_gen_async_prim_flop_2sync_intq
*562 u_gpio_core_gen_input_filter_0__u_filter_stored_value_q
*563 u_gpio_core_gen_input_filter_1__u_filter_diff_ctr_d_0_
*564 u_gpio_core_gen_input_filter_1__u_filter_diff_ctr_d_1_
*565 u_gpio_core_gen_input_filter_1__u_filter_diff_ctr_d_2_
*566 u_gpio_core_gen_input_filter_1__u_filter_diff_ctr_d_3_
*567 u_gpio_core_gen_input_filter_1__u_filter_diff_ctr_q_0_
*568 u_gpio_core_gen_input_filter_1__u_filter_diff_ctr_q_1_
*569 u_gpio_core_gen_input_filter_1__u_filter_diff_ctr_q_2_
*570 u_gpio_core_gen_input_filter_1__u_filter_diff_ctr_q_3_
*571 u_gpio_core_gen_input_filter_1__u_filter_filter_q
*572 u_gpio_core_gen_input_filter_1__u_filter_filter_synced
*573 u_gpio_core_gen_input_filter_1__u_filter_gen_async_prim_flop_2sync_intq
*574 u_gpio_core_gen_input_filter_1__u_filter_stored_value_q
*575 u_gpio_core_gen_input_filter_2__u_filter_diff_ctr_d_0_
*576 u_gpio_core_gen_input_filter_2__u_filter_diff_ctr_d_1_
*577 u_gpio_core_gen_input_filter_2__u_filter_diff_ctr_d_2_
*578 u_gpio_core_gen_input_filter_2__u_filter_diff_ctr_d_3_
*579 u_gpio_core_gen_input_filter_2__u_filter_diff_ctr_q_0_
*580 u_gpio_core_gen_input_filter_2__u_filter_diff_ctr_q_1_
*581 u_gpio_core_gen_input_filter_2__u_filter_diff_ctr_q_2_
*582 u_gpio_core_gen_input_filter_2__u_filter_diff_ctr_q_3_
*583 u_gpio_core_gen_input_filter_2__u_filter_filter_q
*584 u_gpio_core_gen_input_filter_2__u_filter_filter_synced
*585 u_gpio_core_gen_input_filter_2__u_filter_gen_async_prim_flop_2sync_intq
*586 u_gpio_core_gen_input_filter_2__u_filter_stored_value_q
*587 u_gpio_core_gen_input_filter_3__u_filter_diff_ctr_d_0_
*588 u_gpio_core_gen_input_filter_3__u_filter_diff_ctr_d_1_
*589 u_gpio_core_gen_input_filter_3__u_filter_diff_ctr_d_2_
*590 u_gpio_core_gen_input_filter_3__u_filter_diff_ctr_d_3_
*591 u_gpio_core_gen_input_filter_3__u_filter_diff_ctr_q_0_
*592 u_gpio_core_gen_input_filter_3__u_filter_diff_ctr_q_1_
*593 u_gpio_core_gen_input_filter_3__u_filter_diff_ctr_q_2_
*594 u_gpio_core_gen_input_filter_3__u_filter_diff_ctr_q_3_
*595 u_gpio_core_gen_input_filter_3__u_filter_filter_q
*596 u_gpio_core_gen_input_filter_3__u_filter_filter_synced
*597 u_gpio_core_gen_input_filter_3__u_filter_gen_async_prim_flop_2sync_intq
*598 u_gpio_core_gen_input_filter_3__u_filter_stored_value_q
*603 u_gpio_core_state_rst_ni
*650 u_gpio_reg_u_reg_core_data_in_qs_0_
*651 u_gpio_reg_u_reg_core_data_in_qs_1_
*652 u_gpio_reg_u_reg_core_data_in_qs_2_
*653 u_gpio_reg_u_reg_core_data_in_qs_3_
*654 u_reg_reset_sync_intq
*1467 FILLER_0_0
*1482 FILLER_0_103
*1483 FILLER_0_110
*1469 FILLER_0_12
*1484 FILLER_0_145
*1485 FILLER_0_180
*1486 FILLER_0_187
*1470 FILLER_0_19
*1487 FILLER_0_194
*1488 FILLER_0_201
*1489 FILLER_0_203
*1490 FILLER_0_208
*1491 FILLER_0_215
*1492 FILLER_0_225
*1493 FILLER_0_227
*1494 FILLER_0_241
*1495 FILLER_0_243
*1471 FILLER_0_26
*1496 FILLER_0_285
*1472 FILLER_0_33
*1473 FILLER_0_40
*1474 FILLER_0_47
*1468 FILLER_0_5
*1475 FILLER_0_54
*1476 FILLER_0_61
*1477 FILLER_0_68
*1478 FILLER_0_75
*1479 FILLER_0_82
*1480 FILLER_0_89
*1481 FILLER_0_96
*1739 FILLER_10_0
*1748 FILLER_10_130
*1749 FILLER_10_137
*1750 FILLER_10_144
*1741 FILLER_10_15
*1751 FILLER_10_151
*1752 FILLER_10_155
*1753 FILLER_10_161
*1754 FILLER_10_170
*1755 FILLER_10_177
*1756 FILLER_10_181
*1757 FILLER_10_207
*1758 FILLER_10_214
*1759 FILLER_10_216
*1742 FILLER_10_22
*1760 FILLER_10_242
*1761 FILLER_10_246
*1743 FILLER_10_29
*1740 FILLER_10_4
*1744 FILLER_10_58
*1745 FILLER_10_65
*1746 FILLER_10_94
*1747 FILLER_10_99
*1773 FILLER_11_105
*1774 FILLER_11_113
*1775 FILLER_11_119
*1776 FILLER_11_126
*1777 FILLER_11_133
*1778 FILLER_11_138
*1779 FILLER_11_140
*1780 FILLER_11_145
*1781 FILLER_11_152
*1782 FILLER_11_159
*1763 FILLER_11_16
*1783 FILLER_11_170
*1784 FILLER_11_177
*1785 FILLER_11_184
*1786 FILLER_11_186
*1787 FILLER_11_214
*1788 FILLER_11_218
*1764 FILLER_11_23
*1789 FILLER_11_255
*1790 FILLER_11_257
*1791 FILLER_11_268
*1765 FILLER_11_27
*1792 FILLER_11_275
*1766 FILLER_11_37
*1767 FILLER_11_44
*1768 FILLER_11_46
*1769 FILLER_11_51
*1770 FILLER_11_58
*1771 FILLER_11_65
*1772 FILLER_11_69
*1762 FILLER_11_9
*1798 FILLER_12_121
*1799 FILLER_12_128
*1800 FILLER_12_132
*1801 FILLER_12_200
*1802 FILLER_12_207
*1803 FILLER_12_214
*1804 FILLER_12_221
*1805 FILLER_12_228
*1806 FILLER_12_235
*1807 FILLER_12_263
*1808 FILLER_12_265
*1809 FILLER_12_283
*1794 FILLER_12_37
*1795 FILLER_12_65
*1796 FILLER_12_75
*1797 FILLER_12_86
*1793 FILLER_12_9
*1810 FILLER_13_0
*1813 FILLER_13_100
*1814 FILLER_13_112
*1815 FILLER_13_119
*1816 FILLER_13_123
*1817 FILLER_13_166
*1818 FILLER_13_174
*1819 FILLER_13_181
*1820 FILLER_13_188
*1821 FILLER_13_196
*1822 FILLER_13_200
*1823 FILLER_13_240
*1824 FILLER_13_247
*1825 FILLER_13_255
*1826 FILLER_13_257
*1827 FILLER_13_279
*1811 FILLER_13_4
*1812 FILLER_13_45
*1828 FILLER_14_0
*1835 FILLER_14_141
*1836 FILLER_14_147
*1837 FILLER_14_154
*1838 FILLER_14_161
*1839 FILLER_14_189
*1840 FILLER_14_196
*1841 FILLER_14_212
*1842 FILLER_14_225
*1843 FILLER_14_242
*1844 FILLER_14_255
*1845 FILLER_14_281
*1846 FILLER_14_283
*1829 FILLER_14_6
*1830 FILLER_14_64
*1831 FILLER_14_71
*1832 FILLER_14_78
*1833 FILLER_14_95
*1834 FILLER_14_99
*1857 FILLER_15_114
*1858 FILLER_15_121
*1859 FILLER_15_128
*1847 FILLER_15_13
*1860 FILLER_15_132
*1861 FILLER_15_137
*1862 FILLER_15_141
*1863 FILLER_15_148
*1848 FILLER_15_15
*1864 FILLER_15_150
*1865 FILLER_15_155
*1866 FILLER_15_167
*1867 FILLER_15_174
*1849 FILLER_15_19
*1868 FILLER_15_199
*1869 FILLER_15_207
*1870 FILLER_15_214
*1871 FILLER_15_221
*1872 FILLER_15_228
*1873 FILLER_15_235
*1874 FILLER_15_240
*1875 FILLER_15_250
*1850 FILLER_15_26
*1876 FILLER_15_275
*1851 FILLER_15_28
*1877 FILLER_15_282
*1878 FILLER_15_284
*1852 FILLER_15_34
*1853 FILLER_15_41
*1854 FILLER_15_55
*1855 FILLER_15_62
*1856 FILLER_15_79
*1885 FILLER_16_114
*1886 FILLER_16_121
*1887 FILLER_16_128
*1880 FILLER_16_13
*1888 FILLER_16_130
*1889 FILLER_16_158
*1890 FILLER_16_165
*1891 FILLER_16_172
*1892 FILLER_16_200
*1893 FILLER_16_207
*1894 FILLER_16_214
*1895 FILLER_16_221
*1896 FILLER_16_233
*1897 FILLER_16_237
*1898 FILLER_16_243
*1899 FILLER_16_245
*1900 FILLER_16_250
*1901 FILLER_16_265
*1902 FILLER_16_283
*1881 FILLER_16_49
*1882 FILLER_16_56
*1883 FILLER_16_60
*1884 FILLER_16_82
*1879 FILLER_16_9
*1903 FILLER_17_0
*1904 FILLER_17_13
*1905 FILLER_17_15
*1909 FILLER_17_175
*1910 FILLER_17_209
*1906 FILLER_17_21
*1911 FILLER_17_216
*1912 FILLER_17_223
*1913 FILLER_17_230
*1914 FILLER_17_235
*1915 FILLER_17_257
*1916 FILLER_17_267
*1907 FILLER_17_73
*1908 FILLER_17_75
*1917 FILLER_18_0
*1928 FILLER_18_112
*1929 FILLER_18_119
*1930 FILLER_18_133
*1931 FILLER_18_140
*1932 FILLER_18_160
*1933 FILLER_18_167
*1918 FILLER_18_17
*1934 FILLER_18_174
*1935 FILLER_18_181
*1936 FILLER_18_203
*1937 FILLER_18_207
*1938 FILLER_18_236
*1939 FILLER_18_241
*1919 FILLER_18_26
*1940 FILLER_18_292
*1920 FILLER_18_31
*1921 FILLER_18_35
*1922 FILLER_18_41
*1923 FILLER_18_49
*1924 FILLER_18_56
*1925 FILLER_18_63
*1926 FILLER_18_70
*1927 FILLER_18_77
*1948 FILLER_19_106
*1949 FILLER_19_114
*1950 FILLER_19_118
*1942 FILLER_19_15
*1951 FILLER_19_185
*1952 FILLER_19_189
*1953 FILLER_19_191
*1954 FILLER_19_197
*1955 FILLER_19_203
*1956 FILLER_19_205
*1957 FILLER_19_216
*1943 FILLER_19_22
*1958 FILLER_19_220
*1959 FILLER_19_261
*1960 FILLER_19_268
*1961 FILLER_19_270
*1962 FILLER_19_288
*1944 FILLER_19_34
*1945 FILLER_19_86
*1946 FILLER_19_88
*1941 FILLER_19_9
*1947 FILLER_19_99
*1497 FILLER_1_0
*1512 FILLER_1_105
*1513 FILLER_1_112
*1514 FILLER_1_119
*1515 FILLER_1_121
*1516 FILLER_1_127
*1517 FILLER_1_129
*1518 FILLER_1_134
*1499 FILLER_1_14
*1519 FILLER_1_141
*1520 FILLER_1_148
*1521 FILLER_1_150
*1522 FILLER_1_159
*1523 FILLER_1_166
*1524 FILLER_1_177
*1525 FILLER_1_184
*1500 FILLER_1_21
*1526 FILLER_1_215
*1527 FILLER_1_219
*1528 FILLER_1_254
*1529 FILLER_1_256
*1501 FILLER_1_28
*1502 FILLER_1_35
*1503 FILLER_1_42
*1504 FILLER_1_49
*1505 FILLER_1_56
*1506 FILLER_1_63
*1498 FILLER_1_7
*1507 FILLER_1_70
*1508 FILLER_1_77
*1509 FILLER_1_84
*1510 FILLER_1_91
*1511 FILLER_1_98
*1973 FILLER_20_214
*1974 FILLER_20_221
*1975 FILLER_20_223
*1976 FILLER_20_235
*1977 FILLER_20_239
*1964 FILLER_20_26
*1978 FILLER_20_278
*1965 FILLER_20_33
*1966 FILLER_20_37
*1967 FILLER_20_52
*1968 FILLER_20_59
*1969 FILLER_20_66
*1970 FILLER_20_73
*1971 FILLER_20_78
*1972 FILLER_20_85
*1963 FILLER_20_9
*1979 FILLER_21_0
*1992 FILLER_21_107
*1993 FILLER_21_114
*1994 FILLER_21_118
*1995 FILLER_21_133
*1996 FILLER_21_140
*1997 FILLER_21_147
*1981 FILLER_21_15
*1998 FILLER_21_151
*1999 FILLER_21_157
*2000 FILLER_21_159
*2001 FILLER_21_165
*2002 FILLER_21_172
*2003 FILLER_21_176
*1982 FILLER_21_19
*2004 FILLER_21_208
*2005 FILLER_21_210
*2006 FILLER_21_243
*2007 FILLER_21_254
*2008 FILLER_21_258
*2009 FILLER_21_264
*2010 FILLER_21_268
*2011 FILLER_21_282
*1983 FILLER_21_31
*1984 FILLER_21_37
*1980 FILLER_21_4
*1985 FILLER_21_44
*1986 FILLER_21_48
*1987 FILLER_21_57
*1988 FILLER_21_63
*1989 FILLER_21_65
*1990 FILLER_21_80
*1991 FILLER_21_87
*2016 FILLER_22_103
*2017 FILLER_22_131
*2018 FILLER_22_159
*2019 FILLER_22_165
*2020 FILLER_22_172
*2021 FILLER_22_184
*2022 FILLER_22_194
*2023 FILLER_22_221
*2024 FILLER_22_228
*2025 FILLER_22_235
*2026 FILLER_22_239
*2027 FILLER_22_245
*2028 FILLER_22_247
*2029 FILLER_22_287
*2013 FILLER_22_76
*2014 FILLER_22_87
*2015 FILLER_22_89
*2012 FILLER_22_9
*2030 FILLER_23_0
*2035 FILLER_23_112
*2036 FILLER_23_119
*2037 FILLER_23_121
*2032 FILLER_23_14
*2038 FILLER_23_149
*2039 FILLER_23_156
*2033 FILLER_23_16
*2040 FILLER_23_160
*2041 FILLER_23_164
*2042 FILLER_23_171
*2043 FILLER_23_178
*2044 FILLER_23_218
*2045 FILLER_23_225
*2046 FILLER_23_237
*2047 FILLER_23_278
*2048 FILLER_23_290
*2049 FILLER_23_292
*2031 FILLER_23_7
*2034 FILLER_23_75
*2050 FILLER_24_0
*2059 FILLER_24_105
*2060 FILLER_24_112
*2061 FILLER_24_114
*2052 FILLER_24_14
*2062 FILLER_24_166
*2063 FILLER_24_173
*2053 FILLER_24_21
*2064 FILLER_24_233
*2065 FILLER_24_237
*2066 FILLER_24_247
*2067 FILLER_24_251
*2054 FILLER_24_28
*2068 FILLER_24_288
*2055 FILLER_24_35
*2056 FILLER_24_42
*2051 FILLER_24_7
*2057 FILLER_24_74
*2058 FILLER_24_78
*2069 FILLER_25_0
*2083 FILLER_25_110
*2084 FILLER_25_117
*2085 FILLER_25_124
*2071 FILLER_25_14
*2086 FILLER_25_152
*2087 FILLER_25_159
*2088 FILLER_25_163
*2089 FILLER_25_169
*2090 FILLER_25_189
*2091 FILLER_25_196
*2092 FILLER_25_203
*2093 FILLER_25_205
*2072 FILLER_25_21
*2094 FILLER_25_219
*2095 FILLER_25_226
*2096 FILLER_25_231
*2097 FILLER_25_235
*2073 FILLER_25_28
*2098 FILLER_25_287
*2099 FILLER_25_291
*2074 FILLER_25_33
*2075 FILLER_25_40
*2076 FILLER_25_47
*2077 FILLER_25_54
*2078 FILLER_25_61
*2079 FILLER_25_68
*2070 FILLER_25_7
*2080 FILLER_25_74
*2081 FILLER_25_80
*2082 FILLER_25_82
*2106 FILLER_26_137
*2107 FILLER_26_144
*2108 FILLER_26_148
*2101 FILLER_26_17
*2109 FILLER_26_177
*2110 FILLER_26_184
*2111 FILLER_26_191
*2112 FILLER_26_206
*2113 FILLER_26_218
*2114 FILLER_26_225
*2115 FILLER_26_229
*2102 FILLER_26_24
*2116 FILLER_26_265
*2117 FILLER_26_269
*2118 FILLER_26_273
*2119 FILLER_26_280
*2120 FILLER_26_284
*2121 FILLER_26_290
*2122 FILLER_26_292
*2103 FILLER_26_86
*2100 FILLER_26_9
*2104 FILLER_26_97
*2105 FILLER_26_99
*2123 FILLER_27_0
*2131 FILLER_27_127
*2132 FILLER_27_138
*2125 FILLER_27_14
*2133 FILLER_27_145
*2134 FILLER_27_152
*2135 FILLER_27_183
*2136 FILLER_27_190
*2137 FILLER_27_204
*2126 FILLER_27_21
*2138 FILLER_27_218
*2139 FILLER_27_223
*2140 FILLER_27_247
*2141 FILLER_27_260
*2142 FILLER_27_264
*2127 FILLER_27_28
*2128 FILLER_27_32
*2124 FILLER_27_7
*2129 FILLER_27_87
*2130 FILLER_27_94
*2143 FILLER_28_0
*2152 FILLER_28_107
*2153 FILLER_28_114
*2154 FILLER_28_118
*2155 FILLER_28_132
*2156 FILLER_28_137
*2145 FILLER_28_14
*2157 FILLER_28_144
*2158 FILLER_28_161
*2159 FILLER_28_168
*2160 FILLER_28_182
*2146 FILLER_28_21
*2161 FILLER_28_211
*2162 FILLER_28_242
*2163 FILLER_28_244
*2164 FILLER_28_254
*2165 FILLER_28_262
*2166 FILLER_28_266
*2147 FILLER_28_28
*2167 FILLER_28_280
*2168 FILLER_28_287
*2169 FILLER_28_291
*2148 FILLER_28_35
*2149 FILLER_28_42
*2150 FILLER_28_62
*2151 FILLER_28_69
*2144 FILLER_28_7
*2170 FILLER_29_0
*2179 FILLER_29_122
*2172 FILLER_29_14
*2180 FILLER_29_159
*2181 FILLER_29_163
*2182 FILLER_29_169
*2183 FILLER_29_181
*2184 FILLER_29_188
*2185 FILLER_29_195
*2173 FILLER_29_21
*2186 FILLER_29_234
*2187 FILLER_29_277
*2188 FILLER_29_284
*2174 FILLER_29_29
*2189 FILLER_29_292
*2175 FILLER_29_60
*2176 FILLER_29_67
*2171 FILLER_29_7
*2177 FILLER_29_74
*2178 FILLER_29_78
*1530 FILLER_2_0
*1545 FILLER_2_105
*1546 FILLER_2_112
*1547 FILLER_2_119
*1548 FILLER_2_131
*1549 FILLER_2_136
*1532 FILLER_2_14
*1550 FILLER_2_143
*1551 FILLER_2_150
*1552 FILLER_2_156
*1553 FILLER_2_189
*1554 FILLER_2_196
*1555 FILLER_2_207
*1533 FILLER_2_21
*1556 FILLER_2_214
*1557 FILLER_2_218
*1558 FILLER_2_256
*1559 FILLER_2_260
*1534 FILLER_2_28
*1560 FILLER_2_292
*1535 FILLER_2_35
*1536 FILLER_2_42
*1537 FILLER_2_49
*1538 FILLER_2_56
*1539 FILLER_2_63
*1531 FILLER_2_7
*1540 FILLER_2_70
*1541 FILLER_2_77
*1542 FILLER_2_84
*1543 FILLER_2_91
*1544 FILLER_2_98
*2197 FILLER_30_107
*2198 FILLER_30_111
*2199 FILLER_30_125
*2200 FILLER_30_132
*2201 FILLER_30_147
*2202 FILLER_30_154
*2191 FILLER_30_16
*2203 FILLER_30_161
*2192 FILLER_30_23
*2204 FILLER_30_236
*2205 FILLER_30_250
*2206 FILLER_30_260
*2207 FILLER_30_288
*2208 FILLER_30_292
*2193 FILLER_30_39
*2194 FILLER_30_46
*2195 FILLER_30_53
*2196 FILLER_30_57
*2190 FILLER_30_9
*2209 FILLER_31_0
*2220 FILLER_31_137
*2211 FILLER_31_14
*2221 FILLER_31_144
*2222 FILLER_31_155
*2223 FILLER_31_162
*2224 FILLER_31_187
*2212 FILLER_31_21
*2225 FILLER_31_242
*2226 FILLER_31_244
*2227 FILLER_31_272
*2213 FILLER_31_28
*2228 FILLER_31_280
*2229 FILLER_31_287
*2230 FILLER_31_291
*2214 FILLER_31_35
*2215 FILLER_31_42
*2216 FILLER_31_49
*2217 FILLER_31_56
*2218 FILLER_31_60
*2210 FILLER_31_7
*2219 FILLER_31_99
*2231 FILLER_32_0
*2241 FILLER_32_110
*2242 FILLER_32_115
*2243 FILLER_32_117
*2233 FILLER_32_13
*2244 FILLER_32_143
*2245 FILLER_32_150
*2246 FILLER_32_157
*2247 FILLER_32_199
*2234 FILLER_32_20
*2248 FILLER_32_203
*2249 FILLER_32_208
*2250 FILLER_32_214
*2235 FILLER_32_27
*2251 FILLER_32_278
*2252 FILLER_32_285
*2253 FILLER_32_292
*2236 FILLER_32_34
*2237 FILLER_32_41
*2238 FILLER_32_48
*2239 FILLER_32_55
*2240 FILLER_32_59
*2232 FILLER_32_6
*2267 FILLER_33_102
*2268 FILLER_33_107
*2269 FILLER_33_114
*2270 FILLER_33_118
*2271 FILLER_33_129
*2272 FILLER_33_134
*2273 FILLER_33_141
*2274 FILLER_33_148
*2255 FILLER_33_15
*2275 FILLER_33_155
*2276 FILLER_33_162
*2277 FILLER_33_173
*2278 FILLER_33_175
*2279 FILLER_33_180
*2280 FILLER_33_186
*2281 FILLER_33_197
*2282 FILLER_33_199
*2283 FILLER_33_213
*2256 FILLER_33_22
*2284 FILLER_33_223
*2285 FILLER_33_230
*2286 FILLER_33_268
*2287 FILLER_33_275
*2288 FILLER_33_280
*2289 FILLER_33_287
*2257 FILLER_33_29
*2290 FILLER_33_291
*2258 FILLER_33_36
*2259 FILLER_33_43
*2260 FILLER_33_50
*2261 FILLER_33_57
*2262 FILLER_33_64
*2263 FILLER_33_71
*2264 FILLER_33_78
*2254 FILLER_33_8
*2265 FILLER_33_90
*2266 FILLER_33_96
*2291 FILLER_34_0
*2304 FILLER_34_104
*2305 FILLER_34_115
*2306 FILLER_34_119
*2294 FILLER_34_12
*2307 FILLER_34_124
*2308 FILLER_34_141
*2309 FILLER_34_148
*2310 FILLER_34_155
*2311 FILLER_34_159
*2312 FILLER_34_173
*2313 FILLER_34_179
*2314 FILLER_34_186
*2295 FILLER_34_19
*2315 FILLER_34_193
*2316 FILLER_34_197
*2292 FILLER_34_2
*2317 FILLER_34_205
*2318 FILLER_34_207
*2319 FILLER_34_212
*2320 FILLER_34_214
*2321 FILLER_34_242
*2296 FILLER_34_26
*2322 FILLER_34_273
*2323 FILLER_34_280
*2324 FILLER_34_287
*2325 FILLER_34_291
*2297 FILLER_34_33
*2298 FILLER_34_41
*2299 FILLER_34_48
*2300 FILLER_34_55
*2301 FILLER_34_62
*2302 FILLER_34_66
*2293 FILLER_34_7
*2303 FILLER_34_94
*2326 FILLER_35_0
*2340 FILLER_35_106
*2341 FILLER_35_113
*2342 FILLER_35_118
*2343 FILLER_35_123
*2344 FILLER_35_128
*2345 FILLER_35_133
*2346 FILLER_35_139
*2328 FILLER_35_14
*2347 FILLER_35_146
*2348 FILLER_35_152
*2349 FILLER_35_159
*2329 FILLER_35_21
*2350 FILLER_35_211
*2351 FILLER_35_213
*2352 FILLER_35_231
*2353 FILLER_35_233
*2354 FILLER_35_243
*2355 FILLER_35_272
*2356 FILLER_35_280
*2357 FILLER_35_287
*2330 FILLER_35_33
*2331 FILLER_35_47
*2332 FILLER_35_53
*2333 FILLER_35_60
*2334 FILLER_35_67
*2327 FILLER_35_7
*2335 FILLER_35_74
*2336 FILLER_35_78
*2337 FILLER_35_92
*2338 FILLER_35_94
*2339 FILLER_35_99
*1561 FILLER_3_0
*1576 FILLER_3_105
*1577 FILLER_3_109
*1578 FILLER_3_138
*1563 FILLER_3_14
*1579 FILLER_3_179
*1580 FILLER_3_183
*1564 FILLER_3_21
*1581 FILLER_3_219
*1582 FILLER_3_247
*1583 FILLER_3_251
*1584 FILLER_3_279
*1565 FILLER_3_28
*1566 FILLER_3_35
*1567 FILLER_3_42
*1568 FILLER_3_49
*1569 FILLER_3_56
*1570 FILLER_3_63
*1562 FILLER_3_7
*1571 FILLER_3_70
*1572 FILLER_3_77
*1573 FILLER_3_84
*1574 FILLER_3_91
*1575 FILLER_3_98
*1585 FILLER_4_0
*1600 FILLER_4_105
*1601 FILLER_4_109
*1587 FILLER_4_14
*1602 FILLER_4_141
*1603 FILLER_4_148
*1604 FILLER_4_167
*1605 FILLER_4_174
*1606 FILLER_4_181
*1607 FILLER_4_188
*1608 FILLER_4_199
*1609 FILLER_4_203
*1610 FILLER_4_207
*1588 FILLER_4_21
*1611 FILLER_4_214
*1612 FILLER_4_256
*1613 FILLER_4_278
*1589 FILLER_4_28
*1614 FILLER_4_291
*1590 FILLER_4_35
*1591 FILLER_4_42
*1592 FILLER_4_49
*1593 FILLER_4_56
*1594 FILLER_4_63
*1586 FILLER_4_7
*1595 FILLER_4_70
*1596 FILLER_4_77
*1597 FILLER_4_84
*1598 FILLER_4_91
*1599 FILLER_4_98
*1615 FILLER_5_0
*1630 FILLER_5_102
*1631 FILLER_5_109
*1632 FILLER_5_116
*1633 FILLER_5_120
*1634 FILLER_5_135
*1617 FILLER_5_14
*1635 FILLER_5_142
*1636 FILLER_5_153
*1637 FILLER_5_162
*1638 FILLER_5_171
*1639 FILLER_5_178
*1640 FILLER_5_185
*1641 FILLER_5_192
*1642 FILLER_5_197
*1643 FILLER_5_204
*1618 FILLER_5_21
*1644 FILLER_5_211
*1645 FILLER_5_218
*1646 FILLER_5_229
*1619 FILLER_5_28
*1647 FILLER_5_285
*1648 FILLER_5_291
*1620 FILLER_5_35
*1621 FILLER_5_42
*1622 FILLER_5_49
*1623 FILLER_5_56
*1624 FILLER_5_63
*1625 FILLER_5_67
*1616 FILLER_5_7
*1626 FILLER_5_75
*1627 FILLER_5_81
*1628 FILLER_5_88
*1629 FILLER_5_95
*1649 FILLER_6_0
*1659 FILLER_6_106
*1660 FILLER_6_108
*1661 FILLER_6_136
*1662 FILLER_6_138
*1651 FILLER_6_14
*1663 FILLER_6_178
*1652 FILLER_6_21
*1664 FILLER_6_223
*1665 FILLER_6_225
*1666 FILLER_6_251
*1667 FILLER_6_259
*1668 FILLER_6_263
*1669 FILLER_6_274
*1653 FILLER_6_28
*1654 FILLER_6_35
*1655 FILLER_6_39
*1656 FILLER_6_68
*1650 FILLER_6_7
*1657 FILLER_6_76
*1658 FILLER_6_78
*1670 FILLER_7_0
*1681 FILLER_7_101
*1682 FILLER_7_103
*1683 FILLER_7_136
*1684 FILLER_7_143
*1685 FILLER_7_150
*1686 FILLER_7_154
*1672 FILLER_7_17
*1687 FILLER_7_196
*1688 FILLER_7_203
*1689 FILLER_7_205
*1690 FILLER_7_233
*1673 FILLER_7_24
*1691 FILLER_7_286
*1692 FILLER_7_288
*1674 FILLER_7_31
*1675 FILLER_7_38
*1676 FILLER_7_45
*1677 FILLER_7_52
*1678 FILLER_7_56
*1671 FILLER_7_7
*1679 FILLER_7_87
*1680 FILLER_7_94
*1693 FILLER_8_0
*1696 FILLER_8_106
*1697 FILLER_8_113
*1698 FILLER_8_115
*1699 FILLER_8_120
*1700 FILLER_8_122
*1701 FILLER_8_150
*1702 FILLER_8_157
*1703 FILLER_8_161
*1704 FILLER_8_192
*1705 FILLER_8_197
*1706 FILLER_8_204
*1707 FILLER_8_211
*1708 FILLER_8_218
*1709 FILLER_8_225
*1710 FILLER_8_232
*1711 FILLER_8_236
*1712 FILLER_8_247
*1713 FILLER_8_251
*1714 FILLER_8_283
*1695 FILLER_8_35
*1694 FILLER_8_7
*1724 FILLER_9_115
*1725 FILLER_9_120
*1726 FILLER_9_124
*1727 FILLER_9_156
*1728 FILLER_9_158
*1729 FILLER_9_172
*1730 FILLER_9_176
*1731 FILLER_9_203
*1732 FILLER_9_210
*1733 FILLER_9_217
*1734 FILLER_9_224
*1735 FILLER_9_231
*1736 FILLER_9_235
*1737 FILLER_9_277
*1738 FILLER_9_282
*1716 FILLER_9_37
*1717 FILLER_9_39
*1718 FILLER_9_53
*1719 FILLER_9_60
*1720 FILLER_9_76
*1715 FILLER_9_8
*1721 FILLER_9_83
*1722 FILLER_9_90
*1723 FILLER_9_94
*788 _256_
*789 _257_
*790 _258_
*791 _259_
*792 _260_
*793 _261_
*794 _262_
*795 _263_
*796 _264_
*797 _265_
*798 _266_
*799 _267_
*800 _268_
*801 _269_
*802 _270_
*803 _271_
*804 _272_
*805 _273_
*806 _274_
*807 _275_
*808 _276_
*809 _277_
*810 _278_
*811 _279_
*812 _280_
*813 _281_
*814 _282_
*815 _283_
*816 _284_
*817 _285_
*818 _286_
*819 _287_
*820 _288_
*821 _289_
*822 _290_
*823 _291_
*824 _292_
*825 _293_
*826 _294_
*827 _295_
*828 _296_
*829 _297_
*830 _298_
*831 _299_
*832 _300_
*834 _302_
*835 _303_
*836 _304_
*837 _305_
*838 _306_
*839 _307_
*840 _308_
*841 _309_
*842 _310_
*843 _311_
*844 _312_
*845 _313_
*846 _314_
*847 _315_
*848 _316_
*849 _317_
*851 _319_
*852 _320_
*853 _321_
*854 _322_
*855 _323_
*856 _324_
*857 _325_
*858 _326_
*859 _327_
*860 _328_
*861 _329_
*862 _330_
*863 _331_
*864 _332_
*865 _333_
*866 _334_
*867 _335_
*868 _336_
*870 _338_
*871 _339_
*872 _340_
*873 _341_
*874 _342_
*875 _343_
*876 _344_
*877 _345_
*878 _346_
*879 _347_
*880 _348_
*881 _349_
*882 _350_
*883 _351_
*884 _352_
*885 _353_
*886 _354_
*887 _355_
*888 _356_
*889 _357_
*890 _358_
*891 _359_
*892 _360_
*893 _361_
*894 _362_
*895 _363_
*896 _364_
*897 _365_
*898 _366_
*899 _367_
*900 _368_
*901 _369_
*902 _370_
*903 _371_
*904 _372_
*905 _373_
*906 _374_
*907 _375_
*908 _376_
*909 _377_
*910 _378_
*911 _379_
*912 _380_
*913 _381_
*914 _382_
*915 _383_
*916 _384_
*917 _385_
*918 _386_
*919 _387_
*920 _388_
*921 _389_
*923 _391_
*924 _392_
*925 _393_
*926 _394_
*927 _395_
*928 _396_
*929 _397_
*930 _398_
*931 _399_
*932 _400_
*933 _401_
*934 _402_
*935 _403_
*936 _404_
*937 _405_
*938 _406_
*939 _407_
*940 _408_
*941 _409_
*942 _410_
*943 _411_
*944 _412_
*945 _413_
*946 _414_
*947 _415_
*948 _416_
*949 _417_
*950 _418_
*951 _419_
*952 _420_
*953 _421_
*954 _422_
*955 _423_
*956 _424_
*957 _425_
*958 _426_
*959 _427_
*960 _428_
*961 _429_
*962 _430_
*963 _431_
*964 _432_
*966 _434_
*967 _435_
*968 _436_
*969 _437_
*970 _438_
*971 _439_
*972 _440_
*973 _441_
*974 _442_
*975 _443_
*976 _444_
*977 _445_
*978 _446_
*979 _447_
*980 _448_
*981 _449_
*982 _450_
*983 _451_
*984 _452_
*985 _453_
*986 _454_
*987 _455_
*988 _456_
*989 _457_
*990 _458_
*991 _459_
*992 _460_
*993 _461_
*994 _462_
*995 _463_
*996 _464_
*997 _465_
*998 _466_
*999 _467_
*1000 _468_
*1001 _469_
*1002 _470_
*1003 _471_
*1004 _472_
*1005 _473_
*1006 _474_
*1007 _475_
*1008 _476_
*1009 _477_
*1010 _478_
*1011 _479_
*1012 _480_
*1013 _481_
*1014 _482_
*1015 _483_
*1016 _484_
*1017 _485_
*1018 _486_
*1019 _487_
*1020 _488_
*1021 _489_
*1022 _490_
*1023 _491_
*1024 _492_
*1025 _493_
*1026 _494_
*1027 _495_
*1028 _496_
*1029 _497_
*1030 _498_
*1031 _499_
*1032 _500_
*1033 _501_
*1034 _502_
*1035 _503_
*1036 _504_
*1037 _505_
*1038 _506_
*1039 _507_
*1040 _508_
*1041 _509_
*1042 _510_
*1043 _511_
*1044 _512_
*1045 _513_
*1046 _514_
*1047 _515_
*1048 _516_
*1049 _517_
*1050 _518_
*1051 _519_
*1052 _520_
*1053 _521_
*1054 _522_
*1055 _523_
*1056 _524_
*1057 _525_
*1058 _526_
*1059 _527_
*1060 _528_
*1061 _529_
*1062 _530_
*1063 _531_
*1064 _532_
*1065 _533_
*1066 _534_
*1067 _535_
*1068 _536_
*1069 _537_
*1070 _538_
*1071 _539_
*1072 _540_
*1073 _541_
*1074 _542_
*1075 _543_
*1076 _544_
*1077 _545_
*1078 _546_
*1079 _547_
*1080 _548_
*1081 _549_
*1082 _550_
*1083 _551_
*1084 _552_
*1085 _553_
*1086 _554_
*1087 _555_
*1088 _556_
*1089 _557_
*1090 _558_
*1091 _559_
*1092 _560_
*1093 _561_
*1094 _562_
*1095 _563_
*1096 _564_
*1097 _565_
*1098 _566_
*1099 _567_
*1100 _568_
*1101 _569_
*1102 _570_
*1103 _571_
*1104 _572_
*1105 _573_
*1106 _574_
*1107 _575_
*1108 _576_
*1109 _577_
*1110 _578_
*1111 _579_
*1112 _580_
*1113 _581_
*1114 _582_
*1115 _583_
*1116 _584_
*1117 _585_
*1118 _586_
*1119 _587_
*1120 _588_
*1121 _589_
*1122 _590_
*1123 _591_
*1124 _592_
*1125 _593_
*1126 _594_
*1127 _595_
*1128 _596_
*1129 _597_
*1130 _598_
*1131 _599_
*1132 _600_
*1133 _601_
*1134 _602_
*1135 _603_
*1136 _604_
*1137 _605_
*1138 _606_
*1139 _607_
*1140 _608_
*1141 _609_
*1142 _610_
*1143 _611_
*1144 _612_
*1145 _613_
*1274 _613__22
*1147 _614_
*1148 _615_
*1149 _616_
*1150 _617_
*1151 _618_
*1146 _618__23
*1153 _619_
*1152 _619__24
*1155 _620_
*1156 _621_
*1157 _622_
*1158 _623_
*1159 _624_
*1160 _625_
*1161 _626_
*1162 _627_
*1163 _628_
*1164 _629_
*1165 _630_
*1166 _631_
*1167 _632_
*1168 _633_
*1169 _634_
*1170 _635_
*1171 _636_
*1172 _637_
*1173 _638_
*1174 _639_
*1175 _640_
*1176 _641_
*1177 _642_
*1178 _643_
*1179 _644_
*1180 _645_
*1181 _646_
*1182 _647_
*1183 _648_
*1184 _649_
*1185 _650_
*1186 _651_
*1187 _652_
*1188 _653_
*1154 _653__25
*1327 _658__2
*1193 _659__3
*1195 _660__4
*1197 _661__5
*1199 _662__6
*1201 _663__7
*1203 _664__8
*1205 _665__9
*1207 _666__10
*1209 _667__11
*1211 _668__12
*1213 _669__13
*1215 _670__14
*1217 _671__15
*1219 _704__16
*1253 _715__17
*1265 _716__18
*1267 _717__19
*1269 _719__20
*1272 _720__21
*1350 clkbuf_0_clk_i
*1339 clkbuf_4_0_0_clk_i
*1346 clkbuf_4_10_0_clk_i
*1343 clkbuf_4_11_0_clk_i
*1347 clkbuf_4_12_0_clk_i
*1342 clkbuf_4_13_0_clk_i
*1357 clkbuf_4_14_0_clk_i
*1358 clkbuf_4_15_0_clk_i
*1333 clkbuf_4_1_0_clk_i
*1329 clkbuf_4_2_0_clk_i
*1336 clkbuf_4_3_0_clk_i
*1335 clkbuf_4_4_0_clk_i
*1204 clkbuf_4_5_0_clk_i
*1356 clkbuf_4_6_0_clk_i
*1332 clkbuf_4_7_0_clk_i
*1331 clkbuf_4_8_0_clk_i
*1208 clkbuf_4_9_0_clk_i
*1359 clkbuf_5_0__f_clk_i
*1369 clkbuf_5_10__f_clk_i
*1370 clkbuf_5_11__f_clk_i
*1371 clkbuf_5_12__f_clk_i
*1372 clkbuf_5_13__f_clk_i
*1373 clkbuf_5_14__f_clk_i
*1374 clkbuf_5_15__f_clk_i
*1375 clkbuf_5_16__f_clk_i
*1376 clkbuf_5_17__f_clk_i
*1377 clkbuf_5_18__f_clk_i
*1378 clkbuf_5_19__f_clk_i
*1360 clkbuf_5_1__f_clk_i
*1379 clkbuf_5_20__f_clk_i
*1380 clkbuf_5_21__f_clk_i
*1381 clkbuf_5_22__f_clk_i
*1382 clkbuf_5_23__f_clk_i
*1383 clkbuf_5_24__f_clk_i
*1384 clkbuf_5_25__f_clk_i
*1385 clkbuf_5_26__f_clk_i
*1386 clkbuf_5_27__f_clk_i
*1387 clkbuf_5_28__f_clk_i
*1388 clkbuf_5_29__f_clk_i
*1361 clkbuf_5_2__f_clk_i
*1389 clkbuf_5_30__f_clk_i
*1390 clkbuf_5_31__f_clk_i
*1362 clkbuf_5_3__f_clk_i
*1363 clkbuf_5_4__f_clk_i
*1364 clkbuf_5_5__f_clk_i
*1365 clkbuf_5_6__f_clk_i
*1366 clkbuf_5_7__f_clk_i
*1367 clkbuf_5_8__f_clk_i
*1368 clkbuf_5_9__f_clk_i
*1391 clkload0
*1392 clkload1
*1393 clkload2
*1394 clkload3
*1395 clkload4
*1396 clkload5
*1397 clkload6
*1398 clkload7
*1399 clkload8
*1400 hold241
*1401 hold242
*1402 hold243
*1403 hold244
*1404 hold245
*1405 hold246
*1406 hold247
*1407 hold248
*1408 hold249
*1409 hold250
*1410 hold251
*1411 hold252
*1412 hold253
*1413 hold254
*1414 hold255
*1415 hold256
*1416 hold257
*1417 hold258
*1418 hold259
*1419 hold260
*1420 hold261
*1421 hold262
*1422 hold263
*1423 hold264
*1424 hold265
*1425 hold266
*1426 hold267
*1427 hold268
*1428 hold269
*1429 hold270
*1430 hold271
*1431 hold272
*1432 hold273
*1433 hold274
*1434 hold275
*1435 hold276
*1436 hold277
*1437 hold278
*1438 hold279
*1439 hold280
*1440 hold281
*1441 hold282
*1442 hold283
*1443 hold284
*1444 hold285
*1445 hold286
*1446 hold287
*1447 hold288
*1448 hold289
*1449 hold290
*1450 hold291
*1451 hold292
*1452 hold293
*1453 hold294
*1454 hold295
*1455 hold296
*1456 hold297
*1457 hold298
*1458 hold299
*1459 hold300
*1460 hold301
*1461 hold302
*1462 hold303
*1463 hold304
*1464 hold305
*1465 hold306
*1466 hold307
*1326 input26
*1325 input27
*1324 input28
*1323 input29
*1322 input30
*1321 input31
*1320 input32
*1319 input33
*1318 input34
*1317 input35
*1316 input36
*1315 input37
*1314 input38
*1313 input39
*1312 input40
*1311 input41
*1310 input42
*1309 input43
*1308 input44
*1307 input45
*1306 input46
*1305 input47
*1304 input48
*1303 input49
*1302 input50
*1301 input51
*1300 input52
*1299 input53
*1298 input54
*1297 input55
*1296 input56
*1295 input57
*1294 input58
*1293 input59
*1292 input60
*1291 input61
*1290 input62
*1289 input63
*1288 input64
*1287 input65
*1286 input66
*1285 input67
*1284 input68
*1283 input69
*1282 input70
*1281 input71
*1280 input72
*1246 output100
*1245 output101
*1244 output102
*1243 output103
*1242 output104
*1241 output105
*1240 output106
*1239 output107
*1238 output108
*1237 output109
*1236 output110
*1235 output111
*1234 output112
*1233 output113
*1232 output114
*1231 output115
*1230 output116
*1229 output117
*1228 output118
*1227 output119
*1226 output120
*1225 output121
*1224 output122
*1223 output123
*1222 output124
*1221 output125
*1220 output126
*1218 output127
*1216 output128
*1214 output129
*1212 output130
*1279 output73
*1278 output74
*1277 output75
*1276 output76
*1275 output77
*1273 output78
*1271 output79
*1270 output80
*1268 output81
*1266 output82
*1264 output83
*1263 output84
*1262 output85
*1261 output86
*1260 output87
*1259 output88
*1258 output89
*1257 output90
*1256 output91
*1255 output92
*1254 output93
*1252 output94
*1251 output95
*1250 output96
*1249 output97
*1248 output98
*1247 output99
*1352 place209
*1351 place210
*1349 place211
*1354 place212
*1355 place213
*1210 place214
*1206 place215
*1202 place216
*1196 place217
*1200 place218
*1192 place219
*1191 place220
*1353 place221
*1338 place222
*1190 place223
*1194 place224
*965 place225
*922 place226
*1189 place227
*1330 place228
*850 place229
*833 place230
*1328 place231
*869 place232
*1198 place233
*1341 place234
*1337 place235
*1344 place236
*1345 place237
*1334 place238
*1340 place239
*1348 place240

*PORTS
cio_gpio_en_o[0] O
cio_gpio_en_o[1] O
cio_gpio_en_o[2] O
cio_gpio_en_o[3] O
cio_gpio_i[0] I
cio_gpio_i[1] I
cio_gpio_i[2] I
cio_gpio_i[3] I
cio_gpio_o[0] O
cio_gpio_o[1] O
cio_gpio_o[2] O
cio_gpio_o[3] O
clk_i I
intr_gpio_o[0] O
intr_gpio_o[1] O
intr_gpio_o[2] O
intr_gpio_o[3] O
rst_ni I
tl_i[0] I
tl_i[100] I
tl_i[101] I
tl_i[102] I
tl_i[103] I
tl_i[104] I
tl_i[105] I
tl_i[106] I
tl_i[107] I
tl_i[108] I
tl_i[10] I
tl_i[11] I
tl_i[12] I
tl_i[13] I
tl_i[14] I
tl_i[15] I
tl_i[16] I
tl_i[17] I
tl_i[18] I
tl_i[19] I
tl_i[1] I
tl_i[20] I
tl_i[21] I
tl_i[22] I
tl_i[23] I
tl_i[24] I
tl_i[25] I
tl_i[26] I
tl_i[27] I
tl_i[28] I
tl_i[29] I
tl_i[2] I
tl_i[30] I
tl_i[31] I
tl_i[32] I
tl_i[33] I
tl_i[34] I
tl_i[35] I
tl_i[36] I
tl_i[37] I
tl_i[38] I
tl_i[39] I
tl_i[3] I
tl_i[40] I
tl_i[41] I
tl_i[42] I
tl_i[43] I
tl_i[44] I
tl_i[45] I
tl_i[46] I
tl_i[47] I
tl_i[48] I
tl_i[49] I
tl_i[4] I
tl_i[50] I
tl_i[51] I
tl_i[52] I
tl_i[53] I
tl_i[54] I
tl_i[55] I
tl_i[56] I
tl_i[57] I
tl_i[58] I
tl_i[59] I
tl_i[5] I
tl_i[60] I
tl_i[61] I
tl_i[62] I
tl_i[63] I
tl_i[64] I
tl_i[65] I
tl_i[66] I
tl_i[67] I
tl_i[68] I
tl_i[69] I
tl_i[6] I
tl_i[70] I
tl_i[71] I
tl_i[72] I
tl_i[73] I
tl_i[74] I
tl_i[75] I
tl_i[76] I
tl_i[77] I
tl_i[78] I
tl_i[79] I
tl_i[7] I
tl_i[80] I
tl_i[81] I
tl_i[82] I
tl_i[83] I
tl_i[84] I
tl_i[85] I
tl_i[86] I
tl_i[87] I
tl_i[88] I
tl_i[89] I
tl_i[8] I
tl_i[90] I
tl_i[91] I
tl_i[92] I
tl_i[93] I
tl_i[94] I
tl_i[95] I
tl_i[96] I
tl_i[97] I
tl_i[98] I
tl_i[99] I
tl_i[9] I
tl_o[0] O
tl_o[10] O
tl_o[11] O
tl_o[12] O
tl_o[13] O
tl_o[14] O
tl_o[15] O
tl_o[16] O
tl_o[17] O
tl_o[18] O
tl_o[19] O
tl_o[1] O
tl_o[20] O
tl_o[21] O
tl_o[22] O
tl_o[23] O
tl_o[24] O
tl_o[25] O
tl_o[26] O
tl_o[27] O
tl_o[28] O
tl_o[29] O
tl_o[2] O
tl_o[30] O
tl_o[31] O
tl_o[32] O
tl_o[33] O
tl_o[34] O
tl_o[35] O
tl_o[36] O
tl_o[37] O
tl_o[38] O
tl_o[39] O
tl_o[3] O
tl_o[40] O
tl_o[41] O
tl_o[42] O
tl_o[43] O
tl_o[44] O
tl_o[45] O
tl_o[46] O
tl_o[47] O
tl_o[48] O
tl_o[49] O
tl_o[4] O
tl_o[50] O
tl_o[51] O
tl_o[52] O
tl_o[53] O
tl_o[54] O
tl_o[55] O
tl_o[56] O
tl_o[57] O
tl_o[58] O
tl_o[59] O
tl_o[5] O
tl_o[60] O
tl_o[61] O
tl_o[62] O
tl_o[63] O
tl_o[64] O
tl_o[65] O
tl_o[6] O
tl_o[7] O
tl_o[8] O
tl_o[9] O

*D_NET *1 0.000455236
*CONN
*I *1142:D I *D sg13g2_dfrbpq_1
*I *835:Y O *D sg13g2_a21oi_1
*CAP
1 *1142:D 0.000227618
2 *835:Y 0.000227618
3 *1142:D *835:B1 0
4 *1142:D *685:40 0
*RES
1 *835:Y *1142:D 41.6808 
*END

*D_NET *2 0.000272256
*CONN
*I *1141:D I *D sg13g2_dfrbpq_1
*I *836:X O *D sg13g2_mux2_1
*CAP
1 *1141:D 0.000136128
2 *836:X 0.000136128
3 *1141:D *834:A 0
*RES
1 *836:X *1141:D 41.3904 
*END

*D_NET *3 0.00137251
*CONN
*I *1140:D I *D sg13g2_dfrbpq_1
*I *837:X O *D sg13g2_mux2_1
*CAP
1 *1140:D 0
2 *837:X 0.000428039
3 *3:10 0.000428039
4 *3:10 *834:A 0.000339097
5 *3:10 *348:46 0.000177334
6 *3:10 *395:30 0
7 *3:10 *680:87 0
*RES
1 *837:X *3:10 43.7136 
2 *3:10 *1140:D 40 
*END

*D_NET *4 0.00080769
*CONN
*I *1138:D I *D sg13g2_dfrbpq_1
*I *838:X O *D sg13g2_mux2_1
*CAP
1 *1138:D 0.000218803
2 *838:X 0.000145
3 *4:8 0.000363803
4 *1138:D *790:S 0
5 *1138:D *1345:A 0
6 *1138:D *353:43 0
7 *1138:D *410:10 8.00842e-05
8 *1138:D *675:8 0
9 *1138:D *684:71 0
10 *4:8 *368:25 0
*RES
1 *838:X *4:8 41.144 
2 *4:8 *1138:D 41.936 
*END

*D_NET *5 0.000268606
*CONN
*I *1137:D I *D sg13g2_dfrbpq_1
*I *839:X O *D sg13g2_mux2_1
*CAP
1 *1137:D 9.41404e-05
2 *839:X 9.41404e-05
3 *1137:D *1378:A 0
4 *1137:D *603:14 8.03256e-05
*RES
1 *839:X *1137:D 40.968 
*END

*D_NET *6 0.0016949
*CONN
*I *1136:D I *D sg13g2_dfrbpq_1
*I *840:X O *D sg13g2_mux2_1
*CAP
1 *1136:D 0
2 *840:X 0.00037529
3 *6:10 0.00037529
4 *6:10 *1378:A 0.000306739
5 *6:10 *351:12 0
6 *6:10 *368:25 0.000235228
7 *6:10 *409:18 0.000274189
8 *6:10 *603:8 0
9 *6:10 *708:12 0
10 *6:10 *708:18 0.00012816
*RES
1 *840:X *6:10 43.9512 
2 *6:10 *1136:D 40 
*END

*D_NET *7 0.0024479
*CONN
*I *1134:D I *D sg13g2_dfrbpq_1
*I *841:X O *D sg13g2_mux2_1
*CAP
1 *1134:D 0.000763499
2 *841:X 0.000763499
3 *1134:D *1354:A 0
4 *1134:D *351:26 0.000371824
5 *1134:D *684:10 4.77866e-05
6 *1134:D *684:71 0.000501293
*RES
1 *841:X *1134:D 46.3008 
*END

*D_NET *8 0.00262664
*CONN
*I *1133:D I *D sg13g2_dfrbpq_1
*I *842:X O *D sg13g2_mux2_1
*CAP
1 *1133:D 0
2 *842:X 0.000578189
3 *8:10 0.000578189
4 *8:10 *842:A1 0
5 *8:10 *912:B1 0.000274452
6 *8:10 *1135:CLK 0.000479789
7 *8:10 *1139:CLK 0.000128662
8 *8:10 *113:18 0
9 *8:10 *113:20 0
10 *8:10 *405:12 0
11 *8:10 *702:10 0.000373089
12 *8:10 *702:32 0.000214271
*RES
1 *842:X *8:10 46.908 
2 *8:10 *1133:D 40 
*END

*D_NET *9 0.00382585
*CONN
*I *1132:D I *D sg13g2_dfrbpq_1
*I *843:X O *D sg13g2_mux2_1
*CAP
1 *1132:D 0
2 *843:X 0.00110445
3 *9:10 0.00110445
4 *9:10 *910:B1 0
5 *9:10 *1132:RESET_B 0.000825422
6 *9:10 *1186:RESET_B 0.000128247
7 *9:10 *127:27 0.000663275
8 *9:10 *272:18 0
9 *9:10 *675:57 0
*RES
1 *843:X *9:10 49.548 
2 *9:10 *1132:D 40 
*END

*D_NET *10 0.000259388
*CONN
*I *1130:D I *D sg13g2_dfrbpq_1
*I *844:X O *D sg13g2_mux2_1
*CAP
1 *1130:D 0.000129694
2 *844:X 0.000129694
3 *1130:D *1130:RESET_B 0
4 *1130:D *415:12 0
*RES
1 *844:X *1130:D 41.3904 
*END

*D_NET *11 0.000266902
*CONN
*I *1129:D I *D sg13g2_dfrbpq_1
*I *845:X O *D sg13g2_mux2_1
*CAP
1 *1129:D 9.33319e-05
2 *845:X 9.33319e-05
3 *1129:D *845:A1 0
4 *1129:D *1130:RESET_B 0
5 *1129:D *658:22 8.02379e-05
*RES
1 *845:X *1129:D 40.968 
*END

*D_NET *12 0.000457908
*CONN
*I *1128:D I *D sg13g2_dfrbpq_1
*I *846:X O *D sg13g2_mux2_1
*CAP
1 *1128:D 0.000228954
2 *846:X 0.000228954
3 *1128:D *1128:RESET_B 0
4 *1128:D *270:12 0
*RES
1 *846:X *1128:D 42.0504 
*END

*D_NET *13 0.000211
*CONN
*I *1126:D I *D sg13g2_dfrbpq_1
*I *847:X O *D sg13g2_mux2_1
*CAP
1 *1126:D 0.0001055
2 *847:X 0.0001055
3 *1126:D *847:A1 0
4 *1126:D *1126:RESET_B 0
*RES
1 *847:X *1126:D 40.968 
*END

*D_NET *14 0.0014145
*CONN
*I *1125:D I *D sg13g2_dfrbpq_1
*I *848:X O *D sg13g2_mux2_1
*CAP
1 *1125:D 0.000473322
2 *848:X 0.000473322
3 *1125:D *849:A0 0
4 *1125:D *967:A2 0
5 *1125:D *1078:D 0
6 *1125:D *265:14 0.000467858
*RES
1 *848:X *1125:D 44.2416 
*END

*D_NET *15 0.000808731
*CONN
*I *1124:D I *D sg13g2_dfrbpq_1
*I *849:X O *D sg13g2_mux2_1
*CAP
1 *1124:D 0.000251605
2 *849:X 0.000251605
3 *1124:D *850:A 0
4 *1124:D *949:A2 0.000305521
*RES
1 *849:X *1124:D 42.0504 
*END

*D_NET *16 0.00152329
*CONN
*I *1122:D I *D sg13g2_dfrbpq_1
*I *851:X O *D sg13g2_mux2_1
*CAP
1 *1122:D 0.000478814
2 *851:X 0.000478814
3 *1122:D *857:A0 0
4 *1122:D *1116:RESET_B 0.000339212
5 *1122:D *1122:RESET_B 0
6 *1122:D *330:12 0
7 *1122:D *667:36 0.000226446
*RES
1 *851:X *1122:D 44.0832 
*END

*D_NET *17 0.000277261
*CONN
*I *1120:D I *D sg13g2_dfrbpq_1
*I *852:X O *D sg13g2_mux2_1
*CAP
1 *1120:D 9.85887e-05
2 *852:X 9.85887e-05
3 *1120:D *857:A0 0
4 *1120:D *330:12 8.00842e-05
*RES
1 *852:X *1120:D 40.968 
*END

*D_NET *18 0.0011783
*CONN
*I *1425:A I *D sg13g2_dlygate4sd3_1
*I *853:X O *D sg13g2_mux2_1
*CAP
1 *1425:A 0.000184743
2 *853:X 0.000404408
3 *18:8 0.000589152
4 *1425:A *1066:A1 0
5 *1425:A *1081:D 0
6 *1425:A *125:10 0
7 *1425:A *297:57 0
8 *18:8 *77:8 0
9 *18:8 *297:57 0
10 *18:8 *297:102 0
11 *18:8 *537:27 0
*RES
1 *853:X *18:8 43.6784 
2 *18:8 *1425:A 41.6808 
*END

*D_NET *19 0.000197438
*CONN
*I *1118:D I *D sg13g2_dfrbpq_1
*I *854:X O *D sg13g2_mux2_1
*CAP
1 *1118:D 9.87189e-05
2 *854:X 9.87189e-05
3 *1118:D *854:S 0
4 *1118:D *1118:RESET_B 0
*RES
1 *854:X *1118:D 40.968 
*END

*D_NET *20 0.00140762
*CONN
*I *1117:D I *D sg13g2_dfrbpq_1
*I *855:X O *D sg13g2_mux2_1
*CAP
1 *1117:D 0
2 *855:X 0.000582822
3 *20:10 0.000582822
4 *20:10 *858:A0 0
5 *20:10 *23:14 0
6 *20:10 *70:8 0.000241979
7 *20:10 *532:16 0
*RES
1 *855:X *20:10 45.2712 
2 *20:10 *1117:D 40 
*END

*D_NET *21 0.00188014
*CONN
*I *1116:D I *D sg13g2_dfrbpq_1
*I *856:X O *D sg13g2_mux2_1
*CAP
1 *1116:D 0
2 *856:X 0.000556759
3 *21:10 0.000556759
4 *21:10 tl_o[51] 0
5 *21:10 *854:S 0
6 *21:10 *856:A1 0
7 *21:10 *1411:A 0
8 *21:10 *267:14 0
9 *21:10 *611:10 0
10 *21:10 *655:18 0.00037247
11 *21:10 *655:20 0.000394151
*RES
1 *856:X *21:10 44.796 
2 *21:10 *1116:D 40 
*END

*D_NET *22 0.0043316
*CONN
*I *1115:D I *D sg13g2_dfrbpq_1
*I *857:X O *D sg13g2_mux2_1
*CAP
1 *1115:D 0.00105298
2 *857:X 0.000767082
3 *22:12 0.00182006
4 *1115:D *871:A 0
5 *1115:D *1111:CLK 0
6 *1115:D *1112:CLK 0
7 *1115:D *1115:RESET_B 0
8 *1115:D *1230:A 0
9 *1115:D *1281:A 0
10 *1115:D *680:244 0
11 *1115:D *698:8 0
12 *22:12 *857:A0 0
13 *22:12 *857:A1 0
14 *22:12 *1285:A 0
15 *22:12 *1414:A 0
16 *22:12 *267:14 0
17 *22:12 *519:10 0.000292275
18 *22:12 *524:26 0
19 *22:12 *734:8 0.000399197
*RES
1 *857:X *22:12 46.9168 
2 *22:12 *1115:D 48.7296 
*END

*D_NET *23 0.00320139
*CONN
*I *1114:D I *D sg13g2_dfrbpq_1
*I *858:X O *D sg13g2_mux2_1
*CAP
1 *1114:D 0
2 *858:X 0.00113055
3 *23:14 0.00113055
4 *23:14 *855:A1 1.54118e-05
5 *23:14 *1058:S 4.77425e-05
6 *23:14 *1117:CLK 0
7 *23:14 *1118:CLK 1.54008e-05
8 *23:14 *1121:CLK 0.000241979
9 *23:14 *70:8 0
10 *23:14 *267:14 0
11 *23:14 *522:16 0.000182933
12 *23:14 *699:34 0
13 *23:14 *700:13 0.000436818
14 *23:14 *700:21 0
15 *20:10 *23:14 0
*RES
1 *858:X *23:14 49.6976 
2 *23:14 *1114:D 40 
*END

*D_NET *24 0.00111387
*CONN
*I *1112:D I *D sg13g2_dfrbpq_1
*I *870:Y O *D sg13g2_o21ai_1
*CAP
1 *1112:D 0.000412004
2 *870:Y 0.000412004
3 *1112:D tl_o[27] 0
4 *1112:D tl_o[36] 0
5 *1112:D *859:A 0.000242236
6 *1112:D *870:B1 0
7 *1112:D *516:10 4.76243e-05
*RES
1 *870:Y *1112:D 43.5288 
*END

*D_NET *25 0.00124543
*CONN
*I *1111:D I *D sg13g2_dfrbpq_1
*I *872:Y O *D sg13g2_o21ai_1
*CAP
1 *1111:D 6.76134e-05
2 *872:Y 0.000347858
3 *25:14 0.000415471
4 *1111:D tl_o[24] 0
5 *1111:D tl_o[47] 4.77425e-05
6 *1111:D *1112:RESET_B 0.000112826
7 *25:14 tl_o[24] 0.000177679
8 *25:14 *1111:RESET_B 0
9 *25:14 *1112:CLK 0
10 *25:14 *308:42 0
11 *25:14 *308:56 0
12 *25:14 *614:12 7.62389e-05
*RES
1 *872:Y *25:14 43.0712 
2 *25:14 *1111:D 40.6424 
*END

*D_NET *26 0.00168831
*CONN
*I *1110:D I *D sg13g2_dfrbpq_1
*I *874:Y O *D sg13g2_o21ai_1
*CAP
1 *1110:D 0.000204503
2 *874:Y 0.000297544
3 *26:10 0.000502047
4 *1110:D tl_o[29] 0
5 *1110:D *1103:RESET_B 1.54556e-05
6 *1110:D *630:22 0.000307095
7 *26:10 *671:55 0.000237686
8 *26:10 *681:10 4.77425e-05
9 *26:10 *681:16 7.62389e-05
*RES
1 *874:Y *26:10 42.8952 
2 *26:10 *1110:D 41.7512 
*END

*D_NET *27 9.57626e-05
*CONN
*I *1109:D I *D sg13g2_dfrbpq_1
*I *876:Y O *D sg13g2_o21ai_1
*CAP
1 *1109:D 4.78813e-05
2 *876:Y 4.78813e-05
3 *1109:D tl_o[26] 0
*RES
1 *876:Y *1109:D 40.5104 
*END

*D_NET *28 0.00141764
*CONN
*I *1108:D I *D sg13g2_dfrbpq_1
*I *878:Y O *D sg13g2_o21ai_1
*CAP
1 *1108:D 0
2 *878:Y 0.000684951
3 *28:10 0.000684951
4 *28:10 tl_o[30] 0
5 *28:10 *878:B1 4.77425e-05
6 *28:10 *878:A1 0
7 *28:10 *1234:A 0
8 *28:10 *31:10 0
*RES
1 *878:Y *28:10 46.248 
2 *28:10 *1108:D 40 
*END

*D_NET *29 0.00117148
*CONN
*I *1107:D I *D sg13g2_dfrbpq_1
*I *880:Y O *D sg13g2_o21ai_1
*CAP
1 *1107:D 0.000109323
2 *880:Y 0.000388465
3 *29:8 0.000497788
4 *1107:D tl_o[34] 0.000175908
5 *29:8 *132:8 0
6 *29:8 *691:10 0
*RES
1 *880:Y *29:8 43.4672 
2 *29:8 *1107:D 41.012 
*END

*D_NET *30 0.000969376
*CONN
*I *1106:D I *D sg13g2_dfrbpq_1
*I *882:Y O *D sg13g2_o21ai_1
*CAP
1 *1106:D 0
2 *882:Y 0.000476987
3 *30:10 0.000476987
4 *30:10 *882:B1 1.54008e-05
5 *30:10 *1106:RESET_B 0
6 *30:10 *1106:CLK 0
7 *30:10 *133:8 0
*RES
1 *882:Y *30:10 44.3472 
2 *30:10 *1106:D 40 
*END

*D_NET *31 0.00135353
*CONN
*I *1105:D I *D sg13g2_dfrbpq_1
*I *884:Y O *D sg13g2_o21ai_1
*CAP
1 *1105:D 0
2 *884:Y 0.000491598
3 *31:10 0.000491598
4 *31:10 *882:B1 1.54556e-05
5 *31:10 *1106:CLK 0
6 *31:10 *681:55 0.000339475
7 *31:10 *691:27 1.54008e-05
8 *28:10 *31:10 0
*RES
1 *884:Y *31:10 44.5584 
2 *31:10 *1105:D 40 
*END

*D_NET *32 0.000973758
*CONN
*I *1104:D I *D sg13g2_dfrbpq_1
*I *886:Y O *D sg13g2_o21ai_1
*CAP
1 *1104:D 0.000216619
2 *886:Y 0.00017192
3 *32:8 0.000388539
4 *1104:D *1104:RESET_B 0
5 *1104:D *1438:A 0
6 *1104:D *517:14 1.54008e-05
7 *32:8 *874:A2 0
8 *32:8 *135:10 0.00018128
9 *32:8 *267:14 0
*RES
1 *886:Y *32:8 41.7776 
2 *32:8 *1104:D 41.936 
*END

*D_NET *33 0.00139479
*CONN
*I *1103:D I *D sg13g2_dfrbpq_1
*I *888:Y O *D sg13g2_o21ai_1
*CAP
1 *1103:D 9.04184e-05
2 *888:Y 0.000499485
3 *33:12 0.000589904
4 *1103:D tl_o[30] 0.000144942
5 *1103:D *630:22 0
6 *33:12 *1438:A 7.00442e-05
7 *33:12 *665:12 0
8 *33:12 *679:104 0
9 *33:12 *681:43 0
*RES
1 *888:Y *33:12 44.2504 
2 *33:12 *1103:D 40.8272 
*END

*D_NET *34 0.000795178
*CONN
*I *1102:D I *D sg13g2_dfrbpq_1
*I *890:Y O *D sg13g2_o21ai_1
*CAP
1 *1102:D 0.000212535
2 *890:Y 0.000212535
3 *1102:D *674:29 0
4 *1102:D *679:51 1.54008e-05
5 *1102:D *679:60 0.000339306
6 *1102:D *679:62 1.54008e-05
*RES
1 *890:Y *1102:D 41.936 
*END

*D_NET *35 0.00226349
*CONN
*I *1101:D I *D sg13g2_dfrbpq_1
*I *893:Y O *D sg13g2_nand2_1
*CAP
1 *1101:D 0.000715749
2 *893:Y 0.000715749
3 *1101:D *893:A 4.75265e-05
4 *1101:D *894:B1 0
5 *1101:D *36:10 0
6 *1101:D *358:25 0.000529427
7 *1101:D *358:37 0
8 *1101:D *658:57 0
9 *1101:D *658:80 0.000143273
10 *1101:D *690:29 0.000111763
*RES
1 *893:Y *1101:D 46.8112 
*END

*D_NET *36 0.00164698
*CONN
*I *1100:D I *D sg13g2_dfrbpq_1
*I *895:Y O *D sg13g2_nand2_1
*CAP
1 *1100:D 0
2 *895:Y 0.000519732
3 *36:10 0.000519732
4 *36:10 *1100:RESET_B 0
5 *36:10 *358:50 0.000607517
6 *36:10 *658:80 0
7 *36:10 *682:42 0
8 *1101:D *36:10 0
*RES
1 *895:Y *36:10 44.6376 
2 *36:10 *1100:D 40 
*END

*D_NET *37 0.00244711
*CONN
*I *1099:D I *D sg13g2_dfrbpq_1
*I *897:Y O *D sg13g2_nand2_1
*CAP
1 *1099:D 0.00073443
2 *897:Y 0.000149019
3 *37:8 0.000883449
4 *1099:D *356:8 0
5 *1099:D *574:10 0
6 *1099:D *658:10 0
7 *1099:D *658:47 0.000336667
8 *1099:D *658:100 0
9 *1099:D *696:20 0
10 *1099:D *696:29 0
11 *37:8 *356:25 0.000343546
*RES
1 *897:Y *37:8 41.7776 
2 *37:8 *1099:D 46.3008 
*END

*D_NET *38 0.00100123
*CONN
*I *1098:D I *D sg13g2_dfrbpq_1
*I *899:Y O *D sg13g2_nand2_1
*CAP
1 *1098:D 0.000162972
2 *899:Y 0.00033764
3 *38:8 0.000500613
4 *1098:D *893:B 0
5 *1098:D *658:80 0
6 *38:8 *358:37 0
7 *38:8 *680:310 0
*RES
1 *899:Y *38:8 42.8336 
2 *38:8 *1098:D 41.3816 
*END

*D_NET *39 0.000447367
*CONN
*I *1097:D I *D sg13g2_dfrbpq_1
*I *901:Y O *D sg13g2_nand2_1
*CAP
1 *1097:D 0.000223683
2 *901:Y 0.000223683
3 *1097:D *902:B1 0
4 *1097:D *127:45 0
5 *1097:D *680:204 0
*RES
1 *901:Y *1097:D 41.9184 
*END

*D_NET *40 0.000575742
*CONN
*I *1096:D I *D sg13g2_dfrbpq_1
*I *903:Y O *D sg13g2_nand2_1
*CAP
1 *1096:D 7.2652e-05
2 *903:Y 0.000159008
3 *40:12 0.00023166
4 *1096:D *351:42 0
5 *1096:D *507:10 0.000112421
6 *40:12 *1101:CLK 0
*RES
1 *903:Y *40:12 41.452 
2 *40:12 *1096:D 40.6424 
*END

*D_NET *41 0.000253551
*CONN
*I *1095:D I *D sg13g2_dfrbpq_1
*I *905:Y O *D sg13g2_nand2_1
*CAP
1 *1095:D 0.000126776
2 *905:Y 0.000126776
3 *1095:D *507:10 0
4 *1095:D *680:216 0
5 *1095:D *683:83 0
*RES
1 *905:Y *1095:D 41.1792 
*END

*D_NET *42 0.000483654
*CONN
*I *1094:D I *D sg13g2_dfrbpq_1
*I *907:Y O *D sg13g2_nand2_1
*CAP
1 *1094:D 0.000206297
2 *907:Y 0.000206297
3 *1094:D *904:B1 0
4 *1094:D *1095:RESET_B 7.10607e-05
*RES
1 *907:Y *1094:D 41.584 
*END

*D_NET *43 0.00126059
*CONN
*I *1093:D I *D sg13g2_dfrbpq_1
*I *909:Y O *D sg13g2_nand2_1
*CAP
1 *1093:D 0
2 *909:Y 0.000200555
3 *43:10 0.000200555
4 *43:10 *908:A1 0
5 *43:10 *1248:A 0.000129095
6 *43:10 *1251:A 0.000153277
7 *43:10 *297:10 0.000235902
8 *43:10 *297:23 0.000128334
9 *43:10 *498:8 0.000212871
10 *43:10 *679:10 0
11 *43:10 *704:50 0
*RES
1 *909:Y *43:10 42.552 
2 *43:10 *1093:D 40 
*END

*D_NET *44 0.000765054
*CONN
*I *1092:D I *D sg13g2_dfrbpq_1
*I *911:Y O *D sg13g2_nand2_1
*CAP
1 *1092:D 0.000130666
2 *911:Y 0
3 *44:12 0.000277708
4 *44:6 0.000147042
5 *1092:D *910:B1 0.000209637
6 *1092:D *127:18 0
*RES
1 *911:Y *44:6 40 
2 *44:6 *44:12 41.5664 
3 *44:12 *1092:D 41.1968 
*END

*D_NET *45 0.000562698
*CONN
*I *1463:A I *D sg13g2_dlygate4sd3_1
*I *913:Y O *D sg13g2_nand2_1
*CAP
1 *1463:A 0.000192742
2 *913:Y 0.000192742
3 *1463:A *913:A 0.000177214
4 *1463:A *913:B 0
*RES
1 *913:Y *1463:A 41.6808 
*END

*D_NET *46 0.000627579
*CONN
*I *1090:D I *D sg13g2_dfrbpq_1
*I *915:Y O *D sg13g2_nand2_1
*CAP
1 *1090:D 0.000206182
2 *915:Y 0.000206182
3 *1090:D *127:18 7.09197e-05
4 *1090:D *675:67 0
5 *1090:D *679:38 0.000144295
*RES
1 *915:Y *1090:D 41.7952 
*END

*D_NET *47 0.00100405
*CONN
*I *1089:D I *D sg13g2_dfrbpq_1
*I *923:Y O *D sg13g2_a22oi_1
*CAP
1 *1089:D 0.000454111
2 *923:Y 0.000454111
3 *1089:D *923:B1 4.79124e-05
4 *1089:D *923:B2 4.79124e-05
5 *1089:D *940:B 0
6 *1089:D *1085:D 0
7 *1089:D *155:10 0
8 *1089:D *156:22 0
9 *1089:D *156:29 0
10 *1089:D *171:10 0
11 *1089:D *437:64 0
12 *1089:D *609:31 0
*RES
1 *923:Y *1089:D 44.1712 
*END

*D_NET *48 0.000908792
*CONN
*I *1088:D I *D sg13g2_dfrbpq_1
*I *928:Y O *D sg13g2_a22oi_1
*CAP
1 *1088:D 0
2 *928:Y 0.000246893
3 *48:10 0.000246893
4 *48:10 *928:B1 4.78195e-05
5 *48:10 *933:B2 3.23417e-05
6 *48:10 *1124:CLK 0
7 *48:10 *156:83 4.78192e-05
8 *48:10 *158:12 0.000287025
9 *48:10 *169:16 0
*RES
1 *928:Y *48:10 42.6576 
2 *48:10 *1088:D 40 
*END

*D_NET *49 0.000414102
*CONN
*I *1087:D I *D sg13g2_dfrbpq_1
*I *933:Y O *D sg13g2_a22oi_1
*CAP
1 *1087:D 0
2 *933:Y 0.000183166
3 *49:10 0.000183166
4 *49:10 *917:A 0
5 *49:10 *933:B2 4.77702e-05
6 *49:10 *933:A1 0
7 *49:10 *1390:A 0
8 *49:10 *680:153 0
9 *49:10 *720:47 0
*RES
1 *933:Y *49:10 41.6016 
2 *49:10 *1087:D 40 
*END

*D_NET *50 0.000624849
*CONN
*I *1086:D I *D sg13g2_dfrbpq_1
*I *938:Y O *D sg13g2_a22oi_1
*CAP
1 *1086:D 0.000264731
2 *938:Y 0.000264731
3 *1086:D *938:B1 4.77425e-05
4 *1086:D *938:B2 4.76452e-05
5 *1086:D *156:81 0
6 *1086:D *609:91 0
*RES
1 *938:Y *1086:D 42.2616 
*END

*D_NET *51 0.000669002
*CONN
*I *1085:D I *D sg13g2_dfrbpq_1
*I *945:Y O *D sg13g2_a22oi_1
*CAP
1 *1085:D 0.000181
2 *945:Y 0.000181
3 *1085:D *156:22 4.79124e-05
4 *1085:D *156:29 0.000259089
5 *1089:D *1085:D 0
*RES
1 *945:Y *1085:D 41.7512 
*END

*D_NET *52 0.000718379
*CONN
*I *1084:D I *D sg13g2_dfrbpq_1
*I *951:Y O *D sg13g2_a22oi_1
*CAP
1 *1084:D 6.86655e-05
2 *951:Y 5.63957e-05
3 *52:10 0.000125061
4 *52:10 *963:B2 0
5 *52:10 *403:10 0.000234128
6 *52:10 *486:23 0.000234128
*RES
1 *951:Y *52:10 41.0208 
2 *52:10 *1084:D 40.4576 
*END

*D_NET *53 0.000435529
*CONN
*I *1083:D I *D sg13g2_dfrbpq_1
*I *957:Y O *D sg13g2_a22oi_1
*CAP
1 *1083:D 4.96871e-05
2 *957:Y 0.000128035
3 *53:8 0.000177722
4 *1083:D *609:91 8.00842e-05
5 *53:8 *181:8 0
6 *53:8 *765:8 0
*RES
1 *957:Y *53:8 40.9328 
2 *53:8 *1083:D 40.4576 
*END

*D_NET *54 0.000688979
*CONN
*I *1082:D I *D sg13g2_dfrbpq_1
*I *963:Y O *D sg13g2_a22oi_1
*CAP
1 *1082:D 0.000100149
2 *963:Y 0.000196598
3 *54:10 0.000296747
4 *1082:D *963:B1 0
5 *1082:D *963:B2 8.00842e-05
6 *54:10 *963:B2 1.54008e-05
7 *54:10 *963:A1 0
8 *54:10 *185:8 0
9 *54:10 *403:10 0
*RES
1 *963:Y *54:10 41.3904 
2 *54:10 *1082:D 40.8272 
*END

*D_NET *55 0.000136716
*CONN
*I *1078:D I *D sg13g2_dfrbpq_1
*I *967:Y O *D sg13g2_o21ai_1
*CAP
1 *1078:D 6.83579e-05
2 *967:Y 6.83579e-05
3 *1078:D *849:A0 0
4 *1125:D *1078:D 0
*RES
1 *967:Y *1078:D 40.7216 
*END

*D_NET *56 0.000999635
*CONN
*I *1418:A I *D sg13g2_dlygate4sd3_1
*I *969:Y O *D sg13g2_o21ai_1
*CAP
1 *1418:A 0.000134165
2 *969:Y 8.09279e-05
3 *56:14 0.000313983
4 *56:8 0.000260747
5 *1418:A *936:A2 0.000209812
6 *1418:A *257:12 0
7 *1418:A *363:12 0
8 *56:8 *971:A1 0
9 *56:8 *163:8 0
*RES
1 *969:Y *56:8 40.5104 
2 *56:8 *56:14 41.936 
3 *56:14 *1418:A 41.1968 
*END

*D_NET *57 0.000305838
*CONN
*I *1428:A I *D sg13g2_dlygate4sd3_1
*I *971:Y O *D sg13g2_o21ai_1
*CAP
1 *1428:A 9.41773e-05
2 *971:Y 9.41773e-05
3 *1428:A *971:B1 6.96474e-05
4 *1428:A *1076:D 4.78359e-05
*RES
1 *971:Y *1428:A 41.056 
*END

*D_NET *58 0.00109631
*CONN
*I *1074:D I *D sg13g2_dfrbpq_1
*I *973:Y O *D sg13g2_o21ai_1
*CAP
1 *1074:D 0.000435899
2 *973:Y 0.000435899
3 *1074:D *973:B1 1.54008e-05
4 *1074:D *973:A2 0
5 *1074:D *1074:RESET_B 7.97045e-05
6 *1074:D *1275:A 0
7 *1074:D *182:16 0
8 *1074:D *657:44 0.00012941
9 *1074:D *685:89 0
10 *1074:D *718:8 0
11 *1074:D *718:19 0
*RES
1 *973:Y *1074:D 43.9512 
*END

*D_NET *59 0.000789491
*CONN
*I *1073:D I *D sg13g2_dfrbpq_1
*I *975:Y O *D sg13g2_o21ai_1
*CAP
1 *1073:D 0
2 *975:Y 0.000387045
3 *59:10 0.000387045
4 *59:10 *975:B1 1.54008e-05
5 *59:10 *1073:RESET_B 0
6 *59:10 *1073:CLK 0
7 *59:10 *397:8 0
8 *59:10 *397:12 0
*RES
1 *975:Y *59:10 43.2912 
2 *59:10 *1073:D 40 
*END

*D_NET *60 0.000371832
*CONN
*I *1072:D I *D sg13g2_dfrbpq_1
*I *977:Y O *D sg13g2_o21ai_1
*CAP
1 *1072:D 0.000129858
2 *977:Y 0.000129858
3 *1072:D *836:A0 0
4 *1072:D *977:A2 0
5 *1072:D *1073:RESET_B 0.000112116
*RES
1 *977:Y *1072:D 41.012 
*END

*D_NET *61 0.00174287
*CONN
*I *1068:D I *D sg13g2_dfrbpq_1
*I *1039:X O *D sg13g2_mux2_1
*CAP
1 *1068:D 0
2 *1039:X 0.000329536
3 *61:18 0.000313899
4 *61:10 0.000643435
5 *61:10 *997:B 0
6 *61:10 *1039:A1 0.000272564
7 *61:10 *1180:RESET_B 0
8 *61:10 *216:20 0
9 *61:10 *560:25 0
10 *61:10 *560:49 0
11 *61:10 *680:53 0
12 *61:18 *1144:CLK 0.000183434
*RES
1 *1039:X *61:10 43.0008 
2 *61:10 *61:18 43.3968 
3 *61:18 *1068:D 40 
*END

*D_NET *62 0.000357142
*CONN
*I *1069:D I *D sg13g2_dfrbpq_1
*I *1042:X O *D sg13g2_mux2_1
*CAP
1 *1069:D 0.000178571
2 *1042:X 0.000178571
3 *1069:D *1069:RESET_B 0
4 *1069:D *550:39 0
5 *1069:D *684:20 0
*RES
1 *1042:X *1069:D 41.6808 
*END

*D_NET *63 0.000210982
*CONN
*I *1070:D I *D sg13g2_dfrbpq_1
*I *1045:X O *D sg13g2_mux2_1
*CAP
1 *1070:D 0.000105491
2 *1045:X 0.000105491
3 *1070:D *1194:A 0
*RES
1 *1045:X *1070:D 40.968 
*END

*D_NET *64 0.00133387
*CONN
*I *1071:D I *D sg13g2_dfrbpq_1
*I *1048:X O *D sg13g2_mux2_1
*CAP
1 *1071:D 0.000578668
2 *1048:X 0.000578668
3 *1071:D *985:B 0
4 *1071:D *1048:A0 0
5 *1071:D *1048:S 0
6 *1071:D *1071:RESET_B 0
7 *1071:D *157:70 0
8 *1071:D *584:36 0
9 *1071:D *598:22 0.000176531
10 *1071:D *659:10 0
*RES
1 *1048:X *1071:D 45.016 
*END

*D_NET *65 0.00191131
*CONN
*I *1451:A I *D sg13g2_dlygate4sd3_1
*I *1050:Y O *D sg13g2_o21ai_1
*CAP
1 *1451:A 0.000955657
2 *1050:Y 0.000955657
3 *1451:A *937:B1 0
4 *1451:A *937:A2 0
5 *1451:A *957:B1 0
6 *1451:A *1050:B1 0
7 *1451:A *1050:A1 0
8 *1451:A *152:8 0
9 *1451:A *156:81 0
10 *1451:A *173:20 0
11 *1451:A *341:27 0
*RES
1 *1050:Y *1451:A 47.3392 
*END

*D_NET *66 0.00109986
*CONN
*I *1444:A I *D sg13g2_dlygate4sd3_1
*I *1052:Y O *D sg13g2_o21ai_1
*CAP
1 *1444:A 0
2 *1052:Y 0.00018444
3 *66:8 0.00018444
4 *66:8 *152:14 0.000444612
5 *66:8 *672:8 0
6 *66:8 *765:8 0.00028637
*RES
1 *1052:Y *66:8 42.4112 
2 *66:8 *1444:A 40 
*END

*D_NET *67 0.0037901
*CONN
*I *1458:A I *D sg13g2_dlygate4sd3_1
*I *1054:Y O *D sg13g2_nand3b_1
*CAP
1 *1458:A 0
2 *1054:Y 0.00131397
3 *67:10 0.00131397
4 *67:10 *867:C 8.02269e-05
5 *67:10 *1053:B 0
6 *67:10 *1066:A2 0
7 *67:10 *1080:RESET_B 0.000242055
8 *67:10 *1080:D 0
9 *67:10 *1332:A 0
10 *67:10 *1373:A 0.000532953
11 *67:10 *125:10 0
12 *67:10 *297:57 0.000306925
13 *67:10 *668:80 0
14 *67:10 *680:266 0
*RES
1 *1054:Y *67:10 30.7184 
2 *67:10 *1458:A 20 
*END

*D_NET *68 0.00158204
*CONN
*I *1410:A I *D sg13g2_dlygate4sd3_1
*I *1055:Y O *D sg13g2_o21ai_1
*CAP
1 *1410:A 0
2 *1055:Y 0.000662439
3 *68:12 0.000662439
4 *68:12 *862:A 0.00011247
5 *68:12 *1055:A2 0.000144691
6 *68:12 *1257:A 0
7 *68:12 *1321:A 0
8 *68:12 *338:9 0
9 *68:12 *338:23 0
10 *68:12 *731:8 0
*RES
1 *1055:Y *68:12 45.1216 
2 *68:12 *1410:A 40 
*END

*D_NET *69 0.000727547
*CONN
*I *1113:D I *D sg13g2_dfrbpq_1
*I *1057:Y O *D sg13g2_o21ai_1
*CAP
1 *1113:D 7.84953e-05
2 *1057:Y 0.000221315
3 *69:10 0.000299811
4 *1113:D tl_o[26] 0
5 *1113:D *759:12 0.000112525
6 *69:10 tl_o[26] 0
7 *69:10 *1113:RESET_B 0
8 *69:10 *679:51 1.54008e-05
9 *69:10 *680:238 0
*RES
1 *1057:Y *69:10 41.6016 
2 *69:10 *1113:D 40.6424 
*END

*D_NET *70 0.00395173
*CONN
*I *1121:D I *D sg13g2_dfrbpq_1
*I *1058:X O *D sg13g2_mux2_1
*CAP
1 *1121:D 0.000446927
2 *1058:X 0.00104397
3 *70:8 0.00149089
4 *1121:D *267:14 0
5 *70:8 *1118:CLK 0
6 *70:8 *1223:A 0
7 *70:8 *1284:A 0
8 *70:8 *333:33 0
9 *70:8 *532:16 0.00072797
10 *70:8 *608:8 0
11 *70:8 *699:34 0
12 *20:10 *70:8 0.000241979
13 *23:14 *70:8 0
*RES
1 *1058:X *70:8 49.328 
2 *70:8 *1121:D 44.312 
*END

*D_NET *71 0.00221164
*CONN
*I *1435:A I *D sg13g2_dlygate4sd3_1
*I *1059:X O *D sg13g2_mux2_1
*CAP
1 *1435:A 0
2 *1059:X 0.000941087
3 *71:12 0.000941087
4 *71:12 *858:S 0
5 *71:12 *1117:RESET_B 0
6 *71:12 *1221:A 0
7 *71:12 *1393:A 1.54008e-05
8 *71:12 *297:80 0.000234166
9 *71:12 *522:16 0
10 *71:12 *700:21 7.99037e-05
11 *71:12 *756:8 0
*RES
1 *1059:X *71:12 48.052 
2 *71:12 *1435:A 40 
*END

*D_NET *72 0.000635056
*CONN
*I *1127:D I *D sg13g2_dfrbpq_1
*I *1060:X O *D sg13g2_mux2_1
*CAP
1 *1127:D 0.00027742
2 *1060:X 0.00027742
3 *1127:D *949:A1 8.0216e-05
4 *1127:D *1060:A0 0
5 *1127:D *1060:A1 0
6 *1127:D *664:18 0
*RES
1 *1060:X *1127:D 42.3496 
*END

*D_NET *73 0.000236031
*CONN
*I *1131:D I *D sg13g2_dfrbpq_1
*I *1061:X O *D sg13g2_mux2_1
*CAP
1 *1131:D 0.000118016
2 *1061:X 0.000118016
3 *1131:D *1130:RESET_B 0
4 *1131:D *658:22 0
5 *1131:D *684:24 0
*RES
1 *1061:X *1131:D 41.1792 
*END

*D_NET *74 0.00271684
*CONN
*I *1135:D I *D sg13g2_dfrbpq_1
*I *1062:X O *D sg13g2_mux2_1
*CAP
1 *1135:D 0
2 *1062:X 0.00103081
3 *74:10 0.00103081
4 *74:10 *1064:S 0
5 *74:10 *1135:CLK 0
6 *74:10 *1143:RESET_B 4.77425e-05
7 *74:10 *113:64 0
8 *74:10 *116:22 0.0002095
9 *74:10 *272:28 0
10 *74:10 *284:16 0
11 *74:10 *350:10 0
12 *74:10 *350:16 0
13 *74:10 *354:38 0.000397979
14 *74:10 *713:14 0
*RES
1 *1062:X *74:10 49.5216 
2 *74:10 *1135:D 40 
*END

*D_NET *75 0.000209238
*CONN
*I *1139:D I *D sg13g2_dfrbpq_1
*I *1063:X O *D sg13g2_mux2_1
*CAP
1 *1139:D 0.000104619
2 *1063:X 0.000104619
3 *1139:D *267:34 0
4 *1139:D *695:14 0
*RES
1 *1063:X *1139:D 40.968 
*END

*D_NET *76 0.00250114
*CONN
*I *1143:D I *D sg13g2_dfrbpq_1
*I *1064:X O *D sg13g2_mux2_1
*CAP
1 *1143:D 0
2 *1064:X 0.000561797
3 *76:10 0.000561797
4 *76:10 *106:27 0
5 *76:10 *116:35 0.00023547
6 *76:10 *284:16 0.00114208
7 *76:10 *361:14 0
8 *76:10 *407:12 0
9 *76:10 *437:49 0
10 *76:10 *713:14 0
*RES
1 *1064:X *76:10 45.9048 
2 *76:10 *1143:D 40 
*END

*D_NET *77 0.00262706
*CONN
*I *1067:D I *D sg13g2_dfrbpq_1
*I *1066:Y O *D sg13g2_o21ai_1
*CAP
1 *1067:D 0
2 *1066:Y 0.000599234
3 *77:8 0.000599234
4 *77:8 *1067:CLK 0
5 *77:8 *297:34 0.000235556
6 *77:8 *297:47 0.000851833
7 *77:8 *297:57 0
8 *77:8 *537:27 0.000341206
9 *18:8 *77:8 0
*RES
1 *1066:Y *77:8 47.0576 
2 *77:8 *1067:D 40 
*END

*D_NET *78 0.00111687
*CONN
*I *793:A I *D sg13g2_nor2b_1
*I *792:A1 I *D sg13g2_a21oi_1
*I *791:Y O *D sg13g2_inv_1
*CAP
1 *793:A 0
2 *792:A1 0.000235495
3 *791:Y 0.000218871
4 *78:8 0.000454366
5 *792:A1 *791:A 1.54008e-05
6 *792:A1 *349:29 1.54008e-05
7 *792:A1 *360:24 0.000177339
8 *78:8 *791:A 0
9 *78:8 *366:44 0
*RES
1 *791:Y *78:8 21.6808 
2 *78:8 *792:A1 21.9536 
3 *78:8 *793:A 20 
*END

*D_NET *79 0.000485874
*CONN
*I *795:A2 I *D sg13g2_a21oi_1
*I *792:Y O *D sg13g2_a21oi_1
*CAP
1 *795:A2 5.47382e-05
2 *792:Y 0.000140401
3 *79:8 0.00019514
4 *795:A2 *794:C 1.54008e-05
5 *795:A2 *271:25 8.01938e-05
6 *79:8 *1186:RESET_B 0
7 *79:8 *271:31 0
*RES
1 *792:Y *79:8 41.144 
2 *79:8 *795:A2 40.4576 
*END

*D_NET *80 0.00168592
*CONN
*I *794:B I *D sg13g2_nor3_1
*I *793:Y O *D sg13g2_nor2b_1
*CAP
1 *794:B 0.000168356
2 *793:Y 0.000149233
3 *80:8 0.00031759
4 *794:B *794:A 0
5 *794:B *794:C 0.000307238
6 *794:B *795:B1 0.000242456
7 *80:8 *675:57 0.000501044
*RES
1 *793:Y *80:8 41.9888 
2 *80:8 *794:B 41.7512 
*END

*D_NET *81 0.00101337
*CONN
*I *795:B1 I *D sg13g2_a21oi_1
*I *794:Y O *D sg13g2_nor3_1
*CAP
1 *795:B1 0.000361561
2 *794:Y 0.000361561
3 *795:B1 *794:A 4.77866e-05
4 *795:B1 *794:C 0
5 *795:B1 *271:25 0
6 *795:B1 *283:14 0
7 *794:B *795:B1 0.000242456
*RES
1 *794:Y *795:B1 43.0448 
*END

*D_NET *82 0.00115942
*CONN
*I *797:A1 I *D sg13g2_a21oi_1
*I *798:A I *D sg13g2_nor2b_1
*I *796:Y O *D sg13g2_inv_1
*CAP
1 *797:A1 0.000178551
2 *798:A 0
3 *796:Y 6.78611e-05
4 *82:12 0.000211687
5 *82:8 0.000100997
6 *797:A1 *954:C 0
7 *797:A1 *1148:D 1.53311e-05
8 *797:A1 *359:29 1.54008e-05
9 *797:A1 *685:49 0
10 *82:8 *83:8 0.000287773
11 *82:8 *84:8 0.000234218
12 *82:12 *1148:D 4.76034e-05
*RES
1 *796:Y *82:8 41.144 
2 *82:8 *82:12 20.2728 
3 *82:12 *798:A 20 
4 *82:12 *797:A1 21.848 
*END

*D_NET *83 0.000857813
*CONN
*I *800:A2 I *D sg13g2_a21oi_1
*I *797:Y O *D sg13g2_a21oi_1
*CAP
1 *800:A2 5.23413e-05
2 *797:Y 0.000224978
3 *83:8 0.00027732
4 *800:A2 *800:A1 1.54008e-05
5 *800:A2 *800:B1 0
6 *83:8 *84:8 0
7 *83:8 *116:94 0
8 *82:8 *83:8 0.000287773
*RES
1 *797:Y *83:8 42.2 
2 *83:8 *800:A2 40.4576 
*END

*D_NET *84 0.00149189
*CONN
*I *799:B I *D sg13g2_nor3_1
*I *798:Y O *D sg13g2_nor2b_1
*CAP
1 *799:B 0
2 *798:Y 0.000246194
3 *84:8 0.000246194
4 *84:8 *1148:D 0.000424162
5 *84:8 *270:40 0.000341119
6 *82:8 *84:8 0.000234218
7 *83:8 *84:8 0
*RES
1 *798:Y *84:8 43.256 
2 *84:8 *799:B 40 
*END

*D_NET *85 0.00030042
*CONN
*I *800:B1 I *D sg13g2_a21oi_1
*I *799:Y O *D sg13g2_nor3_1
*CAP
1 *800:B1 0.00015021
2 *799:Y 0.00015021
3 *800:B1 *282:12 0
4 *800:B1 *366:44 0
5 *800:A2 *800:B1 0
*RES
1 *799:Y *800:B1 41.5664 
*END

*D_NET *86 0.000779271
*CONN
*I *802:A1 I *D sg13g2_a21oi_1
*I *803:A I *D sg13g2_nor2b_1
*I *801:Y O *D sg13g2_inv_1
*CAP
1 *802:A1 0.000152495
2 *803:A 4.67748e-05
3 *801:Y 0.000150181
4 *86:8 0.000349451
5 *802:A1 *802:A2 8.03692e-05
6 *802:A1 *366:44 0
7 *803:A *1268:A 0
8 *803:A *366:44 0
9 *86:8 *802:A2 0
10 *86:8 *1268:A 0
11 *86:8 *362:20 0
12 *86:8 *657:12 0
*RES
1 *801:Y *86:8 21.5224 
2 *86:8 *803:A 20.4576 
3 *86:8 *802:A1 21.8128 
*END

*D_NET *87 0.000849898
*CONN
*I *805:A2 I *D sg13g2_a21oi_1
*I *802:Y O *D sg13g2_a21oi_1
*CAP
1 *805:A2 3.04198e-05
2 *802:Y 0.000189006
3 *87:8 0.000219426
4 *805:A2 *805:A1 4.77425e-05
5 *87:8 *1147:D 0.000128576
6 *87:8 *1189:A 0
7 *87:8 *88:8 0.000234727
8 *87:8 *362:20 0
*RES
1 *802:Y *87:8 42.2 
2 *87:8 *805:A2 40.2728 
*END

*D_NET *88 0.000906997
*CONN
*I *804:B I *D sg13g2_nor3_1
*I *803:Y O *D sg13g2_nor2b_1
*CAP
1 *804:B 0
2 *803:Y 0.00018125
3 *88:8 0.00018125
4 *88:8 *1189:A 0
5 *88:8 *280:16 7.51285e-05
6 *88:8 *280:29 0.00023464
7 *87:8 *88:8 0.000234727
*RES
1 *803:Y *88:8 42.2 
2 *88:8 *804:B 40 
*END

*D_NET *89 0.000267481
*CONN
*I *805:B1 I *D sg13g2_a21oi_1
*I *804:Y O *D sg13g2_nor3_1
*CAP
1 *805:B1 9.36106e-05
2 *804:Y 9.36106e-05
3 *805:B1 *1268:A 8.02598e-05
4 *805:B1 *283:14 0
*RES
1 *804:Y *805:B1 40.968 
*END

*D_NET *90 0.000369383
*CONN
*I *807:A I *D sg13g2_inv_1
*I *806:Y O *D sg13g2_xnor2_1
*CAP
1 *807:A 0.000184692
2 *806:Y 0.000184692
3 *807:A *1041:C 0
4 *807:A *1042:S 0
5 *807:A *271:10 0
*RES
1 *806:Y *807:A 41.496 
*END

*D_NET *91 0.00861689
*CONN
*I *1025:B1 I *D sg13g2_a21o_1
*I *1030:B1 I *D sg13g2_a21oi_1
*I *816:A I *D sg13g2_nor2_1
*I *814:A I *D sg13g2_nor2_1
*I *807:Y O *D sg13g2_inv_1
*CAP
1 *1025:B1 0.00115563
2 *1030:B1 0.00012681
3 *816:A 0
4 *814:A 9.86709e-05
5 *807:Y 0.000175041
6 *91:12 0.000450831
7 *91:10 0.00047897
8 *91:8 0.00133067
9 *814:A *1173:CLK 0.00012816
10 *814:A *97:29 0.000235141
11 *814:A *564:10 0
12 *814:A *661:14 0
13 *814:A *705:34 7.52149e-05
14 *1025:B1 *812:B 0
15 *1025:B1 *815:A1 0
16 *1025:B1 *1026:B1 0.00124697
17 *1025:B1 *1041:A 0
18 *1025:B1 *92:56 0
19 *1025:B1 *95:18 0.00178051
20 *1025:B1 *234:10 0
21 *1025:B1 *565:10 0.000177378
22 *1025:B1 *570:37 4.77425e-05
23 *1030:B1 *234:10 0
24 *1030:B1 *661:14 0
25 *91:8 *1041:B 0.000176113
26 *91:8 *1042:S 0.000143407
27 *91:12 *816:B 0.000288502
28 *91:12 *97:29 0.000501131
29 *91:12 *98:8 0
30 *91:12 *661:14 0
*RES
1 *807:Y *91:8 21.6808 
2 *91:8 *91:10 20 
3 *91:10 *91:12 3.8896 
4 *91:12 *814:A 41.3552 
5 *91:12 *816:A 40 
6 *91:10 *1030:B1 41.144 
7 *91:8 *1025:B1 31.9328 
*END

*D_NET *92 0.00511087
*CONN
*I *1025:A2 I *D sg13g2_a21o_1
*I *812:B I *D sg13g2_nor2_1
*I *813:A1 I *D sg13g2_a22oi_1
*I *808:Y O *D sg13g2_nand2_1
*CAP
1 *1025:A2 0
2 *812:B 0.00026531
3 *813:A1 0.000178614
4 *808:Y 0
5 *92:56 0.00110837
6 *92:14 0.000647683
7 *92:4 0.00131213
8 *812:B *1026:A2 0
9 *812:B *1174:D 0.000130344
10 *812:B *96:37 1.54008e-05
11 *812:B *565:10 0.000130344
12 *812:B *570:37 0
13 *813:A1 *815:B1 4.77702e-05
14 *813:A1 *97:10 0.00012816
15 *813:A1 *570:18 4.77425e-05
16 *813:A1 *570:37 0
17 *92:14 *808:B 1.54556e-05
18 *92:14 *815:B1 0
19 *92:14 *568:8 7.62389e-05
20 *92:14 *568:12 0.000177214
21 *92:14 *570:16 4.77154e-05
22 *92:56 *1026:A1 1.54008e-05
23 *92:56 *1026:B1 0.000766981
24 *92:56 *1153:RESET_B 0
25 *92:56 *268:10 0
26 *92:56 *550:37 0
27 *1025:B1 *812:B 0
28 *1025:B1 *92:56 0
*RES
1 *808:Y *92:4 20 
2 *92:4 *92:14 22.068 
3 *92:14 *813:A1 41.6632 
4 *92:14 *812:B 42.508 
5 *92:4 *92:56 49.8516 
6 *92:56 *1025:A2 20 
*END

*D_NET *93 0.00255377
*CONN
*I *810:B I *D sg13g2_nand2b_1
*I *815:B1 I *D sg13g2_a21oi_1
*I *809:Y O *D sg13g2_inv_1
*CAP
1 *810:B 0.000171216
2 *815:B1 0.0006852
3 *809:Y 4.72978e-05
4 *93:6 0.000903713
5 *810:B *810:A_N 5.40946e-05
6 *815:B1 *808:B 8.02595e-05
7 *815:B1 *809:A 0.000194379
8 *815:B1 *810:A_N 0
9 *815:B1 *815:A2 0
10 *815:B1 *1040:B 4.77425e-05
11 *815:B1 *97:14 0.000241979
12 *815:B1 *563:10 0
13 *815:B1 *570:12 0
14 *815:B1 *570:16 8.01224e-05
15 *93:6 *810:A_N 0
16 *813:A1 *815:B1 4.77702e-05
17 *92:14 *815:B1 0
*RES
1 *809:Y *93:6 20.5104 
2 *93:6 *815:B1 25.9488 
3 *93:6 *810:B 21.5664 
*END

*D_NET *94 0.00302856
*CONN
*I *813:A2 I *D sg13g2_a22oi_1
*I *810:Y O *D sg13g2_nand2b_1
*CAP
1 *813:A2 0.000588023
2 *810:Y 0.000588023
3 *813:A2 *810:A_N 0.000575638
4 *813:A2 *813:B2 4.77425e-05
5 *813:A2 *95:18 0.000987246
6 *813:A2 *568:12 0.000241886
*RES
1 *810:Y *813:A2 46.1424 
*END

*D_NET *95 0.00575981
*CONN
*I *812:A I *D sg13g2_nor2_1
*I *1025:A1 I *D sg13g2_a21o_1
*I *811:Y O *D sg13g2_inv_1
*CAP
1 *812:A 0
2 *1025:A1 0
3 *811:Y 0.000160017
4 *95:18 0.00127189
5 *95:8 0.0014319
6 *95:8 *1174:D 0
7 *95:8 *96:8 0
8 *95:8 *234:10 0
9 *95:18 *1178:D 0
10 *95:18 *1187:CLK 0
11 *95:18 *96:8 0
12 *95:18 *235:10 0
13 *95:18 *570:37 0.000128247
14 *813:A2 *95:18 0.000987246
15 *1025:B1 *95:18 0.00178051
*RES
1 *811:Y *95:8 41.144 
2 *95:8 *95:18 32.5488 
3 *95:18 *1025:A1 20 
4 *95:8 *812:A 40 
*END

*D_NET *96 0.00220111
*CONN
*I *1029:A I *D sg13g2_inv_1
*I *1026:A2 I *D sg13g2_a21oi_1
*I *813:B2 I *D sg13g2_a22oi_1
*I *815:A1 I *D sg13g2_a21oi_1
*I *812:Y O *D sg13g2_nor2_1
*CAP
1 *1029:A 0
2 *1026:A2 4.72978e-05
3 *813:B2 0.000122822
4 *815:A1 0.000120857
5 *812:Y 0.000340613
6 *96:37 0.000201471
7 *96:10 0.000243679
8 *96:8 0.00018644
9 *813:B2 *815:A2 0
10 *813:B2 *97:10 3.46964e-05
11 *815:A1 *815:A2 0.000225114
12 *96:8 *234:10 0.000182315
13 *96:8 *570:37 0.000287672
14 *96:37 *1026:A1 0
15 *96:37 *1030:A1 0.000144992
16 *96:37 *1174:D 0
17 *812:B *1026:A2 0
18 *812:B *96:37 1.54008e-05
19 *813:A2 *813:B2 4.77425e-05
20 *1025:B1 *815:A1 0
21 *95:8 *96:8 0
22 *95:18 *96:8 0
*RES
1 *812:Y *96:8 41.9888 
2 *96:8 *96:10 20 
3 *96:10 *815:A1 21.1968 
4 *96:10 *813:B2 21.1176 
5 *812:Y *96:37 21.3816 
6 *96:37 *1026:A2 20.5104 
7 *96:37 *1029:A 20 
*END

*D_NET *97 0.00235186
*CONN
*I *814:B I *D sg13g2_nor2_1
*I *1040:B I *D sg13g2_nor2_1
*I *813:Y O *D sg13g2_a22oi_1
*CAP
1 *814:B 0
2 *1040:B 3.13338e-05
3 *813:Y 9.61326e-05
4 *97:29 0.000232904
5 *97:14 0.000400436
6 *97:10 0.00023233
7 *97:10 *570:18 3.15716e-05
8 *97:10 *570:37 7.51285e-05
9 *97:14 *563:10 0
10 *97:29 *1173:CLK 4.77425e-05
11 *97:29 *564:10 1.54285e-05
12 *813:B2 *97:10 3.46964e-05
13 *813:A1 *97:10 0.00012816
14 *814:A *97:29 0.000235141
15 *815:B1 *1040:B 4.77425e-05
16 *815:B1 *97:14 0.000241979
17 *91:12 *97:29 0.000501131
*RES
1 *813:Y *97:10 41.1132 
2 *97:10 *97:14 21.3816 
3 *97:14 *1040:B 20.2728 
4 *97:14 *97:29 43.1064 
5 *97:29 *814:B 20 
*END

*D_NET *98 0.00110855
*CONN
*I *816:B I *D sg13g2_nor2_1
*I *1040:A I *D sg13g2_nor2_1
*I *815:Y O *D sg13g2_a21oi_1
*CAP
1 *816:B 0.000155954
2 *1040:A 4.97775e-05
3 *815:Y 8.66776e-05
4 *98:8 0.000292409
5 *816:B *661:14 0
6 *98:8 *661:14 0.000235228
7 *91:12 *816:B 0.000288502
8 *91:12 *98:8 0
*RES
1 *815:Y *98:8 40.9328 
2 *98:8 *1040:A 40.4576 
3 *98:8 *816:B 41.6896 
*END

*D_NET *99 0.00257627
*CONN
*I *947:A I *D sg13g2_nand2_1
*I *835:A1 I *D sg13g2_a21oi_1
*I *817:Y O *D sg13g2_inv_1
*CAP
1 *947:A 0.000508325
2 *835:A1 8.30179e-05
3 *817:Y 0
4 *99:6 0.000591343
5 *835:A1 *360:24 0.000287318
6 *835:A1 *685:27 0.000286322
7 *947:A *1060:A0 0
8 *947:A *360:8 0
9 *947:A *652:8 0
10 *947:A *685:10 0
11 *947:A *685:27 0.000819945
12 *947:A *714:26 0
*RES
1 *817:Y *99:6 40 
2 *99:6 *835:A1 41.3552 
3 *99:6 *947:A 45.5792 
*END

*D_NET *100 0.0102807
*CONN
*I *1055:B1 I *D sg13g2_o21ai_1
*I *820:C I *D sg13g2_nor3_1
*I *860:A I *D sg13g2_inv_1
*I *853:S I *D sg13g2_mux2_1
*I *1059:S I *D sg13g2_mux2_1
*I *1192:A I *D sg13g2_buf_1
*I *891:C I *D sg13g2_nor3_2
*I *1338:A I *D sg13g2_buf_1
*I *819:Y O *D sg13g2_nand2_2
*CAP
1 *1055:B1 0
2 *820:C 0
3 *860:A 0
4 *853:S 2.9025e-05
5 *1059:S 0.000490725
6 *1192:A 5.63369e-05
7 *891:C 0.000196114
8 *1338:A 3.54107e-05
9 *819:Y 0.000138288
10 *100:56 0.0015568
11 *100:50 0.00143315
12 *100:48 0.000394389
13 *100:32 0.000822877
14 *100:28 0.000822886
15 *100:24 0.000575512
16 *100:14 0.00044583
17 *100:10 0.000240139
18 *891:C *1054:C 0
19 *891:C *496:8 0
20 *891:C *778:27 0
21 *1059:S *1121:RESET_B 0.000626567
22 *1059:S *655:6 0
23 *1059:S *655:90 0
24 *1338:A *868:A 0
25 *100:10 *304:19 0.00018128
26 *100:10 *338:23 0.000112519
27 *100:10 *435:12 0
28 *100:14 *1055:A2 0.000112437
29 *100:14 *304:19 0
30 *100:14 *338:23 0
31 *100:24 *1055:A1 0
32 *100:24 *1055:A2 8.00842e-05
33 *100:24 *101:10 0
34 *100:24 *103:8 0
35 *100:24 *378:8 0
36 *100:24 *378:12 8.00842e-05
37 *100:24 *378:26 1.54008e-05
38 *100:24 *636:24 0
39 *100:28 *820:A 0.000180603
40 *100:28 *863:A 0.000287017
41 *100:28 *1200:A 5.29404e-05
42 *100:32 *1053:B 0
43 *100:32 *1200:A 0.000397664
44 *100:32 *1250:A 0
45 *100:50 *863:C 0
46 *100:50 *1066:B1 0
47 *100:50 *1081:D 0.000193101
48 *100:50 *1431:A 0
49 *100:50 *378:26 0
50 *100:50 *636:24 0
51 *100:50 *703:38 0
52 *100:56 *1081:D 0.00033683
53 *100:56 *1121:RESET_B 0
54 *100:56 *1204:A 0
55 *100:56 *297:57 0
56 *100:56 *297:72 0
57 *100:56 *297:80 0.000306805
58 *100:56 *606:8 0
59 *100:56 *680:282 0
60 *100:56 *703:19 7.989e-05
61 *100:56 *703:38 0
62 *100:56 *746:10 0
*RES
1 *819:Y *100:10 41.364 
2 *100:10 *100:14 20.8272 
3 *100:14 *100:24 42.7984 
4 *100:24 *100:28 22.4112 
5 *100:28 *100:32 25.5792 
6 *100:32 *1338:A 20.2728 
7 *100:32 *891:C 21.5664 
8 *100:28 *100:48 20 
9 *100:48 *100:50 3.4144 
10 *100:50 *100:56 8.7912 
11 *100:56 *1192:A 20.5104 
12 *100:56 *1059:S 24.1096 
13 *100:50 *853:S 20.2992 
14 *100:48 *860:A 20 
15 *100:24 *820:C 20 
16 *100:14 *1055:B1 20 
*END

*D_NET *101 0.00150237
*CONN
*I *823:A I *D sg13g2_nand3_1
*I *861:A I *D sg13g2_inv_1
*I *820:Y O *D sg13g2_nor3_1
*CAP
1 *823:A 0.000291501
2 *861:A 0
3 *820:Y 0.000194606
4 *101:14 0.00040162
5 *101:10 0.000304725
6 *823:A *821:A 0
7 *823:A *822:A 0
8 *823:A *823:C 0
9 *823:A *864:A1 0
10 *101:10 *1250:A 0.000183097
11 *101:10 *378:12 4.75616e-05
12 *101:10 *636:24 7.92602e-05
13 *101:14 *1250:A 0
14 *101:14 *1431:A 0
15 *100:24 *101:10 0
*RES
1 *820:Y *101:10 41.7864 
2 *101:10 *101:14 20.8272 
3 *101:14 *861:A 20 
4 *101:14 *823:A 22.7104 
*END

*D_NET *102 0.00134148
*CONN
*I *823:B I *D sg13g2_nand3_1
*I *864:A1 I *D sg13g2_a21oi_1
*I *821:Y O *D sg13g2_inv_1
*CAP
1 *823:B 0
2 *864:A1 0.000250505
3 *821:Y 0.000102102
4 *102:8 0.000352607
5 *864:A1 *823:C 0.000272985
6 *864:A1 *785:10 7.58826e-05
7 *102:8 *785:10 0.000287399
8 *823:A *864:A1 0
*RES
1 *821:Y *102:8 41.144 
2 *102:8 *864:A1 42.3232 
3 *102:8 *823:B 40 
*END

*D_NET *103 0.00167052
*CONN
*I *864:A2 I *D sg13g2_a21oi_1
*I *823:C I *D sg13g2_nand3_1
*I *822:Y O *D sg13g2_inv_1
*CAP
1 *864:A2 0
2 *823:C 0.000284386
3 *822:Y 0.000235914
4 *103:8 0.0005203
5 *823:C *827:A 0
6 *823:C *828:B1 0
7 *823:C *864:B1 4.77292e-05
8 *823:C *1431:A 0
9 *823:C *119:8 0.000127825
10 *103:8 *119:8 0.000181379
11 *103:8 *304:19 0
12 *103:8 *405:12 0
13 *823:A *823:C 0
14 *864:A1 *823:C 0.000272985
15 *100:24 *103:8 0
*RES
1 *822:Y *103:8 42.2 
2 *103:8 *823:C 42.7456 
3 *103:8 *864:A2 40 
*END

*D_NET *104 0.00262666
*CONN
*I *1453:A I *D sg13g2_dlygate4sd3_1
*I *964:C I *D sg13g2_nor4_1
*I *831:A I *D sg13g2_nor2_1
*I *823:Y O *D sg13g2_nand3_1
*CAP
1 *1453:A 5.42695e-05
2 *964:C 0.000183237
3 *831:A 0
4 *823:Y 0.000454591
5 *104:16 0.000619386
6 *104:10 0.00094501
7 *964:C *830:A1 0
8 *964:C *964:D 0.000274507
9 *964:C *438:23 0
10 *1453:A *156:22 0
11 *1453:A *778:12 8.0216e-05
12 *104:10 *822:A 0
13 *104:10 *828:A1 0
14 *104:10 *828:B1 0
15 *104:10 *437:10 0
16 *104:16 *828:A1 0
17 *104:16 *964:D 1.54446e-05
18 *104:16 *111:18 0
19 *104:16 *437:10 0
20 *104:16 *437:12 0
21 *104:16 *438:23 0
*RES
1 *823:Y *104:10 43.2384 
2 *104:10 *104:16 23.08 
3 *104:16 *831:A 20 
4 *104:16 *964:C 21.7512 
5 *104:10 *1453:A 40.4576 
*END

*D_NET *105 0.0167303
*CONN
*I *919:B1 I *D sg13g2_o21ai_1
*I *931:B1 I *D sg13g2_o21ai_1
*I *936:B1 I *D sg13g2_o21ai_1
*I *926:B1 I *D sg13g2_o21ai_1
*I *1340:A I *D sg13g2_buf_1
*I *943:B1 I *D sg13g2_o21ai_1
*I *825:B I *D sg13g2_nor2_1
*I *891:A I *D sg13g2_nor3_2
*I *824:Y O *D sg13g2_inv_2
*CAP
1 *919:B1 0.000312417
2 *931:B1 0
3 *936:B1 0
4 *926:B1 6.43172e-05
5 *1340:A 0.000184416
6 *943:B1 0
7 *825:B 0
8 *891:A 0.00040106
9 *824:Y 0.000168486
10 *105:105 0.000102001
11 *105:99 0.000697462
12 *105:73 0.000363749
13 *105:71 0.00161457
14 *105:54 0.0010821
15 *105:48 0.0011791
16 *105:40 0.00133367
17 *105:23 0.000806866
18 *105:8 0.000731415
19 *891:A *891:B 0
20 *891:A *405:12 0
21 *919:B1 *920:B1 0
22 *919:B1 *1049:B 0.000209681
23 *919:B1 *1051:B 4.77425e-05
24 *919:B1 *1060:A0 0.000215263
25 *919:B1 *191:23 0
26 *919:B1 *664:49 1.54118e-05
27 *919:B1 *664:62 0.00040383
28 *926:B1 *926:A1 0
29 *926:B1 *664:79 1.54556e-05
30 *926:B1 *664:94 0
31 *1340:A *949:A2 0
32 *1340:A *362:12 0.000554076
33 *1340:A *678:59 0.000554076
34 *1340:A *680:121 0
35 *105:8 *405:12 0
36 *105:8 *437:12 0
37 *105:8 *437:16 0
38 *105:8 *438:14 0
39 *105:23 *825:A 0
40 *105:23 *891:B 0
41 *105:23 *437:34 0.000144562
42 *105:23 *438:23 0
43 *105:40 *1334:A 0
44 *105:40 *106:27 0
45 *105:40 *112:8 0
46 *105:40 *361:10 4.74248e-05
47 *105:40 *437:34 0.00033942
48 *105:40 *437:49 0.000576306
49 *105:40 *437:64 1.54008e-05
50 *105:48 *919:A1 0
51 *105:48 *944:B2 8.00842e-05
52 *105:48 *1334:A 1.54008e-05
53 *105:48 *171:10 0
54 *105:48 *171:25 0.000436681
55 *105:48 *175:10 0
56 *105:48 *250:16 0.000144942
57 *105:48 *398:22 0.000565872
58 *105:48 *437:64 0
59 *105:54 *944:B2 0.000209544
60 *105:54 *1060:A0 0.000127457
61 *105:54 *106:27 0
62 *105:54 *173:39 1.54008e-05
63 *105:54 *185:8 0
64 *105:71 *919:A1 3.8639e-05
65 *105:71 *932:A1 7.20796e-05
66 *105:71 *932:A2 0
67 *105:71 *944:B2 1.54008e-05
68 *105:71 *152:14 3.24568e-05
69 *105:71 *173:39 6.46834e-05
70 *105:71 *341:27 0.000339573
71 *105:71 *678:20 0.000446185
72 *105:73 *160:8 0
73 *105:73 *362:12 0.000390018
74 *105:73 *678:59 0.000212127
75 *105:99 *932:A1 7.9225e-05
76 *105:99 *936:A1 1.54556e-05
77 *105:99 *937:A2 0
78 *105:99 *164:8 0.000468896
79 *105:99 *165:12 0
80 *105:99 *341:33 0
81 *105:99 *362:10 4.77251e-05
82 *105:99 *362:12 0.000179079
83 *105:99 *664:94 0.000371784
84 *105:99 *678:24 0
85 *105:99 *688:10 0
86 *105:105 *165:12 0.00018128
87 *105:105 *680:133 0
*RES
1 *824:Y *105:8 41.3552 
2 *105:8 *891:A 43.2384 
3 *105:8 *105:23 21.1968 
4 *105:23 *825:B 20 
5 *105:23 *105:40 45.9752 
6 *105:40 *105:48 26.4152 
7 *105:48 *105:54 21.7072 
8 *105:54 *943:B1 20 
9 *105:54 *105:71 27.8848 
10 *105:71 *105:73 1.5664 
11 *105:73 *1340:A 42.8424 
12 *105:73 *926:B1 40.4576 
13 *105:71 *105:99 25.2448 
14 *105:99 *105:105 41.144 
15 *105:105 *936:B1 20 
16 *105:99 *931:B1 20 
17 *105:48 *919:B1 43.2384 
*END

*D_NET *106 0.00912688
*CONN
*I *828:A1 I *D sg13g2_a21oi_1
*I *956:A2 I *D sg13g2_a22oi_1
*I *962:A2 I *D sg13g2_a22oi_1
*I *832:B I *D sg13g2_nand2_1
*I *825:Y O *D sg13g2_nor2_1
*CAP
1 *828:A1 0.000669429
2 *956:A2 0
3 *962:A2 0
4 *832:B 3.88215e-05
5 *825:Y 0
6 *106:35 0.000670309
7 *106:27 0.00245436
8 *106:10 0.00192721
9 *106:6 0.000773762
10 *828:A1 *828:A2 4.76874e-05
11 *828:A1 *828:B1 0
12 *828:A1 *109:8 0
13 *828:A1 *112:8 0.000606868
14 *828:A1 *191:8 0
15 *828:A1 *437:12 0
16 *828:A1 *774:8 0.000766552
17 *832:B *832:A 0
18 *832:B *1064:S 0
19 *106:10 *112:8 0.000182023
20 *106:10 *113:10 0
21 *106:27 *832:A 0
22 *106:27 *941:B 4.78521e-05
23 *106:27 *941:A_N 0.000112733
24 *106:27 *944:B1 0
25 *106:27 *944:B2 0
26 *106:27 *963:B1 0.000829273
27 *106:27 *1064:A1 0
28 *106:27 *1064:S 0
29 *106:27 *116:18 0
30 *106:27 *175:10 0
31 *106:27 *361:14 0
32 *106:27 *437:49 0
33 *106:35 *363:39 0
34 *106:35 *364:27 0
35 *106:35 *670:18 0
36 *76:10 *106:27 0
37 *104:10 *828:A1 0
38 *104:16 *828:A1 0
39 *105:40 *106:27 0
40 *105:54 *106:27 0
*RES
1 *825:Y *106:6 40 
2 *106:6 *106:10 21.144 
3 *106:10 *832:B 20.2728 
4 *106:10 *106:27 35.3736 
5 *106:27 *106:35 46.4592 
6 *106:35 *962:A2 40 
7 *106:27 *956:A2 40 
8 *106:6 *828:A1 47.1192 
*END

*D_NET *107 0.00322058
*CONN
*I *828:A2 I *D sg13g2_a21oi_1
*I *826:Y O *D sg13g2_nand2_1
*CAP
1 *828:A2 0.000658597
2 *826:Y 0.000386705
3 *107:8 0.0010453
4 *828:A2 *1089:CLK 0
5 *828:A2 *1290:A 0.00036834
6 *828:A2 *1431:A 0
7 *828:A2 *304:19 0
8 *107:8 *916:A 0
9 *107:8 *939:A 0.000501495
10 *107:8 *1252:A 0
11 *107:8 *1258:A 0.000212456
12 *828:A1 *828:A2 4.76874e-05
*RES
1 *826:Y *107:8 43.8896 
2 *107:8 *828:A2 45.7288 
*END

*D_NET *108 0.000495365
*CONN
*I *828:B1 I *D sg13g2_a21oi_1
*I *827:Y O *D sg13g2_inv_1
*CAP
1 *828:B1 0.000239982
2 *827:Y 0.000239982
3 *828:B1 *827:A 1.54008e-05
4 *828:B1 *1431:A 0
5 *823:C *828:B1 0
6 *828:A1 *828:B1 0
7 *104:10 *828:B1 0
*RES
1 *827:Y *828:B1 41.9184 
*END

*D_NET *109 0.00197069
*CONN
*I *830:A1 I *D sg13g2_o21ai_1
*I *828:Y O *D sg13g2_a21oi_1
*CAP
1 *830:A1 0.000146195
2 *828:Y 0.000334808
3 *109:8 0.000481003
4 *830:A1 *830:A2 0.00024222
5 *830:A1 *964:D 0
6 *830:A1 *438:23 0
7 *109:8 *752:10 0
8 *109:8 *774:8 0.000766466
9 *109:8 *778:8 0
10 *828:A1 *109:8 0
11 *964:C *830:A1 0
*RES
1 *828:Y *109:8 43.6784 
2 *109:8 *830:A1 41.3816 
*END

*D_NET *110 0.00265612
*CONN
*I *830:B1 I *D sg13g2_o21ai_1
*I *867:C I *D sg13g2_nand3_1
*I *829:Y O *D sg13g2_nand2_1
*CAP
1 *830:B1 0.000431983
2 *867:C 0.000454815
3 *829:Y 0
4 *110:4 0.000886798
5 *830:B1 *829:B 3.24516e-05
6 *830:B1 *830:A2 0.000274561
7 *830:B1 *111:10 0
8 *830:B1 *111:18 0
9 *830:B1 *668:80 0.000208274
10 *867:C *829:A 8.00842e-05
11 *867:C *829:B 4.77425e-05
12 *867:C *867:B 1.54556e-05
13 *867:C *921:B 0.000143724
14 *867:C *119:16 0
15 *867:C *124:6 0
16 *867:C *668:80 0
17 *67:10 *867:C 8.02269e-05
*RES
1 *829:Y *110:4 20 
2 *110:4 *867:C 23.9864 
3 *110:4 *830:B1 23.828 
*END

*D_NET *111 0.00295129
*CONN
*I *866:B I *D sg13g2_nand2_1
*I *831:B I *D sg13g2_nor2_1
*I *964:D I *D sg13g2_nor4_1
*I *830:Y O *D sg13g2_o21ai_1
*CAP
1 *866:B 0
2 *831:B 0
3 *964:D 0.000197799
4 *830:Y 0.000499378
5 *111:18 0.000558897
6 *111:10 0.000860476
7 *964:D *830:A2 0
8 *111:10 *866:A 1.54556e-05
9 *111:10 *1457:A 0
10 *111:10 *609:10 0.000177306
11 *111:10 *668:80 0.000208274
12 *111:18 *829:B 0.000143756
13 *111:18 *438:8 0
14 *111:18 *438:14 0
15 *111:18 *438:23 0
16 *111:18 *668:80 0
17 *830:B1 *111:10 0
18 *830:B1 *111:18 0
19 *830:A1 *964:D 0
20 *964:C *964:D 0.000274507
21 *104:16 *964:D 1.54446e-05
22 *104:16 *111:18 0
*RES
1 *830:Y *111:10 24.0128 
2 *111:10 *111:18 42.7104 
3 *111:18 *964:D 21.8656 
4 *111:18 *831:B 20 
5 *111:10 *866:B 20 
*END

*D_NET *112 0.00138586
*CONN
*I *832:A I *D sg13g2_nand2_1
*I *831:Y O *D sg13g2_nor2_1
*CAP
1 *832:A 6.80401e-05
2 *831:Y 0.000230446
3 *112:8 0.000298487
4 *832:A *825:A 0
5 *112:8 *153:12 0
6 *112:8 *191:8 0
7 *828:A1 *112:8 0.000606868
8 *832:B *832:A 0
9 *105:40 *112:8 0
10 *106:10 *112:8 0.000182023
11 *106:27 *832:A 0
*RES
1 *831:Y *112:8 43.0448 
2 *112:8 *832:A 40.4576 
*END

*D_NET *113 0.0131065
*CONN
*I *1064:S I *D sg13g2_mux2_1
*I *1062:S I *D sg13g2_mux2_1
*I *1355:A I *D sg13g2_buf_1
*I *842:S I *D sg13g2_mux2_1
*I *843:S I *D sg13g2_mux2_1
*I *1354:A I *D sg13g2_buf_1
*I *1063:S I *D sg13g2_mux2_1
*I *832:Y O *D sg13g2_nand2_1
*CAP
1 *1064:S 0.000736658
2 *1062:S 0
3 *1355:A 0.000403595
4 *842:S 0
5 *843:S 0
6 *1354:A 0.000813919
7 *1063:S 0
8 *832:Y 0.000116161
9 *113:64 0.00111031
10 *113:26 0.00161657
11 *113:20 0.00142863
12 *113:18 0.00112013
13 *113:12 0.00149791
14 *113:10 0.00114985
15 *1064:S *825:A 0
16 *1064:S *941:A_N 4.78195e-05
17 *1064:S *116:22 0
18 *1064:S *713:14 8.0216e-05
19 *1354:A *841:S 0
20 *1354:A *351:26 0
21 *1354:A *352:16 8.03692e-05
22 *1354:A *505:10 0.000727199
23 *1354:A *680:173 0
24 *1354:A *680:191 0
25 *1354:A *684:10 1.54008e-05
26 *1355:A *1036:B1 0
27 *1355:A *1060:A1 6.48533e-05
28 *1355:A *1150:CLK 0
29 *1355:A *116:22 0
30 *1355:A *350:27 1.54008e-05
31 *1355:A *365:22 0.000274677
32 *113:10 *825:A 0
33 *113:10 *405:12 0
34 *113:12 *405:12 0
35 *113:18 *138:14 0
36 *113:18 *405:12 0
37 *113:20 *1139:CLK 0
38 *113:20 *138:14 0
39 *113:20 *366:26 0.000393406
40 *113:26 *138:14 0
41 *113:26 *143:8 0
42 *113:26 *352:16 0.000598033
43 *113:26 *502:10 0
44 *113:26 *503:10 0.000767865
45 *113:26 *680:191 0
46 *113:26 *680:204 0
47 *113:64 *912:B1 0
48 *113:64 *1143:RESET_B 0
49 *113:64 *116:22 0
50 *113:64 *350:10 4.75212e-05
51 *113:64 *350:27 0
52 *113:64 *367:20 0
53 *113:64 *407:12 0
54 *832:B *1064:S 0
55 *1134:D *1354:A 0
56 *8:10 *113:18 0
57 *8:10 *113:20 0
58 *74:10 *1064:S 0
59 *74:10 *113:64 0
60 *106:10 *113:10 0
61 *106:27 *1064:S 0
*RES
1 *832:Y *113:10 41.364 
2 *113:10 *113:12 3.256 
3 *113:12 *113:18 4.8048 
4 *113:18 *113:20 6.8464 
5 *113:20 *113:26 27.5152 
6 *113:26 *1063:S 20 
7 *113:26 *1354:A 27.4536 
8 *113:20 *843:S 40 
9 *113:18 *842:S 40 
10 *113:12 *113:64 26.3008 
11 *113:64 *1355:A 23.9512 
12 *113:64 *1062:S 20 
13 *113:10 *1064:S 46.0016 
*END

*D_NET *115 0.000784832
*CONN
*I *835:B1 I *D sg13g2_a21oi_1
*I *834:Y O *D sg13g2_nor2_1
*CAP
1 *835:B1 0.000392416
2 *834:Y 0.000392416
3 *835:B1 *835:A2 0
4 *835:B1 *685:40 0
5 *1142:D *835:B1 0
*RES
1 *834:Y *835:B1 43.344 
*END

*D_NET *117 0.000349015
*CONN
*I *870:A1 I *D sg13g2_o21ai_1
*I *859:Y O *D sg13g2_inv_1
*CAP
1 *870:A1 0
2 *859:Y 0.000174507
3 *117:8 0.000174507
4 *117:8 *308:56 0
*RES
1 *859:Y *117:8 41.3552 
2 *117:8 *870:A1 40 
*END

*D_NET *118 0.00153255
*CONN
*I *863:A I *D sg13g2_nand3_1
*I *1200:A I *D sg13g2_buf_1
*I *860:Y O *D sg13g2_inv_1
*CAP
1 *863:A 9.93195e-05
2 *1200:A 0.000160101
3 *860:Y 0
4 *118:6 0.000259421
5 *863:A *120:8 0.000180603
6 *863:A *378:26 4.77425e-05
7 *863:A *636:24 4.77425e-05
8 *1200:A *1053:B 0
9 *1200:A *121:8 0
10 *100:28 *863:A 0.000287017
11 *100:28 *1200:A 5.29404e-05
12 *100:32 *1200:A 0.000397664
*RES
1 *860:Y *118:6 40 
2 *118:6 *1200:A 41.7776 
3 *118:6 *863:A 41.4168 
*END

*D_NET *119 0.00254139
*CONN
*I *864:B1 I *D sg13g2_a21oi_1
*I *865:A1 I *D sg13g2_a21oi_1
*I *921:C I *D sg13g2_and3_1
*I *867:B I *D sg13g2_nand3_1
*I *861:Y O *D sg13g2_inv_1
*CAP
1 *864:B1 3.33101e-05
2 *865:A1 2.60074e-05
3 *921:C 0
4 *867:B 0.00028822
5 *861:Y 0.00011616
6 *119:16 0.000463751
7 *119:10 0.000353956
8 *119:8 0.000301888
9 *864:B1 *1431:A 0
10 *865:A1 *1066:B1 1.54118e-05
11 *865:A1 *156:22 4.77425e-05
12 *865:A1 *752:18 3.23417e-05
13 *867:B *867:A 0.000143423
14 *867:B *921:B 0
15 *867:B *124:6 6.48152e-05
16 *119:10 *1250:A 0
17 *119:10 *122:8 0
18 *119:16 *124:6 4.77534e-05
19 *119:16 *156:10 0
20 *119:16 *778:27 0.000234224
21 *823:C *864:B1 4.77292e-05
22 *823:C *119:8 0.000127825
23 *867:C *867:B 1.54556e-05
24 *867:C *119:16 0
25 *103:8 *119:8 0.000181379
*RES
1 *861:Y *119:8 41.3552 
2 *119:8 *119:10 1.144 
3 *119:10 *119:16 21.628 
4 *119:16 *867:B 22.464 
5 *119:16 *921:C 20 
6 *119:10 *865:A1 40.2728 
7 *119:8 *864:B1 40.2728 
*END

*D_NET *120 0.00149066
*CONN
*I *863:C I *D sg13g2_nand3_1
*I *862:Y O *D sg13g2_nor2_1
*CAP
1 *863:C 6.22501e-05
2 *862:Y 0.000174937
3 *120:8 0.000237187
4 *120:8 *820:A 0.000396283
5 *120:8 *1257:A 0
6 *120:8 *121:8 7.58806e-05
7 *120:8 *376:8 0.000130055
8 *120:8 *378:26 0.000233463
9 *863:A *120:8 0.000180603
10 *100:50 *863:C 0
*RES
1 *862:Y *120:8 42.6224 
2 *120:8 *863:C 40.4576 
*END

*D_NET *121 0.00301291
*CONN
*I *1431:A I *D sg13g2_dlygate4sd3_1
*I *863:Y O *D sg13g2_nand3_1
*CAP
1 *1431:A 0.00101437
2 *863:Y 0.000196555
3 *121:8 0.00121092
4 *1431:A *827:A 8.02379e-05
5 *1431:A *1066:B1 0
6 *1431:A *308:10 0
7 *1431:A *609:16 0
8 *1431:A *636:24 0
9 *1431:A *752:18 0.000434945
10 *121:8 *1053:B 0
11 *823:C *1431:A 0
12 *828:A2 *1431:A 0
13 *828:B1 *1431:A 0
14 *864:B1 *1431:A 0
15 *1200:A *121:8 0
16 *100:50 *1431:A 0
17 *101:14 *1431:A 0
18 *120:8 *121:8 7.58806e-05
*RES
1 *863:Y *121:8 41.5664 
2 *121:8 *1431:A 48.1048 
*END

*D_NET *122 0.00278807
*CONN
*I *1457:A I *D sg13g2_dlygate4sd3_1
*I *864:Y O *D sg13g2_a21oi_1
*CAP
1 *1457:A 0.000538911
2 *864:Y 0.000244454
3 *122:8 0.000783365
4 *1457:A *866:A 0.00024216
5 *1457:A *156:22 0
6 *1457:A *609:10 0.000177164
7 *1457:A *778:12 0.000726888
8 *122:8 *405:12 0
9 *122:8 *778:27 7.51285e-05
10 *111:10 *1457:A 0
11 *119:10 *122:8 0
*RES
1 *864:Y *122:8 41.7776 
2 *122:8 *1457:A 45.0072 
*END

*D_NET *123 0.00117687
*CONN
*I *866:A I *D sg13g2_nand2_1
*I *865:Y O *D sg13g2_a21oi_1
*CAP
1 *866:A 0.000330919
2 *865:Y 0.000330919
3 *866:A *865:B1 4.77425e-05
4 *866:A *1066:B1 0
5 *866:A *124:6 0.000209676
6 *1457:A *866:A 0.00024216
7 *111:10 *866:A 1.54556e-05
*RES
1 *865:Y *866:A 43.2032 
*END

*D_NET *124 0.00234868
*CONN
*I *921:A I *D sg13g2_and3_1
*I *1054:B I *D sg13g2_nand3b_1
*I *867:A I *D sg13g2_nand3_1
*I *866:Y O *D sg13g2_nand2_1
*CAP
1 *921:A 0
2 *1054:B 0.00017434
3 *867:A 0.000204477
4 *866:Y 0.000190275
5 *124:19 0.000216747
6 *124:6 0.000437159
7 *867:A *1066:A2 0
8 *1054:B *1054:C 8.03692e-05
9 *1054:B *1250:A 0.00039332
10 *1054:B *668:80 8.02598e-05
11 *124:19 *1250:A 0.000106064
12 *866:A *124:6 0.000209676
13 *867:B *867:A 0.000143423
14 *867:B *124:6 6.48152e-05
15 *867:C *124:6 0
16 *119:16 *124:6 4.77534e-05
*RES
1 *866:Y *124:6 21.7512 
2 *124:6 *867:A 21.7072 
3 *124:6 *124:19 20.5104 
4 *124:19 *1054:B 42.024 
5 *124:19 *921:A 40 
*END

*D_NET *125 0.00211006
*CONN
*I *1465:A I *D sg13g2_dlygate4sd3_1
*I *867:Y O *D sg13g2_nand3_1
*CAP
1 *1465:A 0
2 *867:Y 0.000950277
3 *125:10 0.000950277
4 *125:10 *1066:A2 0
5 *125:10 *1080:CLK 0
6 *125:10 *1119:RESET_B 0
7 *125:10 *1373:A 0.000209506
8 *125:10 *297:57 0
9 *125:10 *297:59 0
10 *125:10 *779:10 0
11 *125:10 *786:8 0
12 *1425:A *125:10 0
13 *67:10 *125:10 0
*RES
1 *867:Y *125:10 47.5416 
2 *125:10 *1465:A 40 
*END

*D_NET *126 0.00508833
*CONN
*I *913:A I *D sg13g2_nand2_1
*I *1349:A I *D sg13g2_buf_1
*I *909:A I *D sg13g2_nand2_1
*I *868:Y O *D sg13g2_nand2_1
*CAP
1 *913:A 0.000411355
2 *1349:A 0
3 *909:A 7.87556e-05
4 *868:Y 0.000349696
5 *126:18 0.000467769
6 *126:10 0.000800368
7 *126:8 0.000349696
8 *909:A *909:B 0
9 *909:A *704:50 0
10 *913:A *912:A2 0
11 *913:A *913:B 0
12 *913:A *1091:D 0.000160873
13 *126:8 *668:8 0.00137487
14 *126:8 *704:50 0.000563199
15 *126:18 *1091:RESET_B 0.000306794
16 *126:18 *1091:D 4.77425e-05
17 *126:18 *308:26 0
18 *126:18 *308:32 0
19 *126:18 *498:8 0
20 *126:18 *679:10 0
21 *126:18 *704:50 0
22 *126:18 *783:22 0
23 *1463:A *913:A 0.000177214
*RES
1 *868:Y *126:8 45.368 
2 *126:8 *126:10 20 
3 *126:10 *126:18 43.7136 
4 *126:18 *909:A 20.7832 
5 *126:18 *1349:A 20 
6 *126:10 *913:A 23.6168 
*END

*D_NET *128 0.000763359
*CONN
*I *872:A1 I *D sg13g2_o21ai_1
*I *871:Y O *D sg13g2_inv_1
*CAP
1 *872:A1 1.5844e-05
2 *871:Y 0.000270307
3 *128:10 0.000286151
4 *872:A1 tl_o[24] 3.05248e-05
5 *872:A1 *308:42 3.04771e-05
6 *128:10 *679:91 0.000130055
*RES
1 *871:Y *128:10 42.684 
2 *128:10 *872:A1 40.1738 
*END

*D_NET *129 0.000659296
*CONN
*I *874:A1 I *D sg13g2_o21ai_1
*I *873:Y O *D sg13g2_inv_1
*CAP
1 *874:A1 0.000152433
2 *873:Y 0.000152433
3 *874:A1 *874:A2 0.000144836
4 *874:A1 *1438:A 0
5 *874:A1 *517:14 0.000209593
6 *874:A1 *681:10 0
*RES
1 *873:Y *874:A1 41.496 
*END

*D_NET *130 0.00210658
*CONN
*I *876:A1 I *D sg13g2_o21ai_1
*I *875:Y O *D sg13g2_inv_1
*CAP
1 *876:A1 0.000128999
2 *875:Y 0.000401705
3 *130:8 0.000530704
4 *876:A1 *1438:A 0.000242105
5 *876:A1 *286:73 0.000226578
6 *876:A1 *286:79 1.54008e-05
7 *130:8 *517:14 0.000561086
*RES
1 *875:Y *130:8 44.312 
2 *130:8 *876:A1 41.3816 
*END

*D_NET *131 0.00167383
*CONN
*I *878:A1 I *D sg13g2_o21ai_1
*I *877:Y O *D sg13g2_inv_1
*CAP
1 *878:A1 0.000624539
2 *877:Y 0.000624539
3 *878:A1 *877:A 0
4 *878:A1 *878:A2 8.00842e-05
5 *878:A1 *1106:CLK 0.000296836
6 *878:A1 *515:8 4.78356e-05
7 *878:A1 *691:18 0
8 *878:A1 *691:27 0
9 *28:10 *878:A1 0
*RES
1 *877:Y *878:A1 45.676 
*END

*D_NET *132 0.00107116
*CONN
*I *880:A1 I *D sg13g2_o21ai_1
*I *879:Y O *D sg13g2_inv_1
*CAP
1 *880:A1 0
2 *879:Y 0.000210091
3 *132:8 0.000210091
4 *132:8 *681:43 0.000235141
5 *132:8 *681:45 0.000287672
6 *132:8 *681:55 0.00012816
7 *132:8 *691:10 0
8 *29:8 *132:8 0
*RES
1 *879:Y *132:8 42.4112 
2 *132:8 *880:A1 40 
*END

*D_NET *133 0.000765483
*CONN
*I *882:A1 I *D sg13g2_o21ai_1
*I *881:Y O *D sg13g2_inv_1
*CAP
1 *882:A1 0
2 *881:Y 0.000382742
3 *133:8 0.000382742
4 *133:8 *134:8 0
5 *133:8 *511:16 0
6 *133:8 *671:55 0
7 *30:10 *133:8 0
*RES
1 *881:Y *133:8 43.6784 
2 *133:8 *882:A1 40 
*END

*D_NET *134 0.000479518
*CONN
*I *884:A1 I *D sg13g2_o21ai_1
*I *883:Y O *D sg13g2_inv_1
*CAP
1 *884:A1 3.13536e-05
2 *883:Y 0.000146664
3 *134:8 0.000178018
4 *884:A1 *882:A2 4.78524e-05
5 *884:A1 *1106:RESET_B 0
6 *134:8 *511:16 7.56299e-05
7 *134:8 *671:55 0
8 *133:8 *134:8 0
*RES
1 *883:Y *134:8 41.3552 
2 *134:8 *884:A1 40.2728 
*END

*D_NET *135 0.00201586
*CONN
*I *886:A1 I *D sg13g2_o21ai_1
*I *885:Y O *D sg13g2_inv_1
*CAP
1 *886:A1 2.56377e-05
2 *885:Y 0.000819954
3 *135:10 0.000845592
4 *886:A1 *886:A2 4.77425e-05
5 *886:A1 *1438:A 4.78359e-05
6 *135:10 *875:A 0
7 *135:10 *885:A 0
8 *135:10 *1109:CLK 4.78192e-05
9 *135:10 *1232:A 0
10 *135:10 *267:14 0
11 *135:10 *286:79 0
12 *32:8 *135:10 0.00018128
*RES
1 *885:Y *135:10 46.9872 
2 *135:10 *886:A1 40.2728 
*END

*D_NET *136 0.000703492
*CONN
*I *888:A1 I *D sg13g2_o21ai_1
*I *887:Y O *D sg13g2_inv_1
*CAP
1 *888:A1 0
2 *887:Y 0.000117478
3 *136:8 0.000117478
4 *136:8 *888:B1 0.00012816
5 *136:8 *286:8 0
6 *136:8 *286:10 0
7 *136:8 *679:104 0.000340375
*RES
1 *887:Y *136:8 41.3552 
2 *136:8 *888:A1 40 
*END

*D_NET *137 0.000631935
*CONN
*I *890:A1 I *D sg13g2_o21ai_1
*I *889:Y O *D sg13g2_inv_1
*CAP
1 *890:A1 0
2 *889:Y 0.000134066
3 *137:8 0.000134066
4 *137:8 *889:A 7.52158e-05
5 *137:8 *308:72 0.000288588
*RES
1 *889:Y *137:8 41.3552 
2 *137:8 *890:A1 40 
*END

*D_NET *138 0.00485448
*CONN
*I *1462:A I *D sg13g2_dlygate4sd3_1
*I *1202:A I *D sg13g2_buf_1
*I *891:Y O *D sg13g2_nor3_2
*CAP
1 *1462:A 0
2 *1202:A 0
3 *891:Y 0.000377129
4 *138:14 0.00187295
5 *138:8 0.00225008
6 *138:8 *912:A1 0
7 *138:8 *1250:A 0
8 *138:8 *405:12 0
9 *138:8 *783:8 0
10 *138:14 *1353:A 0.000274233
11 *138:14 *267:34 0
12 *138:14 *272:14 0
13 *138:14 *405:12 0
14 *138:14 *497:8 0
15 *138:14 *668:14 0
16 *138:14 *683:10 8.00842e-05
17 *138:14 *783:8 0
18 *138:14 *784:8 0
19 *113:18 *138:14 0
20 *113:20 *138:14 0
21 *113:26 *138:14 0
*RES
1 *891:Y *138:8 43.0448 
2 *138:8 *138:14 35.356 
3 *138:14 *1202:A 20 
4 *138:8 *1462:A 40 
*END

*D_NET *139 0.00150723
*CONN
*I *893:B I *D sg13g2_nand2_1
*I *892:Y O *D sg13g2_a22oi_1
*CAP
1 *893:B 0.00021986
2 *892:Y 0.00026402
3 *139:10 0.00048388
4 *893:B *898:A1 0
5 *893:B *358:37 4.77425e-05
6 *893:B *658:80 0
7 *139:10 *892:B2 0.000112253
8 *139:10 *898:A1 0
9 *139:10 *1098:CLK 0
10 *139:10 *358:37 0.000379475
11 *1098:D *893:B 0
*RES
1 *892:Y *139:10 42.4464 
2 *139:10 *893:B 41.936 
*END

*D_NET *140 0.00067194
*CONN
*I *895:B I *D sg13g2_nand2_1
*I *894:Y O *D sg13g2_a22oi_1
*CAP
1 *895:B 0.000312127
2 *894:Y 0.000312127
3 *895:B *894:B1 0
4 *895:B *894:A2 0
5 *895:B *682:50 4.7687e-05
*RES
1 *894:Y *895:B 43.1856 
*END

*D_NET *141 0.00078329
*CONN
*I *897:B I *D sg13g2_nand2_1
*I *896:Y O *D sg13g2_a22oi_1
*CAP
1 *897:B 0.000215788
2 *896:Y 0.000215788
3 *897:B *896:B1 0.000304188
4 *897:B *896:B2 4.75265e-05
5 *897:B *897:A 0
*RES
1 *896:Y *897:B 41.936 
*END

*D_NET *142 0.00091317
*CONN
*I *899:B I *D sg13g2_nand2_1
*I *898:Y O *D sg13g2_a22oi_1
*CAP
1 *899:B 0.000300705
2 *898:Y 0.000300705
3 *899:B *898:B1 4.78685e-05
4 *899:B *898:A1 1.54205e-05
5 *899:B *319:36 3.24129e-05
6 *899:B *319:40 0.000135974
7 *899:B *682:20 1.54008e-05
8 *899:B *682:33 6.46834e-05
*RES
1 *898:Y *899:B 42.6224 
*END

*D_NET *143 0.000820261
*CONN
*I *901:B I *D sg13g2_nand2_1
*I *900:Y O *D sg13g2_a22oi_1
*CAP
1 *901:B 5.34799e-05
2 *900:Y 0.000316466
3 *143:8 0.000369946
4 *901:B *901:A 0
5 *901:B *902:B1 8.03692e-05
6 *143:8 *352:28 0
7 *143:8 *502:10 0
8 *143:8 *683:30 0
9 *113:26 *143:8 0
*RES
1 *900:Y *143:8 42.4112 
2 *143:8 *901:B 40.4576 
*END

*D_NET *144 0.000866653
*CONN
*I *903:B I *D sg13g2_nand2_1
*I *902:Y O *D sg13g2_a22oi_1
*CAP
1 *903:B 0.00014662
2 *902:Y 0.000207365
3 *144:10 0.000353985
4 *903:B *903:A 1.54008e-05
5 *903:B *351:42 6.31981e-05
6 *144:10 *902:B1 8.00842e-05
7 *127:45 *903:B 0
*RES
1 *902:Y *144:10 41.6016 
2 *144:10 *903:B 41.2144 
*END

*D_NET *145 0.00158962
*CONN
*I *905:B I *D sg13g2_nand2_1
*I *904:Y O *D sg13g2_a22oi_1
*CAP
1 *905:B 0
2 *904:Y 0.000520492
3 *145:10 0.000520492
4 *145:10 *904:B1 0.00027466
5 *145:10 *904:B2 1.54556e-05
6 *145:10 *319:57 0.000258523
7 *145:10 *500:20 0
8 *145:10 *683:83 0
*RES
1 *904:Y *145:10 44.4 
2 *145:10 *905:B 40 
*END

*D_NET *146 0.00370337
*CONN
*I *907:B I *D sg13g2_nand2_1
*I *906:Y O *D sg13g2_a22oi_1
*CAP
1 *907:B 0.000558868
2 *906:Y 0.000317078
3 *146:10 0.000875946
4 *907:B *904:B1 0
5 *907:B *351:54 0.000889974
6 *907:B *680:216 0
7 *146:10 *906:B2 0.000112716
8 *146:10 *906:A1 0.000177093
9 *146:10 *351:54 4.79124e-05
10 *146:10 *630:22 0
11 *146:10 *680:238 0
12 *146:10 *683:83 0.00012526
13 *1095:RESET_B *907:B 0.000598526
*RES
1 *906:Y *146:10 42.7104 
2 *146:10 *907:B 45.632 
*END

*D_NET *147 0.000366526
*CONN
*I *909:B I *D sg13g2_nand2_1
*I *908:Y O *D sg13g2_a22oi_1
*CAP
1 *909:B 0.000183263
2 *908:Y 0.000183263
3 *909:B *908:A1 0
4 *909:B *704:50 0
5 *909:A *909:B 0
*RES
1 *908:Y *909:B 41.5664 
*END

*D_NET *148 0.000693258
*CONN
*I *911:B I *D sg13g2_nand2_1
*I *910:Y O *D sg13g2_a22oi_1
*CAP
1 *911:B 0.000198774
2 *910:Y 0.000198774
3 *911:B *911:A 0
4 *911:B *1249:A 0.000295709
5 *127:18 *911:B 0
*RES
1 *910:Y *911:B 42.0724 
*END

*D_NET *149 0.000794307
*CONN
*I *913:B I *D sg13g2_nand2_1
*I *912:Y O *D sg13g2_a22oi_1
*CAP
1 *913:B 0.000252093
2 *912:Y 0.000252093
3 *913:B *912:B1 0.000274666
4 *913:B *783:12 1.54556e-05
5 *913:B *783:22 0
6 *913:A *913:B 0
7 *1463:A *913:B 0
*RES
1 *912:Y *913:B 42.4992 
*END

*D_NET *150 0.00123187
*CONN
*I *915:B I *D sg13g2_nand2_1
*I *914:Y O *D sg13g2_a22oi_1
*CAP
1 *915:B 0
2 *914:Y 0.000463679
3 *150:10 0.000463679
4 *150:10 *869:A 0
5 *150:10 *914:A1 0
6 *150:10 *1090:CLK 0
7 *150:10 *1372:A 0
8 *150:10 *675:57 0
9 *150:10 *675:67 0.000289116
10 *150:10 *675:71 0
11 *150:10 *679:14 0
12 *150:10 *679:38 0
13 *150:10 *679:51 1.54008e-05
*RES
1 *914:Y *150:10 43.9776 
2 *150:10 *915:B 40 
*END

*D_NET *151 0.00135471
*CONN
*I *923:A1 I *D sg13g2_a22oi_1
*I *916:Y O *D sg13g2_inv_1
*CAP
1 *923:A1 0
2 *916:Y 0.000396462
3 *151:10 0.000396462
4 *151:10 *1085:RESET_B 0.000117802
5 *151:10 *155:10 0
6 *151:10 *175:10 0
7 *151:10 *398:10 0
8 *151:10 *609:23 0
9 *151:10 *609:31 0.000234224
10 *151:10 *660:58 0.000209763
11 *151:10 *781:8 0
*RES
1 *916:Y *151:10 43.7928 
2 *151:10 *923:A1 40 
*END

*D_NET *152 0.00717552
*CONN
*I *1052:A1 I *D sg13g2_o21ai_1
*I *919:A1 I *D sg13g2_o21ai_1
*I *917:Y O *D sg13g2_inv_1
*CAP
1 *1052:A1 0
2 *919:A1 0.000793489
3 *917:Y 0.000889047
4 *152:14 0.00101841
5 *152:8 0.00111397
6 *919:A1 *944:B2 0
7 *919:A1 *1443:A 0
8 *919:A1 *191:40 8.03692e-05
9 *919:A1 *250:16 0.00024199
10 *919:A1 *341:8 0.000242313
11 *919:A1 *341:94 0
12 *919:A1 *664:49 1.54118e-05
13 *919:A1 *664:62 0.000582561
14 *152:8 *937:B1 0
15 *152:8 *764:10 7.9885e-05
16 *152:8 *765:24 0.00121343
17 *152:14 *173:39 0.000341119
18 *152:14 *341:8 1.54556e-05
19 *152:14 *341:27 3.23636e-05
20 *152:14 *764:10 0
21 *1451:A *152:8 0
22 *66:8 *152:14 0.000444612
23 *105:48 *919:A1 0
24 *105:71 *919:A1 3.8639e-05
25 *105:71 *152:14 3.24568e-05
*RES
1 *917:Y *152:8 47.6648 
2 *152:8 *152:14 22.684 
3 *152:14 *919:A1 27.128 
4 *152:14 *1052:A1 20 
*END

*D_NET *153 0.00126396
*CONN
*I *1334:A I *D sg13g2_buf_1
*I *964:B I *D sg13g2_nor4_1
*I *918:Y O *D sg13g2_inv_1
*CAP
1 *1334:A 0.000466649
2 *964:B 0
3 *918:Y 4.72978e-05
4 *153:12 7.8918e-05
5 *153:6 0.000592865
6 *1334:A *940:A 0
7 *1334:A *940:B 0
8 *1334:A *171:10 0
9 *1334:A *361:10 4.74248e-05
10 *1334:A *437:34 0
11 *1334:A *437:49 0
12 *1334:A *438:23 1.54008e-05
13 *153:12 *191:8 0
14 *105:40 *1334:A 0
15 *105:48 *1334:A 1.54008e-05
16 *112:8 *153:12 0
*RES
1 *918:Y *153:6 20.5104 
2 *153:6 *153:12 40.7216 
3 *153:12 *964:B 20 
4 *153:6 *1334:A 23.5288 
*END

*D_NET *154 0.000848001
*CONN
*I *920:B1 I *D sg13g2_o21ai_1
*I *919:Y O *D sg13g2_o21ai_1
*CAP
1 *920:B1 0.000246453
2 *919:Y 0.000246453
3 *920:B1 *920:A1 0
4 *920:B1 *155:10 0.000339639
5 *920:B1 *437:64 1.54556e-05
6 *920:B1 *664:49 0
7 *919:B1 *920:B1 0
*RES
1 *919:Y *920:B1 42.2352 
*END

*D_NET *155 0.000962905
*CONN
*I *1460:A I *D sg13g2_dlygate4sd3_1
*I *920:Y O *D sg13g2_o21ai_1
*CAP
1 *1460:A 0
2 *920:Y 0.000248204
3 *155:10 0.000248204
4 *155:10 *923:B1 0
5 *155:10 *398:10 0.000126859
6 *920:B1 *155:10 0.000339639
7 *1089:D *155:10 0
8 *151:10 *155:10 0
*RES
1 *920:Y *155:10 42.4464 
2 *155:10 *1460:A 40 
*END

*D_NET *156 0.0125738
*CONN
*I *938:B2 I *D sg13g2_a22oi_1
*I *933:B2 I *D sg13g2_a22oi_1
*I *928:B2 I *D sg13g2_a22oi_1
*I *957:B2 I *D sg13g2_a22oi_1
*I *963:B2 I *D sg13g2_a22oi_1
*I *951:B2 I *D sg13g2_a22oi_1
*I *923:B2 I *D sg13g2_a22oi_1
*I *945:B2 I *D sg13g2_a22oi_1
*I *921:X O *D sg13g2_and3_1
*CAP
1 *938:B2 9.62759e-05
2 *933:B2 0.000672488
3 *928:B2 0
4 *957:B2 0
5 *963:B2 0.000290682
6 *951:B2 0
7 *923:B2 0.000112905
8 *945:B2 0
9 *921:X 0.000135382
10 *156:83 0.000790836
11 *156:81 0.000737438
12 *156:72 0.000849762
13 *156:49 0.000690777
14 *156:42 0.000452371
15 *156:29 0.000694144
16 *156:22 0.00122932
17 *156:10 0.00116268
18 *933:B2 *928:B1 0.00019935
19 *933:B2 *933:A1 0.000306805
20 *933:B2 *1390:A 0
21 *933:B2 *1397:A 4.77425e-05
22 *933:B2 *609:119 0.000287889
23 *933:B2 *720:47 0
24 *938:B2 *609:100 0.000111868
25 *963:B2 *963:B1 0
26 *963:B2 *963:A1 0
27 *156:10 *1250:A 0
28 *156:22 *865:B1 8.00842e-05
29 *156:22 *1288:A 8.0342e-05
30 *156:22 *609:16 0.000598428
31 *156:22 *752:18 0.000338195
32 *156:22 *778:12 0.000403661
33 *156:29 *609:16 0
34 *156:29 *609:23 0.00024211
35 *156:29 *609:44 0
36 *156:42 *923:B1 0
37 *156:42 *486:23 0
38 *156:42 *609:44 0.000555821
39 *156:42 *609:63 3.23417e-05
40 *156:49 *963:A1 0
41 *156:49 *609:63 0.000150407
42 *156:72 *957:B1 0.00030944
43 *156:72 *1082:RESET_B 8.00842e-05
44 *156:72 *609:63 0.000112706
45 *156:72 *609:76 4.77699e-05
46 *156:81 *928:B1 0
47 *156:81 *1342:A 0
48 *156:81 *609:91 0
49 *156:81 *764:10 0
50 *156:81 *765:24 0
51 *156:83 *169:16 0
52 *156:83 *609:100 0
53 *865:A1 *156:22 4.77425e-05
54 *1082:D *963:B2 8.00842e-05
55 *1085:D *156:22 4.79124e-05
56 *1085:D *156:29 0.000259089
57 *1086:D *938:B2 4.76452e-05
58 *1086:D *156:81 0
59 *1089:D *923:B2 4.79124e-05
60 *1089:D *156:22 0
61 *1089:D *156:29 0
62 *1451:A *156:81 0
63 *1453:A *156:22 0
64 *1457:A *156:22 0
65 *48:10 *933:B2 3.23417e-05
66 *48:10 *156:83 4.78192e-05
67 *49:10 *933:B2 4.77702e-05
68 *52:10 *963:B2 0
69 *54:10 *963:B2 1.54008e-05
70 *119:16 *156:10 0
*RES
1 *921:X *156:10 40.9944 
2 *156:10 *156:22 29.3896 
3 *156:22 *945:B2 20 
4 *156:22 *156:29 2.1208 
5 *156:29 *923:B2 21.2056 
6 *156:29 *156:42 3.74 
7 *156:42 *951:B2 20 
8 *156:42 *156:49 0.8272 
9 *156:49 *963:B2 22.904 
10 *156:49 *156:72 3.0624 
11 *156:72 *957:B2 20 
12 *156:72 *156:81 4.4792 
13 *156:81 *156:83 1.012 
14 *156:83 *928:B2 20 
15 *156:83 *933:B2 26.4592 
16 *156:81 *938:B2 21.1528 
*END

*D_NET *158 0.00134673
*CONN
*I *928:A1 I *D sg13g2_a22oi_1
*I *924:Y O *D sg13g2_inv_1
*CAP
1 *928:A1 1.88319e-05
2 *924:Y 0.000351183
3 *158:12 0.000370015
4 *928:A1 *928:B1 3.15911e-05
5 *928:A1 *169:16 0
6 *158:12 *1124:CLK 0
7 *158:12 *1386:A 0
8 *158:12 *173:16 7.99179e-05
9 *158:12 *609:100 0.000208168
10 *48:10 *158:12 0.000287025
*RES
1 *924:Y *158:12 43.2736 
2 *158:12 *928:A1 40.1804 
*END

*D_NET *159 0.00447304
*CONN
*I *967:A1 I *D sg13g2_o21ai_1
*I *926:A1 I *D sg13g2_o21ai_1
*I *925:Y O *D sg13g2_inv_1
*CAP
1 *967:A1 0
2 *926:A1 0.00099615
3 *925:Y 0.000192457
4 *159:21 0.000272948
5 *159:8 0.00146155
6 *926:A1 *949:A2 0
7 *926:A1 *1078:CLK 0.00025904
8 *926:A1 *1124:CLK 8.03692e-05
9 *926:A1 *1387:A 0
10 *926:A1 *363:29 0
11 *926:A1 *664:79 1.54556e-05
12 *926:A1 *664:94 0
13 *926:A1 *680:106 0
14 *926:A1 *680:115 0
15 *926:A1 *680:121 0
16 *926:A1 *717:8 0
17 *926:A1 *717:38 4.77537e-05
18 *159:8 *949:A2 0
19 *159:8 *1078:CLK 1.54008e-05
20 *159:8 *341:33 0
21 *159:8 *363:29 0
22 *159:21 *848:A1 0
23 *159:21 *193:8 0.00012816
24 *159:21 *657:44 0.000554906
25 *159:21 *657:55 0.000448842
26 *926:B1 *926:A1 0
27 *1125:RESET_B *926:A1 0
*RES
1 *925:Y *159:8 21.6808 
2 *159:8 *926:A1 28.2192 
3 *159:8 *159:21 43.8896 
4 *159:21 *967:A1 20 
*END

*D_NET *160 0.000470324
*CONN
*I *927:B1 I *D sg13g2_o21ai_1
*I *926:Y O *D sg13g2_o21ai_1
*CAP
1 *927:B1 0
2 *926:Y 6.94182e-05
3 *160:8 6.94182e-05
4 *160:8 *664:79 7.52149e-05
5 *160:8 *678:24 7.50805e-05
6 *160:8 *678:59 0.000181192
7 *105:73 *160:8 0
*RES
1 *926:Y *160:8 40.9328 
2 *160:8 *927:B1 40 
*END

*D_NET *161 0.00363646
*CONN
*I *928:B1 I *D sg13g2_a22oi_1
*I *927:Y O *D sg13g2_o21ai_1
*CAP
1 *928:B1 0.000198551
2 *927:Y 0.00044024
3 *161:12 0.000638791
4 *928:B1 *765:24 0
5 *161:12 *1124:CLK 0.00107958
6 *161:12 *1389:A 5.18521e-05
7 *161:12 *341:33 0
8 *161:12 *363:29 8.00667e-05
9 *161:12 *364:6 0
10 *161:12 *688:10 0.000868627
11 *928:A1 *928:B1 3.15911e-05
12 *933:B2 *928:B1 0.00019935
13 *48:10 *928:B1 4.78195e-05
14 *156:81 *928:B1 0
*RES
1 *927:Y *161:12 45.6232 
2 *161:12 *928:B1 41.9536 
*END

*D_NET *162 0.00342836
*CONN
*I *933:A1 I *D sg13g2_a22oi_1
*I *929:Y O *D sg13g2_inv_1
*CAP
1 *933:A1 0.000282657
2 *929:Y 0.000697676
3 *162:8 0.000980334
4 *933:A1 *1390:A 0.00050132
5 *162:8 *1126:CLK 0
6 *162:8 *680:153 0
7 *162:8 *716:12 0.000659571
8 *162:8 *719:8 0
9 *933:B2 *933:A1 0.000306805
10 *49:10 *933:A1 0
*RES
1 *929:Y *162:8 47.48 
2 *162:8 *933:A1 42.86 
*END

*D_NET *163 0.00423687
*CONN
*I *969:A1 I *D sg13g2_o21ai_1
*I *931:A1 I *D sg13g2_o21ai_1
*I *930:Y O *D sg13g2_inv_1
*CAP
1 *969:A1 0
2 *931:A1 0.000754227
3 *930:Y 0.000766471
4 *163:10 0.000754227
5 *163:8 0.000766471
6 *931:A1 *936:A1 0.000129827
7 *931:A1 *936:A2 0
8 *931:A1 *969:A2 8.02595e-05
9 *931:A1 *971:A2 0
10 *931:A1 *1076:D 0
11 *931:A1 *1427:A 0
12 *931:A1 *257:12 0
13 *931:A1 *341:33 0.000922111
14 *931:A1 *341:42 4.78192e-05
15 *931:A1 *363:12 0
16 *931:A1 *664:94 1.54556e-05
17 *163:8 *971:A1 0
18 *163:8 *167:8 0
19 *163:8 *255:24 0
20 *163:8 *739:14 0
21 *56:8 *163:8 0
*RES
1 *930:Y *163:8 47.2688 
2 *163:8 *163:10 20 
3 *163:10 *931:A1 26.7408 
4 *163:10 *969:A1 20 
*END

*D_NET *164 0.00192985
*CONN
*I *932:B1 I *D sg13g2_o21ai_1
*I *931:Y O *D sg13g2_o21ai_1
*CAP
1 *932:B1 3.25441e-05
2 *931:Y 0.000247676
3 *164:14 0.000248352
4 *164:8 0.000463484
5 *164:8 *165:12 0.000468896
6 *164:14 *341:27 0
7 *164:14 *362:42 0
8 *105:99 *164:8 0.000468896
*RES
1 *931:Y *164:8 42.6752 
2 *164:8 *164:14 41.936 
3 *164:14 *932:B1 40.2992 
*END

*D_NET *165 0.00258375
*CONN
*I *933:B1 I *D sg13g2_a22oi_1
*I *932:Y O *D sg13g2_o21ai_1
*CAP
1 *933:B1 0
2 *932:Y 0.000919055
3 *165:12 0.000919055
4 *165:12 *917:A 0
5 *165:12 *936:A1 4.77425e-05
6 *165:12 *937:B1 0
7 *165:12 *362:10 4.77251e-05
8 *165:12 *680:133 0
9 *165:12 *680:153 0
10 *165:12 *765:24 0
11 *105:99 *165:12 0
12 *105:105 *165:12 0.00018128
13 *164:8 *165:12 0.000468896
*RES
1 *932:Y *165:12 48.052 
2 *165:12 *933:B1 40 
*END

*D_NET *166 0.0012701
*CONN
*I *938:A1 I *D sg13g2_a22oi_1
*I *934:Y O *D sg13g2_inv_1
*CAP
1 *938:A1 0
2 *934:Y 0.000331694
3 *166:8 0.000331694
4 *166:8 *493:10 0
5 *166:8 *660:97 0
6 *166:8 *672:8 0.000606712
7 *166:8 *765:8 0
*RES
1 *934:Y *166:8 43.256 
2 *166:8 *938:A1 40 
*END

*D_NET *167 0.00301857
*CONN
*I *936:A2 I *D sg13g2_o21ai_1
*I *971:A1 I *D sg13g2_o21ai_1
*I *935:Y O *D sg13g2_inv_1
*CAP
1 *936:A2 0.000568949
2 *971:A1 0.000109819
3 *935:Y 0.000525693
4 *167:8 0.00120446
5 *936:A2 *917:A 0
6 *936:A2 *936:A1 0.000145009
7 *936:A2 *1076:D 4.79124e-05
8 *936:A2 *1079:RESET_B 0
9 *936:A2 *1079:D 0
10 *936:A2 *257:12 0
11 *936:A2 *363:12 0
12 *936:A2 *657:59 0
13 *936:A2 *765:24 0
14 *971:A1 *257:12 0.000130677
15 *971:A1 *341:68 7.62389e-05
16 *971:A1 *657:55 0
17 *931:A1 *936:A2 0
18 *1418:A *936:A2 0.000209812
19 *56:8 *971:A1 0
20 *163:8 *971:A1 0
21 *163:8 *167:8 0
*RES
1 *935:Y *167:8 44.9456 
2 *167:8 *971:A1 41.144 
3 *167:8 *936:A2 45.3504 
*END

*D_NET *168 0.00120442
*CONN
*I *937:B1 I *D sg13g2_o21ai_1
*I *936:Y O *D sg13g2_o21ai_1
*CAP
1 *937:B1 0.000594482
2 *936:Y 0.000594482
3 *937:B1 *932:A1 0
4 *937:B1 *937:A2 1.54556e-05
5 *1451:A *937:B1 0
6 *152:8 *937:B1 0
7 *165:12 *937:B1 0
*RES
1 *936:Y *937:B1 44.8224 
*END

*D_NET *169 0.00143289
*CONN
*I *938:B1 I *D sg13g2_a22oi_1
*I *937:Y O *D sg13g2_o21ai_1
*CAP
1 *938:B1 3.34444e-05
2 *937:Y 0.000163041
3 *169:16 0.000359255
4 *169:8 0.000488852
5 *169:8 *173:16 0
6 *169:16 *1342:A 0
7 *169:16 *173:16 0
8 *169:16 *672:8 0.000340553
9 *169:16 *765:24 0
10 *928:A1 *169:16 0
11 *1086:D *938:B1 4.77425e-05
12 *48:10 *169:16 0
13 *156:83 *169:16 0
*RES
1 *937:Y *169:8 41.3552 
2 *169:8 *169:16 42.9216 
3 *169:16 *938:B1 40.2728 
*END

*D_NET *170 0.000549681
*CONN
*I *945:A1 I *D sg13g2_a22oi_1
*I *939:Y O *D sg13g2_inv_1
*CAP
1 *945:A1 0
2 *939:Y 0.000237068
3 *170:8 0.000237068
4 *170:8 *916:A 0
5 *170:8 *1085:RESET_B 0
6 *170:8 *175:10 7.55443e-05
7 *170:8 *407:12 0
8 *170:8 *609:31 0
*RES
1 *939:Y *170:8 42.2 
2 *170:8 *945:A1 40 
*END

*D_NET *171 0.0042195
*CONN
*I *950:A2 I *D sg13g2_a22oi_1
*I *944:A2 I *D sg13g2_a22oi_1
*I *940:Y O *D sg13g2_nor2_1
*CAP
1 *950:A2 0
2 *944:A2 0
3 *940:Y 0.000396464
4 *171:25 0.000716234
5 *171:12 0.000716234
6 *171:10 0.000396464
7 *171:10 *920:A1 1.54008e-05
8 *171:10 *940:B 0.000144691
9 *171:10 *250:16 0
10 *171:10 *437:64 0.000337302
11 *171:10 *664:6 0.000209648
12 *171:10 *664:10 0.00028427
13 *171:25 *944:B2 0.000566108
14 *171:25 *175:10 0
15 *171:25 *180:8 0
16 *171:25 *365:10 0
17 *171:25 *714:26 0
18 *1089:D *171:10 0
19 *1334:A *171:10 0
20 *105:48 *171:10 0
21 *105:48 *171:25 0.000436681
*RES
1 *940:Y *171:10 44.2152 
2 *171:10 *171:12 20 
3 *171:12 *944:A2 20 
4 *171:12 *171:25 46.4592 
5 *171:25 *950:A2 20 
*END

*D_NET *172 0.000376042
*CONN
*I *944:B1 I *D sg13g2_a22oi_1
*I *941:Y O *D sg13g2_nand2b_1
*CAP
1 *944:B1 0.000131638
2 *941:Y 0.000131638
3 *944:B1 *175:10 0.000112766
4 *106:27 *944:B1 0
*RES
1 *941:Y *944:B1 41.364 
*END

*D_NET *173 0.0065334
*CONN
*I *943:A2 I *D sg13g2_o21ai_1
*I *1050:A1 I *D sg13g2_o21ai_1
*I *942:Y O *D sg13g2_inv_1
*CAP
1 *943:A2 0
2 *1050:A1 0.000284238
3 *942:Y 0.000966443
4 *173:39 0.000527021
5 *173:20 0.00110049
6 *173:16 0.00125568
7 *1050:A1 *1052:B1 0
8 *1050:A1 *1443:A 0.00032186
9 *173:16 *1079:CLK 0.000143692
10 *173:16 *1124:CLK 0
11 *173:16 *1386:A 0
12 *173:16 *609:119 0
13 *173:16 *672:8 0
14 *173:20 *341:27 0
15 *173:39 *664:71 0.000663604
16 *173:39 *678:20 0.000534205
17 *173:39 *764:10 0.000235055
18 *1451:A *1050:A1 0
19 *1451:A *173:20 0
20 *105:54 *173:39 1.54008e-05
21 *105:71 *173:39 6.46834e-05
22 *152:14 *173:39 0.000341119
23 *158:12 *173:16 7.99179e-05
24 *169:8 *173:16 0
25 *169:16 *173:16 0
*RES
1 *942:Y *173:16 48.2016 
2 *173:16 *173:20 22.4904 
3 *173:20 *1050:A1 22.6928 
4 *173:20 *173:39 45.984 
5 *173:39 *943:A2 20 
*END

*D_NET *174 0.0021409
*CONN
*I *944:B2 I *D sg13g2_a22oi_1
*I *943:Y O *D sg13g2_o21ai_1
*CAP
1 *944:B2 0.000610987
2 *943:Y 0.000610987
3 *944:B2 *175:10 4.77866e-05
4 *919:A1 *944:B2 0
5 *105:48 *944:B2 8.00842e-05
6 *105:54 *944:B2 0.000209544
7 *105:71 *944:B2 1.54008e-05
8 *106:27 *944:B2 0
9 *171:25 *944:B2 0.000566108
*RES
1 *943:Y *944:B2 45.8872 
*END

*D_NET *175 0.00206893
*CONN
*I *945:B1 I *D sg13g2_a22oi_1
*I *944:Y O *D sg13g2_a22oi_1
*CAP
1 *945:B1 0
2 *944:Y 0.000688317
3 *175:10 0.000688317
4 *175:10 *940:B 0
5 *175:10 *1064:A1 0
6 *175:10 *250:16 0.000181781
7 *175:10 *398:22 0
8 *175:10 *407:12 0
9 *175:10 *437:49 1.54008e-05
10 *175:10 *437:64 0.000259013
11 *944:B1 *175:10 0.000112766
12 *944:B2 *175:10 4.77866e-05
13 *105:48 *175:10 0
14 *106:27 *175:10 0
15 *151:10 *175:10 0
16 *170:8 *175:10 7.55443e-05
17 *171:25 *175:10 0
*RES
1 *944:Y *175:10 46.2216 
2 *175:10 *945:B1 40 
*END

*D_NET *176 0.00266136
*CONN
*I *951:A1 I *D sg13g2_a22oi_1
*I *946:Y O *D sg13g2_inv_1
*CAP
1 *951:A1 0
2 *946:Y 0.000574242
3 *176:8 0.000574242
4 *176:8 *398:10 0
5 *176:8 *486:23 0.00151288
6 *176:8 *647:8 0
7 *176:8 *763:8 0
*RES
1 *946:Y *176:8 47.2688 
2 *176:8 *951:A1 40 
*END

*D_NET *177 0.000271052
*CONN
*I *950:B1 I *D sg13g2_a22oi_1
*I *947:Y O *D sg13g2_nand2_1
*CAP
1 *950:B1 0.000135526
2 *947:Y 0.000135526
3 *950:B1 *949:A1 0
4 *950:B1 *950:B2 0
5 *950:B1 *950:A1 0
6 *950:B1 *664:18 0
7 *116:22 *950:B1 0
*RES
1 *947:Y *950:B1 41.2056 
*END

*D_NET *178 0.00872399
*CONN
*I *973:A1 I *D sg13g2_o21ai_1
*I *949:A2 I *D sg13g2_o21ai_1
*I *948:Y O *D sg13g2_inv_1
*CAP
1 *973:A1 0
2 *949:A2 0.00183325
3 *948:Y 0
4 *178:37 0.00073061
5 *178:14 0.00199041
6 *178:4 0.00088777
7 *949:A2 *849:A0 0.000436401
8 *949:A2 *949:B1 0.000759979
9 *949:A2 *949:A1 1.54008e-05
10 *949:A2 *955:A2 0
11 *949:A2 *956:B2 0
12 *949:A2 *670:12 0
13 *949:A2 *670:16 0
14 *949:A2 *677:36 0.000111683
15 *949:A2 *680:121 0
16 *949:A2 *714:10 0
17 *178:14 *848:A1 0.000289113
18 *178:14 *849:A0 2.20736e-05
19 *178:14 *346:8 0.00029161
20 *178:37 *967:A2 4.77425e-05
21 *178:37 *196:8 0.000130011
22 *850:A *949:A2 0.000176629
23 *926:A1 *949:A2 0
24 *1124:RESET_B *949:A2 0
25 *1124:D *949:A2 0.000305521
26 *1125:RESET_B *949:A2 0.000695788
27 *1340:A *949:A2 0
28 *116:10 *949:A2 0
29 *159:8 *949:A2 0
*RES
1 *948:Y *178:4 20 
2 *178:4 *178:14 41.9008 
3 *178:14 *949:A2 36.7816 
4 *178:4 *178:37 45.588 
5 *178:37 *973:A1 20 
*END

*D_NET *179 0.000562996
*CONN
*I *950:B2 I *D sg13g2_a22oi_1
*I *949:Y O *D sg13g2_o21ai_1
*CAP
1 *950:B2 0.000281498
2 *949:Y 0.000281498
3 *950:B2 *949:A1 0
4 *950:B1 *950:B2 0
5 *116:18 *950:B2 0
*RES
1 *949:Y *950:B2 42.2616 
*END

*D_NET *180 0.00349936
*CONN
*I *951:B1 I *D sg13g2_a22oi_1
*I *950:Y O *D sg13g2_a22oi_1
*CAP
1 *951:B1 3.74884e-05
2 *950:Y 0.000641217
3 *180:8 0.000678705
4 *180:8 *1060:A0 0.00131276
5 *180:8 *250:8 0
6 *180:8 *398:10 0
7 *180:8 *398:22 0
8 *180:8 *403:10 0.000591525
9 *180:8 *486:23 0.000237656
10 *180:8 *714:26 0
11 *171:25 *180:8 0
*RES
1 *950:Y *180:8 47.48 
2 *180:8 *951:B1 40.2728 
*END

*D_NET *181 0.00154961
*CONN
*I *957:A1 I *D sg13g2_a22oi_1
*I *952:Y O *D sg13g2_inv_1
*CAP
1 *957:A1 0
2 *952:Y 0.000774805
3 *181:8 0.000774805
4 *181:8 *660:25 0
5 *181:8 *715:23 0
6 *53:8 *181:8 0
*RES
1 *952:Y *181:8 47.2688 
2 *181:8 *957:A1 40 
*END

*D_NET *182 0.00675076
*CONN
*I *975:A1 I *D sg13g2_o21ai_1
*I *954:B I *D sg13g2_nand3_1
*I *953:Y O *D sg13g2_inv_1
*CAP
1 *975:A1 0
2 *954:B 0.00135003
3 *953:Y 0
4 *182:31 0.000598185
5 *182:16 0.00188011
6 *182:4 0.00112827
7 *954:B *847:A1 0
8 *954:B *954:C 0
9 *954:B *954:A 0
10 *954:B *960:B 0
11 *954:B *960:A 0.000112332
12 *954:B *961:A2 0
13 *954:B *961:A1 0
14 *954:B *961:B1 4.77425e-05
15 *954:B *962:B1 0
16 *954:B *1141:CLK 0.000468787
17 *954:B *187:14 0
18 *954:B *189:10 0
19 *954:B *190:22 0
20 *954:B *359:14 0
21 *954:B *364:27 0
22 *954:B *402:18 0.000792185
23 *954:B *685:89 0
24 *182:16 cio_gpio_o[0] 0
25 *182:16 *848:S 0
26 *182:16 *959:A 8.03091e-05
27 *182:16 *1275:A 9.62275e-05
28 *182:16 *346:16 0.000181192
29 *182:16 *402:6 0
30 *182:16 *685:89 0
31 *182:31 cio_gpio_o[0] 0
32 *182:31 *953:A 1.54008e-05
33 *182:31 *1271:A 0
34 *182:31 *1398:A 0
35 *182:31 *196:8 0
36 *182:31 *402:6 0
37 *1074:D *182:16 0
*RES
1 *953:Y *182:4 20 
2 *182:4 *182:16 44.7608 
3 *182:16 *954:B 31.3608 
4 *182:4 *182:31 45.8256 
5 *182:31 *975:A1 20 
*END

*D_NET *183 0.00190167
*CONN
*I *956:B1 I *D sg13g2_a22oi_1
*I *954:Y O *D sg13g2_nand3_1
*CAP
1 *956:B1 0.00033824
2 *954:Y 0.000187625
3 *183:8 0.000525865
4 *956:B1 *956:B2 0.000179259
5 *956:B1 *956:A1 0.00040308
6 *956:B1 *1384:A 4.76068e-05
7 *956:B1 *359:14 0
8 *956:B1 *677:10 0.000144866
9 *183:8 *960:A 0
10 *183:8 *359:29 0
11 *183:8 *670:18 0
12 *183:8 *677:36 7.51285e-05
*RES
1 *954:Y *183:8 41.5664 
2 *183:8 *956:B1 43.4012 
*END

*D_NET *184 0.00196119
*CONN
*I *956:B2 I *D sg13g2_a22oi_1
*I *955:X O *D sg13g2_a21o_1
*CAP
1 *956:B2 0.000754462
2 *955:X 0.000754462
3 *956:B2 *949:A1 0
4 *956:B2 *955:A2 4.78524e-05
5 *956:B2 *955:B1 8.02927e-05
6 *956:B2 *1384:A 0
7 *956:B2 *359:14 0
8 *956:B2 *670:16 0
9 *956:B2 *677:10 0.000144866
10 *949:A2 *956:B2 0
11 *956:B1 *956:B2 0.000179259
*RES
1 *955:X *956:B2 46.3448 
*END

*D_NET *185 0.0033171
*CONN
*I *957:B1 I *D sg13g2_a22oi_1
*I *956:Y O *D sg13g2_a22oi_1
*CAP
1 *957:B1 0.000251809
2 *956:Y 0.00125202
3 *185:8 0.00150383
4 *957:B1 *1050:B1 0
5 *957:B1 *191:40 0
6 *185:8 *963:B1 0
7 *185:8 *1060:A0 0
8 *185:8 *403:10 0
9 *185:8 *660:12 0
10 *185:8 *664:62 0
11 *1451:A *957:B1 0
12 *54:10 *185:8 0
13 *105:54 *185:8 0
14 *156:72 *957:B1 0.00030944
*RES
1 *956:Y *185:8 49.3808 
2 *185:8 *957:B1 42.4772 
*END

*D_NET *186 0.000610002
*CONN
*I *963:A1 I *D sg13g2_a22oi_1
*I *958:Y O *D sg13g2_inv_1
*CAP
1 *963:A1 0.000281064
2 *958:Y 0.000281064
3 *963:A1 *963:B1 4.78743e-05
4 *963:A1 *191:23 0
5 *963:A1 *191:40 0
6 *963:B2 *963:A1 0
7 *54:10 *963:A1 0
8 *156:49 *963:A1 0
*RES
1 *958:Y *963:A1 42.3144 
*END

*D_NET *187 0.00555315
*CONN
*I *977:A1 I *D sg13g2_o21ai_1
*I *960:B I *D sg13g2_nand3_1
*I *959:Y O *D sg13g2_inv_1
*CAP
1 *977:A1 0
2 *960:B 0.00104136
3 *959:Y 0.000178633
4 *187:31 0.000621098
5 *187:14 0.00176994
6 *187:10 0.000286109
7 *960:B *954:C 1.54008e-05
8 *960:B *1141:CLK 0.000895389
9 *960:B *189:10 0.000208971
10 *960:B *348:8 0
11 *960:B *348:16 0
12 *960:B *678:67 0.000306167
13 *960:B *685:89 0
14 *187:10 *402:18 7.9407e-05
15 *187:14 *685:89 0
16 *187:31 *1388:A 0
17 *187:31 *198:16 0.000150673
18 *187:31 *657:12 0
19 *187:31 *657:25 0
20 *187:31 *657:31 0
21 *187:31 *657:44 0
22 *187:31 *680:87 0
23 *954:B *960:B 0
24 *954:B *187:14 0
*RES
1 *959:Y *187:10 41.3904 
2 *187:10 *187:14 20.8272 
3 *187:14 *960:B 28.976 
4 *187:14 *187:31 46.0016 
5 *187:31 *977:A1 20 
*END

*D_NET *188 0.000326521
*CONN
*I *962:B1 I *D sg13g2_a22oi_1
*I *960:Y O *D sg13g2_nand3_1
*CAP
1 *962:B1 5.95004e-05
2 *960:Y 0.00010376
3 *188:8 0.000163261
4 *962:B1 *359:14 0
5 *954:B *962:B1 0
*RES
1 *960:Y *188:8 40.7216 
2 *188:8 *962:B1 40.4576 
*END

*D_NET *189 0.00101158
*CONN
*I *962:B2 I *D sg13g2_a22oi_1
*I *961:X O *D sg13g2_a21o_1
*CAP
1 *962:B2 0
2 *961:X 0.000310664
3 *189:10 0.000310664
4 *189:10 *348:16 0.00018128
5 *189:10 *650:12 0
6 *189:10 *670:18 0
7 *954:B *189:10 0
8 *960:B *189:10 0.000208971
*RES
1 *961:X *189:10 42.552 
2 *189:10 *962:B2 40 
*END

*D_NET *190 0.0054281
*CONN
*I *963:B1 I *D sg13g2_a22oi_1
*I *962:Y O *D sg13g2_a22oi_1
*CAP
1 *963:B1 0.000793651
2 *962:Y 0.000632632
3 *190:22 0.00142628
4 *963:B1 *364:33 0
5 *963:B1 *660:12 0.000825685
6 *963:B1 *664:62 0.000394686
7 *963:B1 *677:10 0.00039765
8 *963:B1 *714:10 0
9 *190:22 *954:A 8.03692e-05
10 *190:22 *956:A1 0
11 *190:22 *359:14 0
12 *190:22 *714:16 0
13 *954:B *190:22 0
14 *963:B2 *963:B1 0
15 *963:A1 *963:B1 4.78743e-05
16 *1082:D *963:B1 0
17 *106:27 *963:B1 0.000829273
18 *185:8 *963:B1 0
*RES
1 *962:Y *190:22 45.8916 
2 *190:22 *963:B1 49.8384 
*END

*D_NET *191 0.00329196
*CONN
*I *1206:A I *D sg13g2_buf_1
*I *1051:A I *D sg13g2_nand2_1
*I *1049:A I *D sg13g2_nand2_1
*I *964:Y O *D sg13g2_nor4_1
*CAP
1 *1206:A 0
2 *1051:A 0
3 *1049:A 0
4 *964:Y 0.000120043
5 *191:40 0.000366834
6 *191:23 0.000631038
7 *191:16 0.000264204
8 *191:14 0.00074222
9 *191:8 0.000862262
10 *191:8 *284:16 0
11 *191:14 *678:12 0
12 *191:14 *771:14 0
13 *191:23 *1049:B 0
14 *191:23 *1051:B 0
15 *191:23 *1443:A 1.54446e-05
16 *191:23 *486:23 0
17 *191:40 *1050:B1 0
18 *191:40 *1443:A 0.000161631
19 *191:40 *341:8 0
20 *191:40 *341:94 4.79124e-05
21 *828:A1 *191:8 0
22 *919:B1 *191:23 0
23 *919:A1 *191:40 8.03692e-05
24 *957:B1 *191:40 0
25 *963:A1 *191:23 0
26 *963:A1 *191:40 0
27 *112:8 *191:8 0
28 *153:12 *191:8 0
*RES
1 *964:Y *191:8 41.144 
2 *191:8 *191:14 47.8496 
3 *191:14 *191:16 20 
4 *191:16 *1049:A 20 
5 *191:16 *191:23 1.936 
6 *191:23 *1051:A 20 
7 *191:23 *191:40 43.0712 
8 *191:40 *1206:A 20 
*END

*D_NET *193 0.000547998
*CONN
*I *967:B1 I *D sg13g2_o21ai_1
*I *966:Y O *D sg13g2_nand2_1
*CAP
1 *967:B1 2.99958e-05
2 *966:Y 0.000156052
3 *193:8 0.000186048
4 *967:B1 *967:A2 4.77425e-05
5 *193:8 *848:A1 0
6 *193:8 *657:44 0
7 *159:21 *193:8 0.00012816
*RES
1 *966:Y *193:8 41.3552 
2 *193:8 *967:B1 40.2728 
*END

*D_NET *194 0.000168866
*CONN
*I *1417:A I *D sg13g2_dlygate4sd3_1
*I *968:Y O *D sg13g2_nand2_1
*CAP
1 *1417:A 0
2 *968:Y 8.4433e-05
3 *194:8 8.4433e-05
*RES
1 *968:Y *194:8 40.7216 
2 *194:8 *1417:A 40 
*END

*D_NET *195 0.000782939
*CONN
*I *1427:A I *D sg13g2_dlygate4sd3_1
*I *970:Y O *D sg13g2_nand2_1
*CAP
1 *1427:A 0.000383769
2 *970:Y 0.000383769
3 *1427:A *969:B1 0
4 *1427:A *971:B1 0
5 *1427:A *1277:A 0
6 *1427:A *341:42 1.54008e-05
7 *931:A1 *1427:A 0
*RES
1 *970:Y *1427:A 43.6168 
*END

*D_NET *196 0.00068385
*CONN
*I *973:B1 I *D sg13g2_o21ai_1
*I *972:Y O *D sg13g2_nand2_1
*CAP
1 *973:B1 3.11625e-05
2 *972:Y 0.000128544
3 *196:8 0.000159707
4 *973:B1 *973:A2 1.54008e-05
5 *973:B1 *718:19 0
6 *196:8 *346:22 0
7 *196:8 *346:26 7.48842e-05
8 *196:8 *718:19 0.00012874
9 *1074:D *973:B1 1.54008e-05
10 *178:37 *196:8 0.000130011
11 *182:31 *196:8 0
*RES
1 *972:Y *196:8 41.5664 
2 *196:8 *973:B1 40.2728 
*END

*D_NET *197 0.000608862
*CONN
*I *975:B1 I *D sg13g2_o21ai_1
*I *974:Y O *D sg13g2_nand2_1
*CAP
1 *975:B1 0.000191912
2 *974:Y 0.000191912
3 *975:B1 *974:B 0
4 *975:B1 *975:A2 0.000209637
5 *975:B1 *397:12 0
6 *59:10 *975:B1 1.54008e-05
*RES
1 *974:Y *975:B1 41.7688 
*END

*D_NET *198 0.00103962
*CONN
*I *977:B1 I *D sg13g2_o21ai_1
*I *976:Y O *D sg13g2_nand2_1
*CAP
1 *977:B1 2.27213e-05
2 *976:Y 0.000240187
3 *198:16 0.000262909
4 *198:16 *977:A2 0.000186415
5 *198:16 *395:30 0.000176718
6 *198:16 *680:87 0
7 *198:16 *743:8 0
8 *187:31 *198:16 0.000150673
*RES
1 *976:Y *198:16 42.7632 
2 *198:16 *977:B1 40.1804 
*END

*D_NET *199 0.000581649
*CONN
*I *983:A I *D sg13g2_nor2_1
*I *978:Y O *D sg13g2_inv_1
*CAP
1 *983:A 2.8373e-05
2 *978:Y 0.00016633
3 *199:8 0.000194703
4 *983:A *983:B 4.77534e-05
5 *983:A *204:10 1.54118e-05
6 *199:8 *203:21 0
7 *199:8 *594:14 0.000129078
8 *199:8 *594:27 0
*RES
1 *978:Y *199:8 41.7776 
2 *199:8 *983:A 40.2728 
*END

*D_NET *200 0.00155617
*CONN
*I *981:A I *D sg13g2_nor2_1
*I *1006:A I *D sg13g2_nand2_1
*I *979:Y O *D sg13g2_inv_1
*CAP
1 *981:A 7.73892e-05
2 *1006:A 0.000184636
3 *979:Y 0.000158541
4 *200:10 0.000420566
5 *981:A *981:B 0
6 *981:A *587:12 0.000111969
7 *1006:A *1006:B 0.000178621
8 *1006:A *1007:A2 0.000144311
9 *1006:A *1047:B 0
10 *1006:A *587:12 0
11 *1006:A *588:10 0.000126354
12 *200:10 *1006:B 0.00010648
13 *200:10 *1159:CLK 0
14 *200:10 *201:8 0
15 *200:10 *591:12 4.73078e-05
16 *1159:RESET_B *981:A 0
*RES
1 *979:Y *200:10 41.4168 
2 *200:10 *1006:A 41.7336 
3 *200:10 *981:A 40.6424 
*END

*D_NET *201 0.00231407
*CONN
*I *1006:B I *D sg13g2_nand2_1
*I *981:B I *D sg13g2_nor2_1
*I *980:Y O *D sg13g2_inv_1
*CAP
1 *1006:B 0.000349727
2 *981:B 3.20595e-05
3 *980:Y 0.000496831
4 *201:8 0.000878617
5 *1006:B *987:A1 4.73078e-05
6 *1006:B *989:A2 0
7 *1006:B *1007:A2 0.000176641
8 *1006:B *202:10 0
9 *1006:B *222:18 0
10 *1006:B *222:33 0
11 *1006:B *591:24 0
12 *201:8 *591:8 0
13 *201:8 *591:24 0
14 *981:A *981:B 0
15 *1006:A *1006:B 0.000178621
16 *1159:RESET_B *981:B 4.77863e-05
17 *200:10 *1006:B 0.00010648
18 *200:10 *201:8 0
*RES
1 *980:Y *201:8 44.9456 
2 *201:8 *981:B 40.2728 
3 *201:8 *1006:B 43.036 
*END

*D_NET *202 0.00186391
*CONN
*I *982:A I *D sg13g2_inv_1
*I *989:A2 I *D sg13g2_o21ai_1
*I *981:Y O *D sg13g2_nor2_1
*CAP
1 *982:A 0
2 *989:A2 0.000451717
3 *981:Y 0.00011501
4 *202:10 0.000566726
5 *989:A2 *986:A 0.000274463
6 *989:A2 *988:A 1.54556e-05
7 *989:A2 *989:A1 8.02269e-05
8 *989:A2 *207:14 0.00012816
9 *989:A2 *208:8 0
10 *989:A2 *208:23 0
11 *989:A2 *587:8 0
12 *989:A2 *591:24 0
13 *202:10 *591:24 0.000232155
14 *1006:B *989:A2 0
15 *1006:B *202:10 0
*RES
1 *981:Y *202:10 41.2056 
2 *202:10 *989:A2 43.7664 
3 *202:10 *982:A 40 
*END

*D_NET *203 0.00156646
*CONN
*I *1007:A1 I *D sg13g2_a22oi_1
*I *983:B I *D sg13g2_nor2_1
*I *982:Y O *D sg13g2_inv_1
*CAP
1 *1007:A1 0
2 *983:B 0.000211006
3 *982:Y 0.000157632
4 *203:21 0.000158415
5 *203:6 0.000527053
6 *983:B *1159:D 1.54008e-05
7 *983:B *204:10 0
8 *983:B *204:17 0
9 *203:6 *1007:A2 0
10 *203:6 *1159:D 0.000177477
11 *203:6 *587:12 1.54008e-05
12 *203:21 *204:25 0.000181192
13 *203:21 *587:8 0
14 *203:21 *594:27 7.51285e-05
15 *983:A *983:B 4.77534e-05
16 *1159:RESET_B *203:6 0
17 *199:8 *203:21 0
*RES
1 *982:Y *203:6 21.3816 
2 *203:6 *983:B 21.8656 
3 *203:6 *203:21 41.7776 
4 *203:21 *1007:A1 20 
*END

*D_NET *204 0.00336273
*CONN
*I *1007:B2 I *D sg13g2_a22oi_1
*I *990:A1 I *D sg13g2_a21oi_1
*I *1027:A I *D sg13g2_inv_1
*I *984:A I *D sg13g2_nand2_1
*I *983:Y O *D sg13g2_nor2_1
*CAP
1 *1007:B2 0
2 *990:A1 0.000437211
3 *1027:A 0
4 *984:A 0
5 *983:Y 0.000181675
6 *204:25 0.000878602
7 *204:17 0.000649805
8 *204:10 0.000390089
9 *990:A1 *208:23 0
10 *990:A1 *589:10 0.000242138
11 *990:A1 *593:16 0.000193973
12 *204:10 *1007:A2 0
13 *204:17 *205:18 8.02105e-05
14 *204:25 *988:A 0
15 *204:25 *593:16 0.000112426
16 *204:25 *594:6 0
17 *983:A *204:10 1.54118e-05
18 *983:B *204:10 0
19 *983:B *204:17 0
20 *203:21 *204:25 0.000181192
*RES
1 *983:Y *204:10 21.9008 
2 *204:10 *984:A 20 
3 *204:10 *204:17 1.7512 
4 *204:17 *204:25 43.9512 
5 *204:25 *1027:A 20 
6 *204:25 *990:A1 23.7136 
7 *204:17 *1007:B2 20 
*END

*D_NET *205 0.00227495
*CONN
*I *987:A1 I *D sg13g2_a21oi_1
*I *984:Y O *D sg13g2_nand2_1
*CAP
1 *987:A1 7.02148e-05
2 *984:Y 0.000610859
3 *205:18 0.000681074
4 *987:A1 *1007:A2 0
5 *987:A1 *222:18 0.000111554
6 *987:A1 *591:24 1.54008e-05
7 *205:18 *978:A 0.000274375
8 *205:18 *986:A 0
9 *205:18 *1008:A 4.77153e-05
10 *205:18 *207:14 0.000160168
11 *205:18 *222:18 4.79124e-05
12 *205:18 *588:10 0.00012816
13 *1006:B *987:A1 4.73078e-05
14 *204:17 *205:18 8.02105e-05
*RES
1 *984:Y *205:18 45.9136 
2 *205:18 *987:A1 40.6424 
*END

*D_NET *206 0.00331777
*CONN
*I *989:B1 I *D sg13g2_o21ai_1
*I *986:A I *D sg13g2_inv_1
*I *985:Y O *D sg13g2_xnor2_1
*CAP
1 *989:B1 0
2 *986:A 0.000214845
3 *985:Y 0.000880996
4 *206:22 0.00109584
5 *986:A *1008:A 0
6 *206:22 *1008:A 0
7 *206:22 *1047:B 0.000112826
8 *206:22 *1048:A0 3.8463e-05
9 *206:22 *1048:S 0.000523415
10 *206:22 *208:23 0
11 *206:22 *222:33 0.000176923
12 *206:22 *584:8 0
13 *989:A2 *986:A 0.000274463
14 *205:18 *986:A 0
*RES
1 *985:Y *206:22 28.5536 
2 *206:22 *986:A 21.8656 
3 *206:22 *989:B1 20 
*END

*D_NET *207 0.0018265
*CONN
*I *1008:A I *D sg13g2_nor2_1
*I *1028:B1 I *D sg13g2_a21oi_1
*I *987:B1 I *D sg13g2_a21oi_1
*I *986:Y O *D sg13g2_inv_1
*CAP
1 *1008:A 0.000195595
2 *1028:B1 0
3 *987:B1 0
4 *986:Y 0
5 *207:27 0.000382064
6 *207:14 0.0001437
7 *207:4 0.000721359
8 *1008:A *222:18 0
9 *1008:A *588:10 0
10 *207:14 *988:A 0
11 *207:14 *222:18 4.77425e-05
12 *207:27 *1028:A2 0
13 *207:27 *1161:CLK 0
14 *207:27 *236:8 0
15 *207:27 *589:10 0
16 *207:27 *590:8 0
17 *207:27 *593:16 0
18 *986:A *1008:A 0
19 *989:A2 *207:14 0.00012816
20 *205:18 *1008:A 4.77153e-05
21 *205:18 *207:14 0.000160168
22 *206:22 *1008:A 0
*RES
1 *986:Y *207:4 20 
2 *207:4 *207:14 41.4256 
3 *207:14 *987:B1 20 
4 *207:4 *207:27 43.08 
5 *207:27 *1028:B1 20 
6 *207:4 *1008:A 21.496 
*END

*D_NET *208 0.00200059
*CONN
*I *1046:A I *D sg13g2_nor3_1
*I *990:A2 I *D sg13g2_a21oi_1
*I *1028:A2 I *D sg13g2_a21oi_1
*I *988:Y O *D sg13g2_inv_1
*CAP
1 *1046:A 4.72978e-05
2 *990:A2 0
3 *1028:A2 0.000142966
4 *988:Y 4.25513e-05
5 *208:23 0.000550674
6 *208:8 0.000688893
7 *1028:A2 *1161:CLK 0
8 *1028:A2 *593:16 0.000261692
9 *208:8 *593:16 0.000106064
10 *208:23 *988:A 8.02269e-05
11 *208:23 *989:A1 8.02269e-05
12 *208:23 *209:12 0
13 *989:A2 *208:8 0
14 *989:A2 *208:23 0
15 *990:A1 *208:23 0
16 *206:22 *208:23 0
17 *207:27 *1028:A2 0
*RES
1 *988:Y *208:8 40.5104 
2 *208:8 *1028:A2 41.3904 
3 *208:8 *208:23 23.784 
4 *208:23 *990:A2 20 
5 *208:23 *1046:A 20.5104 
*END

*D_NET *209 0.000977272
*CONN
*I *1046:B I *D sg13g2_nor3_1
*I *990:B1 I *D sg13g2_a21oi_1
*I *989:Y O *D sg13g2_o21ai_1
*CAP
1 *1046:B 0
2 *990:B1 0
3 *989:Y 7.78054e-05
4 *209:18 0.000155794
5 *209:12 0.00028449
6 *209:8 0.000206501
7 *209:12 *222:33 0.000177467
8 *209:18 *1359:A 0
9 *209:18 *248:8 7.52149e-05
10 *208:23 *209:12 0
*RES
1 *989:Y *209:8 40.8272 
2 *209:8 *209:12 21.1968 
3 *209:12 *209:18 41.5664 
4 *209:18 *990:B1 20 
5 *209:12 *1046:B 20 
*END

*D_NET *210 0.000729208
*CONN
*I *993:A I *D sg13g2_nor2_1
*I *1037:A1 I *D sg13g2_o21ai_1
*I *991:Y O *D sg13g2_inv_1
*CAP
1 *993:A 0.000107311
2 *1037:A1 0
3 *991:Y 0
4 *210:12 0.000209436
5 *210:4 0.000316747
6 *993:A *993:B 0
7 *210:12 *995:A 0
8 *210:12 *1002:A 1.54556e-05
9 *210:12 *212:8 0
10 *210:12 *218:14 0
11 *210:12 *555:46 8.02595e-05
*RES
1 *991:Y *210:4 20 
2 *210:4 *210:12 41.8128 
3 *210:12 *1037:A1 20 
4 *210:4 *993:A 20.968 
*END

*D_NET *211 0.000539704
*CONN
*I *993:B I *D sg13g2_nor2_1
*I *992:Y O *D sg13g2_inv_1
*CAP
1 *993:B 0.000269852
2 *992:Y 0.000269852
3 *993:B *1001:A 0
4 *993:A *993:B 0
*RES
1 *992:Y *993:B 42.6136 
*END

*D_NET *212 0.00199686
*CONN
*I *994:A I *D sg13g2_nand2_1
*I *998:A2 I *D sg13g2_o21ai_1
*I *993:Y O *D sg13g2_nor2_1
*CAP
1 *994:A 0
2 *998:A2 4.96662e-05
3 *993:Y 0.000301363
4 *212:27 0.000293803
5 *212:12 0.000439783
6 *212:8 0.000397677
7 *998:A2 *1002:A 6.48039e-05
8 *998:A2 *216:20 1.54556e-05
9 *212:8 *217:10 0
10 *212:8 *242:12 0
11 *212:12 *1000:A 0
12 *212:12 *1002:A 8.0023e-05
13 *212:27 *994:B 0
14 *212:27 *995:A 0.000209517
15 *212:27 *996:A 0.000144767
16 *212:27 *217:10 0
17 *212:27 *557:14 0
18 *210:12 *212:8 0
*RES
1 *993:Y *212:8 42.6224 
2 *212:8 *212:12 20.8272 
3 *212:12 *998:A2 20.4576 
4 *212:12 *212:27 42.552 
5 *212:27 *994:A 20 
*END

*D_NET *213 0.00132892
*CONN
*I *995:A I *D sg13g2_inv_1
*I *1005:A1 I *D sg13g2_a21oi_1
*I *994:Y O *D sg13g2_nand2_1
*CAP
1 *995:A 0.00030401
2 *1005:A1 0.000200149
3 *994:Y 0
4 *213:4 0.000504159
5 *995:A *996:A 0
6 *995:A *1000:A 0
7 *995:A *1000:B 8.02269e-05
8 *995:A *1005:A2 0
9 *995:A *215:10 1.54008e-05
10 *995:A *218:8 0
11 *995:A *554:10 0
12 *995:A *555:46 0
13 *1005:A1 *1004:B1 0
14 *1005:A1 *1005:A2 1.54556e-05
15 *1005:A1 *1005:B1 0
16 *1005:A1 *218:8 0
17 *1005:A1 *554:10 0
18 *1005:A1 *557:6 0
19 *210:12 *995:A 0
20 *212:27 *995:A 0.000209517
*RES
1 *994:Y *213:4 20 
2 *213:4 *1005:A1 21.6808 
3 *213:4 *995:A 22.9304 
*END

*D_NET *214 0.00143356
*CONN
*I *1000:A I *D sg13g2_nand2_1
*I *999:A1 I *D sg13g2_a21oi_1
*I *995:Y O *D sg13g2_inv_1
*CAP
1 *1000:A 0.000178723
2 *999:A1 9.95373e-05
3 *995:Y 0.000376339
4 *214:10 0.000297153
5 *999:A1 *999:B1 0
6 *999:A1 *1005:A2 1.54118e-05
7 *999:A1 *215:10 0.00016146
8 *999:A1 *558:18 0.000145003
9 *1000:A *1000:B 8.02269e-05
10 *1000:A *1002:A 0
11 *1000:A *218:8 0
12 *214:10 *999:B1 0
13 *214:10 *1038:B 0
14 *214:10 *1038:A_N 7.9706e-05
15 *214:10 *558:18 0
16 *995:A *1000:A 0
17 *212:12 *1000:A 0
*RES
1 *995:Y *214:10 41.6016 
2 *214:10 *999:A1 41.012 
3 *995:Y *1000:A 41.496 
*END

*D_NET *215 0.00356274
*CONN
*I *999:A2 I *D sg13g2_a21oi_1
*I *1005:A2 I *D sg13g2_a21oi_1
*I *996:Y O *D sg13g2_inv_1
*CAP
1 *999:A2 0
2 *1005:A2 0.000982397
3 *996:Y 0.000259943
4 *215:10 0.00124234
5 *1005:A2 *994:B 0
6 *1005:A2 *999:B1 0.000274929
7 *1005:A2 *1004:A2 0
8 *1005:A2 *1004:B1 0
9 *1005:A2 *1005:B1 4.79124e-05
10 *1005:A2 *1038:A_N 0
11 *1005:A2 *1380:A 0
12 *1005:A2 *243:10 0
13 *1005:A2 *554:10 0.000242138
14 *1005:A2 *558:18 0.000209856
15 *1005:A2 *560:6 8.00998e-05
16 *1005:A2 *712:26 0
17 *215:10 *996:A 1.54008e-05
18 *215:10 *1038:A_N 0
19 *215:10 *558:18 0
20 *995:A *1005:A2 0
21 *995:A *215:10 1.54008e-05
22 *999:A1 *1005:A2 1.54118e-05
23 *999:A1 *215:10 0.00016146
24 *1005:A1 *1005:A2 1.54556e-05
*RES
1 *996:Y *215:10 22.3232 
2 *215:10 *1005:A2 29.5216 
3 *215:10 *999:A2 20 
*END

*D_NET *216 0.00295194
*CONN
*I *1002:A I *D sg13g2_inv_1
*I *998:B1 I *D sg13g2_o21ai_1
*I *997:Y O *D sg13g2_xnor2_1
*CAP
1 *1002:A 0.0002522
2 *998:B1 0
3 *997:Y 0.000444977
4 *216:20 0.00073531
5 *216:16 0.000928087
6 *1002:A *1003:B1 0
7 *1002:A *1180:D 0
8 *1002:A *242:12 0
9 *216:16 *559:8 0
10 *216:16 *559:16 0.000181334
11 *216:16 *604:27 7.90859e-05
12 *216:16 *604:31 7.51285e-05
13 *216:20 *1038:B 0
14 *216:20 *242:12 0
15 *216:20 *243:10 8.00842e-05
16 *216:20 *680:53 0
17 *216:20 *680:60 0
18 *216:20 *680:71 0
19 *216:20 *712:26 0
20 *998:A2 *1002:A 6.48039e-05
21 *998:A2 *216:20 1.54556e-05
22 *1000:A *1002:A 0
23 *61:10 *216:20 0
24 *210:12 *1002:A 1.54556e-05
25 *212:12 *1002:A 8.0023e-05
*RES
1 *997:Y *216:16 43.9248 
2 *216:16 *216:20 23.9688 
3 *216:20 *998:B1 20 
4 *216:20 *1002:A 22.464 
*END

*D_NET *217 0.00217894
*CONN
*I *1038:A_N I *D sg13g2_nand3b_1
*I *999:B1 I *D sg13g2_a21oi_1
*I *998:Y O *D sg13g2_o21ai_1
*CAP
1 *1038:A_N 0.00019661
2 *999:B1 0.000325501
3 *998:Y 0.000178248
4 *217:10 0.000700359
5 *999:B1 *553:8 0
6 *999:B1 *558:18 0.000242308
7 *1038:A_N *1038:B 0
8 *217:10 *242:12 0.00018128
9 *217:10 *557:14 0
10 *999:A1 *999:B1 0
11 *1005:A2 *999:B1 0.000274929
12 *1005:A2 *1038:A_N 0
13 *212:8 *217:10 0
14 *212:27 *217:10 0
15 *214:10 *999:B1 0
16 *214:10 *1038:A_N 7.9706e-05
17 *215:10 *1038:A_N 0
*RES
1 *998:Y *217:10 41.8128 
2 *217:10 *999:B1 42.9216 
3 *217:10 *1038:A_N 41.5664 
*END

*D_NET *218 0.00159326
*CONN
*I *1004:A1 I *D sg13g2_a21oi_1
*I *1003:A1 I *D sg13g2_a21oi_1
*I *1037:B1 I *D sg13g2_o21ai_1
*I *1000:Y O *D sg13g2_nand2_1
*CAP
1 *1004:A1 0
2 *1003:A1 0
3 *1037:B1 0.000279178
4 *1000:Y 0.000201807
5 *218:14 0.000437511
6 *218:8 0.000360139
7 *1037:B1 *1001:A 0
8 *1037:B1 *1003:A2 1.54008e-05
9 *1037:B1 *1003:B1 0
10 *1037:B1 *1180:D 0
11 *1037:B1 *220:6 0
12 *1037:B1 *555:46 0.000208105
13 *218:8 *1004:A2 1.54008e-05
14 *218:8 *1004:B1 0
15 *218:8 *220:6 0
16 *218:14 *552:8 7.57202e-05
17 *995:A *218:8 0
18 *1000:A *218:8 0
19 *1005:A1 *218:8 0
20 *210:12 *218:14 0
*RES
1 *1000:Y *218:8 21.6808 
2 *218:8 *218:14 41.3552 
3 *218:14 *1037:B1 22.3232 
4 *218:14 *1003:A1 20 
5 *218:8 *1004:A1 20 
*END

*D_NET *219 0.000427754
*CONN
*I *1003:A2 I *D sg13g2_a21oi_1
*I *1001:Y O *D sg13g2_xnor2_1
*CAP
1 *1003:A2 0.000206177
2 *1001:Y 0.000206177
3 *1003:A2 *1001:A 0
4 *1003:A2 *1004:A2 0
5 *1003:A2 *1180:D 0
6 *1037:B1 *1003:A2 1.54008e-05
*RES
1 *1001:Y *1003:A2 41.7072 
*END

*D_NET *220 0.00129877
*CONN
*I *1003:B1 I *D sg13g2_a21oi_1
*I *1005:B1 I *D sg13g2_a21oi_1
*I *1004:B1 I *D sg13g2_a21oi_1
*I *1002:Y O *D sg13g2_inv_1
*CAP
1 *1003:B1 8.51625e-05
2 *1005:B1 0.000218561
3 *1004:B1 5.89574e-05
4 *1002:Y 0.000122189
5 *220:10 0.000418077
6 *220:6 0.00034791
7 *220:6 *555:46 0
8 *1002:A *1003:B1 0
9 *1005:A1 *1004:B1 0
10 *1005:A1 *1005:B1 0
11 *1005:A2 *1004:B1 0
12 *1005:A2 *1005:B1 4.79124e-05
13 *1037:B1 *1003:B1 0
14 *1037:B1 *220:6 0
15 *218:8 *1004:B1 0
16 *218:8 *220:6 0
*RES
1 *1002:Y *220:6 21.012 
2 *220:6 *220:10 21.144 
3 *220:10 *1004:B1 40.4576 
4 *220:10 *1005:B1 41.9008 
5 *220:6 *1003:B1 20.7568 
*END

*D_NET *221 0.00123373
*CONN
*I *1007:A2 I *D sg13g2_a22oi_1
*I *1006:Y O *D sg13g2_nand2_1
*CAP
1 *1007:A2 0.000432519
2 *1006:Y 0.000432519
3 *1007:A2 *222:18 0
4 *1007:A2 *587:12 0
5 *1007:A2 *591:24 4.77425e-05
6 *987:A1 *1007:A2 0
7 *1006:A *1007:A2 0.000144311
8 *1006:B *1007:A2 0.000176641
9 *203:6 *1007:A2 0
10 *204:10 *1007:A2 0
*RES
1 *1006:Y *1007:A2 43.74 
*END

*D_NET *222 0.00206333
*CONN
*I *1046:C I *D sg13g2_nor3_1
*I *1008:B I *D sg13g2_nor2_1
*I *1007:Y O *D sg13g2_a22oi_1
*CAP
1 *1046:C 0
2 *1008:B 0
3 *1007:Y 0.00041738
4 *222:33 0.000293654
5 *222:18 0.000711034
6 *222:18 *588:10 7.96596e-05
7 *222:18 *591:24 0
8 *222:33 *1047:B 0
9 *987:A1 *222:18 0.000111554
10 *1006:B *222:18 0
11 *1006:B *222:33 0
12 *1007:A2 *222:18 0
13 *1008:A *222:18 0
14 *205:18 *222:18 4.79124e-05
15 *206:22 *222:33 0.000176923
16 *207:14 *222:18 4.77425e-05
17 *209:12 *222:33 0.000177467
*RES
1 *1007:Y *222:18 23.7884 
2 *222:18 *1008:B 20 
3 *222:18 *222:33 42.7456 
4 *222:33 *1046:C 20 
*END

*D_NET *223 0.000866539
*CONN
*I *1011:A I *D sg13g2_nor2_1
*I *1009:Y O *D sg13g2_inv_1
*CAP
1 *1011:A 0
2 *1009:Y 0.000312151
3 *223:10 0.000312151
4 *223:10 *1011:B 0
5 *223:10 *1044:B 0.000242236
6 *223:10 *285:8 0
7 *223:10 *760:10 0
*RES
1 *1009:Y *223:10 42.5256 
2 *223:10 *1011:A 40 
*END

*D_NET *224 0.00165549
*CONN
*I *1011:B I *D sg13g2_nor2_1
*I *1043:A2 I *D sg13g2_o21ai_1
*I *1010:Y O *D sg13g2_inv_1
*CAP
1 *1011:B 0.000316952
2 *1043:A2 0.000108791
3 *1010:Y 0.000306619
4 *224:8 0.000732362
5 *1011:B *1043:B1 0
6 *1011:B *1044:B 0
7 *1011:B *579:56 8.00842e-05
8 *1043:A2 *1043:B1 1.53311e-05
9 *1043:A2 *579:56 7.99455e-05
10 *224:8 *1021:A2 0
11 *224:8 *579:41 0
12 *224:8 *579:56 1.54008e-05
13 *223:10 *1011:B 0
*RES
1 *1010:Y *224:8 22.7896 
2 *224:8 *1043:A2 21.1792 
3 *224:8 *1011:B 22.6048 
*END

*D_NET *225 0.00202786
*CONN
*I *1016:A2 I *D sg13g2_o21ai_1
*I *1012:A I *D sg13g2_nand2_1
*I *1011:Y O *D sg13g2_nor2_1
*CAP
1 *1016:A2 0.000376024
2 *1012:A 7.18051e-05
3 *1011:Y 0.000283545
4 *225:12 0.000731374
5 *1012:A *581:26 0
6 *1016:A2 *1016:A1 1.54008e-05
7 *1016:A2 *1168:CLK 0
8 *1016:A2 *229:8 1.54008e-05
9 *1016:A2 *230:12 0.000486986
10 *1016:A2 *285:36 0
11 *1016:A2 *581:26 0
12 *225:12 *1013:A 0
13 *225:12 *1044:B 0
14 *225:12 *1044:C 4.73245e-05
15 *225:12 *230:12 0
16 *225:12 *230:33 0
*RES
1 *1011:Y *225:12 22.6752 
2 *225:12 *1012:A 20.7568 
3 *225:12 *1016:A2 23.5552 
*END

*D_NET *226 0.00148874
*CONN
*I *1013:A I *D sg13g2_inv_1
*I *1023:A1 I *D sg13g2_a21oi_1
*I *1012:Y O *D sg13g2_nand2_1
*CAP
1 *1013:A 0.000186308
2 *1023:A1 8.88163e-05
3 *1012:Y 6.40181e-05
4 *226:8 0.000339143
5 *1013:A *1014:A 0.000175853
6 *1013:A *582:44 0.0001122
7 *1023:A1 *228:27 7.51285e-05
8 *1023:A1 *411:18 0.000288173
9 *226:8 *230:33 0
10 *226:8 *411:18 0.000159096
11 *225:12 *1013:A 0
*RES
1 *1012:Y *226:8 40.7216 
2 *226:8 *1023:A1 41.144 
3 *226:8 *1013:A 41.5664 
*END

*D_NET *227 0.00181916
*CONN
*I *1018:A I *D sg13g2_nand2_1
*I *1017:A1 I *D sg13g2_a21oi_1
*I *1013:Y O *D sg13g2_inv_1
*CAP
1 *1018:A 0
2 *1017:A1 0.000387477
3 *1013:Y 8.06925e-05
4 *227:8 0.00046817
5 *1017:A1 *228:27 0.000339475
6 *1017:A1 *230:33 0.000339552
7 *1017:A1 *582:44 0.000128576
8 *1017:A1 *760:10 0
9 *227:8 *285:8 0
10 *227:8 *582:44 7.52149e-05
11 *227:8 *760:10 0
*RES
1 *1013:Y *227:8 40.7216 
2 *227:8 *1017:A1 43.9248 
3 *227:8 *1018:A 40 
*END

*D_NET *228 0.00225699
*CONN
*I *1017:A2 I *D sg13g2_a21oi_1
*I *1023:A2 I *D sg13g2_a21oi_1
*I *1014:Y O *D sg13g2_inv_1
*CAP
1 *1017:A2 0
2 *1023:A2 0
3 *1014:Y 7.48641e-05
4 *228:27 0.000610191
5 *228:12 0.000664845
6 *228:8 0.000129518
7 *228:8 tl_o[33] 0
8 *228:8 *411:18 0.000235141
9 *228:12 *233:8 0
10 *228:12 *285:36 8.00842e-05
11 *228:27 *1170:D 0
12 *228:27 *230:33 0
13 *228:27 *233:15 0
14 *228:27 *285:36 4.77425e-05
15 *228:27 *411:18 0
16 *228:27 *577:10 0
17 *1017:A1 *228:27 0.000339475
18 *1023:A1 *228:27 7.51285e-05
*RES
1 *1014:Y *228:8 40.9328 
2 *228:8 *228:12 20.4576 
3 *228:12 *1023:A2 20 
4 *228:12 *228:27 44.8576 
5 *228:27 *1017:A2 20 
*END

*D_NET *229 0.0031168
*CONN
*I *1016:B1 I *D sg13g2_o21ai_1
*I *1020:A I *D sg13g2_inv_1
*I *1015:Y O *D sg13g2_xnor2_1
*CAP
1 *1016:B1 0
2 *1020:A 0
3 *1015:Y 0.000819177
4 *229:14 0.000338869
5 *229:8 0.00115805
6 *229:8 *1015:A 0.000175727
7 *229:8 *1015:B 0
8 *229:8 *1162:D 0
9 *229:8 *1164:CLK 0
10 *229:8 *1169:D 0
11 *229:8 *581:10 0.000143413
12 *229:14 *285:46 0
13 *229:14 *415:12 0
14 *229:14 *581:18 7.3287e-05
15 *229:14 *694:19 0.000392884
16 *1016:A2 *229:8 1.54008e-05
*RES
1 *1015:Y *229:8 27.304 
2 *229:8 *229:14 43.256 
3 *229:14 *1020:A 20 
4 *229:8 *1016:B1 20 
*END

*D_NET *230 0.00393989
*CONN
*I *1017:B1 I *D sg13g2_a21oi_1
*I *1044:A_N I *D sg13g2_nand3b_1
*I *1016:Y O *D sg13g2_o21ai_1
*CAP
1 *1017:B1 0
2 *1044:A_N 0
3 *1016:Y 0.000381172
4 *230:33 0.000963022
5 *230:12 0.00134419
6 *230:12 *1044:C 9.96524e-06
7 *230:12 *505:18 0
8 *230:12 *582:12 0
9 *230:33 *1044:C 1.07318e-05
10 *230:33 *411:18 0
11 *230:33 *577:10 0.000404263
12 *230:33 *582:27 0
13 *230:33 *760:10 0
14 *1016:A2 *230:12 0.000486986
15 *1017:A1 *230:33 0.000339552
16 *225:12 *230:12 0
17 *225:12 *230:33 0
18 *226:8 *230:33 0
19 *228:27 *230:33 0
*RES
1 *1016:Y *230:12 23.7268 
2 *230:12 *1044:A_N 20 
3 *230:12 *230:33 48.0828 
4 *230:33 *1017:B1 20 
*END

*D_NET *231 0.00191114
*CONN
*I *1043:B1 I *D sg13g2_o21ai_1
*I *1021:A1 I *D sg13g2_a21oi_1
*I *1022:A1 I *D sg13g2_a21oi_1
*I *1018:Y O *D sg13g2_nand2_1
*CAP
1 *1043:B1 0.000236525
2 *1021:A1 0
3 *1022:A1 0
4 *1018:Y 6.71334e-05
5 *231:14 0.000123779
6 *231:8 0.000416853
7 *231:6 0.000596733
8 *231:6 *285:18 0
9 *231:8 *1021:A2 1.54008e-05
10 *231:8 *285:18 0
11 *231:8 *576:14 4.78356e-05
12 *231:8 *579:41 0.000209856
13 *231:14 *233:23 0.000181694
14 *231:14 *760:10 0
15 *231:14 *775:8 0
16 *1011:B *1043:B1 0
17 *1043:A2 *1043:B1 1.53311e-05
*RES
1 *1018:Y *231:6 20.7216 
2 *231:6 *231:8 2.86 
3 *231:8 *231:14 41.144 
4 *231:14 *1022:A1 20 
5 *231:8 *1021:A1 20 
6 *231:6 *1043:B1 22.7016 
*END

*D_NET *232 0.000628663
*CONN
*I *1021:A2 I *D sg13g2_a21oi_1
*I *1019:Y O *D sg13g2_xnor2_1
*CAP
1 *1021:A2 0.00017803
2 *1019:Y 0.00017803
3 *1021:A2 *579:18 0.000177257
4 *1021:A2 *579:41 7.99455e-05
5 *224:8 *1021:A2 0
6 *231:8 *1021:A2 1.54008e-05
*RES
1 *1019:Y *1021:A2 41.6808 
*END

*D_NET *233 0.00317663
*CONN
*I *1022:B1 I *D sg13g2_a21oi_1
*I *1021:B1 I *D sg13g2_a21oi_1
*I *1023:B1 I *D sg13g2_a21oi_1
*I *1020:Y O *D sg13g2_inv_1
*CAP
1 *1022:B1 3.09661e-05
2 *1021:B1 0
3 *1023:B1 0
4 *1020:Y 0.000384476
5 *233:23 0.000122833
6 *233:15 0.000735115
7 *233:8 0.000965791
8 *1022:B1 *1022:A2 0
9 *1022:B1 *285:18 0
10 *233:8 *1170:D 0
11 *233:8 *285:36 0
12 *233:8 *285:46 0.000209769
13 *233:8 *578:10 0.000241456
14 *233:15 *1170:D 0.000209043
15 *233:15 *285:18 0
16 *233:15 *285:36 0
17 *233:15 *760:10 0
18 *233:23 *285:18 4.77425e-05
19 *233:23 *576:14 4.77425e-05
20 *233:23 *760:10 0
21 *233:23 *775:8 0
22 *228:12 *233:8 0
23 *228:27 *233:15 0
24 *231:14 *233:23 0.000181694
*RES
1 *1020:Y *233:8 23.344 
2 *233:8 *1023:B1 20 
3 *233:8 *233:15 4.708 
4 *233:15 *233:23 41.4168 
5 *233:23 *1021:B1 20 
6 *233:15 *1022:B1 20.2728 
*END

*D_NET *234 0.00130079
*CONN
*I *1026:A1 I *D sg13g2_a21oi_1
*I *1030:A2 I *D sg13g2_a21oi_1
*I *1024:Y O *D sg13g2_inv_1
*CAP
1 *1026:A1 0.000208147
2 *1030:A2 0.000134302
3 *1024:Y 0.000393657
4 *234:10 0.000319811
5 *1026:A1 *1041:A 0
6 *1026:A1 *565:10 0
7 *1030:A2 *1030:A1 0
8 *1030:A2 *550:39 0
9 *234:10 *1041:A 4.71556e-05
10 *234:10 *661:14 0
11 *1025:B1 *234:10 0
12 *1030:B1 *234:10 0
13 *92:56 *1026:A1 1.54008e-05
14 *95:8 *234:10 0
15 *96:8 *234:10 0.000182315
16 *96:37 *1026:A1 0
*RES
1 *1024:Y *234:10 41.8392 
2 *234:10 *1030:A2 41.012 
3 *1024:Y *1026:A1 41.6808 
*END

*D_NET *235 0.00410383
*CONN
*I *1026:B1 I *D sg13g2_a21oi_1
*I *1025:X O *D sg13g2_a21o_1
*CAP
1 *1026:B1 0.000722883
2 *1025:X 0.000322055
3 *235:10 0.00104494
4 *235:10 *1144:CLK 0
5 *1025:B1 *1026:B1 0.00124697
6 *92:56 *1026:B1 0.000766981
7 *95:18 *235:10 0
*RES
1 *1025:X *235:10 42.4992 
2 *235:10 *1026:B1 47.1104 
*END

*D_NET *236 0.000284308
*CONN
*I *1028:A1 I *D sg13g2_a21oi_1
*I *1027:Y O *D sg13g2_inv_1
*CAP
1 *1028:A1 0
2 *1027:Y 0.000142154
3 *236:8 0.000142154
4 *207:27 *236:8 0
*RES
1 *1027:Y *236:8 40.9328 
2 *236:8 *1028:A1 40 
*END

*D_NET *237 0.0010519
*CONN
*I *1030:A1 I *D sg13g2_a21oi_1
*I *1029:Y O *D sg13g2_inv_1
*CAP
1 *1030:A1 0.000381013
2 *1029:Y 0.000381013
3 *1030:A1 *811:A 0.000144877
4 *1030:A1 *1041:A 0
5 *1030:A1 *1174:D 0
6 *1030:A1 *550:39 0
7 *1030:A2 *1030:A1 0
8 *96:37 *1030:A1 0.000144992
*RES
1 *1029:Y *1030:A1 43.1592 
*END

*D_NET *238 0.00147337
*CONN
*I *1033:A1 I *D sg13g2_a21oi_1
*I *1034:A I *D sg13g2_nor2b_1
*I *1032:Y O *D sg13g2_inv_1
*CAP
1 *1033:A1 0.000168932
2 *1034:A 5.21947e-05
3 *1032:Y 0.000146077
4 *238:8 0.000367204
5 *1033:A1 *1036:A2 0
6 *1033:A1 *1036:B1 0
7 *1033:A1 *1150:CLK 0.000174956
8 *1033:A1 *365:22 0
9 *1034:A *1036:B1 8.01938e-05
10 *1034:A *240:10 1.54008e-05
11 *1034:A *365:22 0
12 *238:8 *1150:CLK 2.20966e-05
13 *238:8 *713:29 0.00044631
14 *116:56 *238:8 0
*RES
1 *1032:Y *238:8 41.7776 
2 *238:8 *1034:A 40.4576 
3 *238:8 *1033:A1 41.7776 
*END

*D_NET *239 0.000512568
*CONN
*I *1036:A2 I *D sg13g2_a21oi_1
*I *1033:Y O *D sg13g2_a21oi_1
*CAP
1 *1036:A2 0.000256284
2 *1033:Y 0.000256284
3 *1036:A2 *1033:A2 0
4 *1036:A2 *1036:B1 0
5 *1036:A2 *350:27 0
6 *1033:A1 *1036:A2 0
*RES
1 *1033:Y *1036:A2 42.1032 
*END

*D_NET *240 0.00218206
*CONN
*I *1035:B I *D sg13g2_nor3_1
*I *1034:Y O *D sg13g2_nor2b_1
*CAP
1 *1035:B 0.000299062
2 *1034:Y 0.000307945
3 *240:10 0.000607007
4 *1035:B *1035:C 0.00050103
5 *1035:B *354:38 0
6 *1035:B *714:20 0.000274452
7 *240:10 *1035:C 0
8 *240:10 *1036:B1 0
9 *240:10 *365:22 0.000177164
10 *1034:A *240:10 1.54008e-05
*RES
1 *1034:Y *240:10 42.4728 
2 *240:10 *1035:B 42.86 
*END

*D_NET *241 0.00227904
*CONN
*I *1036:B1 I *D sg13g2_a21oi_1
*I *1035:Y O *D sg13g2_nor3_1
*CAP
1 *1036:B1 0.000970678
2 *1035:Y 0.000970678
3 *1036:B1 *1033:A2 0
4 *1036:B1 *1035:C 0
5 *1036:B1 *1060:A0 0
6 *1036:B1 *1060:A1 0
7 *1036:B1 *1150:CLK 0
8 *1036:B1 *350:27 0
9 *1036:B1 *367:38 0
10 *1036:B1 *685:14 0
11 *1036:B1 *713:6 4.77425e-05
12 *1036:B1 *713:25 0.000209747
13 *1036:B1 *714:20 0
14 *1033:A1 *1036:B1 0
15 *1034:A *1036:B1 8.01938e-05
16 *1036:A2 *1036:B1 0
17 *1355:A *1036:B1 0
18 *240:10 *1036:B1 0
*RES
1 *1035:Y *1036:B1 48.5536 
*END

*D_NET *242 0.00137158
*CONN
*I *1038:B I *D sg13g2_nand3b_1
*I *1037:Y O *D sg13g2_o21ai_1
*CAP
1 *1038:B 0.000215472
2 *1037:Y 0.00037195
3 *242:12 0.000587421
4 *1038:B *243:10 1.54556e-05
5 *242:12 *1180:RESET_B 0
6 *242:12 *1180:D 0
7 *242:12 *243:10 0
8 *242:12 *712:26 0
9 *1002:A *242:12 0
10 *1038:A_N *1038:B 0
11 *212:8 *242:12 0
12 *214:10 *1038:B 0
13 *216:20 *1038:B 0
14 *216:20 *242:12 0
15 *217:10 *242:12 0.00018128
*RES
1 *1037:Y *242:12 43.4056 
2 *242:12 *1038:B 41.6808 
*END

*D_NET *243 0.000372659
*CONN
*I *1039:S I *D sg13g2_mux2_1
*I *1038:Y O *D sg13g2_nand3b_1
*CAP
1 *1039:S 0
2 *1038:Y 0.00013856
3 *243:10 0.00013856
4 *243:10 *712:26 0
5 *1005:A2 *243:10 0
6 *1038:B *243:10 1.54556e-05
7 *216:20 *243:10 8.00842e-05
8 *242:12 *243:10 0
*RES
1 *1038:Y *243:10 41.1792 
2 *243:10 *1039:S 40 
*END

*D_NET *244 0.000911417
*CONN
*I *1041:C I *D sg13g2_nand3_1
*I *1040:Y O *D sg13g2_nor2_1
*CAP
1 *1041:C 0.000367652
2 *1040:Y 0.000367652
3 *1041:C *815:A2 0
4 *1041:C *1041:B 0.000176113
5 *807:A *1041:C 0
*RES
1 *1040:Y *1041:C 43.036 
*END

*D_NET *245 0.00113875
*CONN
*I *1042:S I *D sg13g2_mux2_1
*I *1041:Y O *D sg13g2_nand3_1
*CAP
1 *1042:S 0.000344622
2 *1041:Y 0.000344622
3 *1042:S *271:10 0
4 *1042:S *684:20 0.000306096
5 *807:A *1042:S 0
6 *91:8 *1042:S 0.000143407
*RES
1 *1041:Y *1042:S 43.1592 
*END

*D_NET *246 0.00151242
*CONN
*I *1044:B I *D sg13g2_nand3b_1
*I *1043:Y O *D sg13g2_o21ai_1
*CAP
1 *1044:B 0.000430532
2 *1043:Y 8.7373e-05
3 *246:8 0.000517905
4 *1044:B *1044:C 0
5 *1044:B *1045:S 0
6 *1044:B *1297:A 0
7 *1044:B *414:10 0
8 *1044:B *582:12 0
9 *246:8 *579:56 0
10 *246:8 *760:10 0.000234375
11 *1011:B *1044:B 0
12 *223:10 *1044:B 0.000242236
13 *225:12 *1044:B 0
*RES
1 *1043:Y *246:8 40.9328 
2 *246:8 *1044:B 43.7136 
*END

*D_NET *247 0.000301468
*CONN
*I *1045:S I *D sg13g2_mux2_1
*I *1044:Y O *D sg13g2_nand3b_1
*CAP
1 *1045:S 0.000110549
2 *1044:Y 0.000110549
3 *1045:S *582:12 8.03692e-05
4 *1044:B *1045:S 0
*RES
1 *1044:Y *1045:S 41.1792 
*END

*D_NET *248 0.000455826
*CONN
*I *1047:A I *D sg13g2_nand2_1
*I *1046:Y O *D sg13g2_nor3_1
*CAP
1 *1047:A 2.78801e-05
2 *1046:Y 0.000138516
3 *248:8 0.000166396
4 *1047:A *1048:S 4.78192e-05
5 *248:8 *1359:A 0
6 *157:70 *1047:A 0
7 *209:18 *248:8 7.52149e-05
*RES
1 *1046:Y *248:8 41.3552 
2 *248:8 *1047:A 40.2728 
*END

*D_NET *249 0.00143212
*CONN
*I *1048:S I *D sg13g2_mux2_1
*I *1047:Y O *D sg13g2_nand2_1
*CAP
1 *1048:S 0.000422713
2 *1047:Y 0.000422713
3 *1048:S *1047:B 1.54556e-05
4 *1048:S *1048:A0 0
5 *1047:A *1048:S 4.78192e-05
6 *1071:D *1048:S 0
7 *157:70 *1048:S 0
8 *206:22 *1048:S 0.000523415
*RES
1 *1047:Y *1048:S 44.0128 
*END

*D_NET *250 0.00252916
*CONN
*I *1450:A I *D sg13g2_dlygate4sd3_1
*I *1049:Y O *D sg13g2_nand2_1
*CAP
1 *1450:A 0
2 *1049:Y 0.000140663
3 *250:16 0.000605238
4 *250:8 0.000745901
5 *250:8 *398:10 0
6 *250:8 *398:22 0
7 *250:16 *398:22 0
8 *250:16 *437:64 0
9 *250:16 *664:6 0.000241989
10 *250:16 *664:49 0.000226655
11 *919:A1 *250:16 0.00024199
12 *105:48 *250:16 0.000144942
13 *171:10 *250:16 0
14 *175:10 *250:16 0.000181781
15 *180:8 *250:8 0
*RES
1 *1049:Y *250:8 41.144 
2 *250:8 *250:16 45.4296 
3 *250:16 *1450:A 40 
*END

*D_NET *251 0.00148045
*CONN
*I *1443:A I *D sg13g2_dlygate4sd3_1
*I *1051:Y O *D sg13g2_nand2_1
*CAP
1 *1443:A 0.000426711
2 *1051:Y 0.000426711
3 *1443:A *1050:B1 0
4 *1443:A *1051:B 1.54446e-05
5 *1443:A *1052:B1 0
6 *1443:A *341:8 0
7 *1443:A *341:94 0.000112651
8 *919:A1 *1443:A 0
9 *1050:A1 *1443:A 0.00032186
10 *191:23 *1443:A 1.54446e-05
11 *191:40 *1443:A 0.000161631
*RES
1 *1051:Y *1443:A 44.1888 
*END

*D_NET *252 0.000501157
*CONN
*I *1054:C I *D sg13g2_nand3b_1
*I *1053:Y O *D sg13g2_nand2_1
*CAP
1 *1054:C 0.000178795
2 *1053:Y 0.000178795
3 *1054:C *1053:A 4.77425e-05
4 *1054:C *668:80 0
5 *1054:C *778:27 1.54556e-05
6 *891:C *1054:C 0
7 *1054:B *1054:C 8.03692e-05
*RES
1 *1053:Y *1054:C 41.3816 
*END

*D_NET *253 0.00218534
*CONN
*I *1057:A1 I *D sg13g2_o21ai_1
*I *1056:Y O *D sg13g2_inv_1
*CAP
1 *1057:A1 0
2 *1056:Y 0.000875391
3 *253:10 0.000875391
4 *253:10 *1056:A 1.54556e-05
5 *253:10 *1228:A 0.000209549
6 *253:10 *1341:A 0
7 *253:10 *634:12 0.000209549
8 *253:10 *674:50 0
9 *253:10 *680:238 0
10 *253:10 *698:47 0
*RES
1 *1056:Y *253:10 46.776 
2 *253:10 *1057:A1 40 
*END

*D_NET *254 9.49885e-05
*CONN
*I *1066:A1 I *D sg13g2_o21ai_1
*I *1065:Y O *D sg13g2_inv_1
*CAP
1 *1066:A1 4.74942e-05
2 *1065:Y 4.74942e-05
3 *1066:A1 *1066:A2 0
4 *1425:A *1066:A1 0
*RES
1 *1065:Y *1066:A1 40.5104 
*END

*D_NET *602 0.00408769
*CONN
*P cio_gpio_en_o[0] O
*I *1279:X O *D sg13g2_buf_1
*CAP
1 cio_gpio_en_o[0] 0.00086142
2 *1279:X 0.000723864
3 *602:8 0.00158528
4 *601:14 cio_gpio_en_o[0] 0.000917124
5 *601:14 *602:8 0
*RES
1 *1279:X *602:8 47.6912 
2 *602:8 cio_gpio_en_o[0] 48.4744 
*END

*D_NET *601 0.00436506
*CONN
*P cio_gpio_en_o[1] O
*I *1278:X O *D sg13g2_buf_1
*CAP
1 cio_gpio_en_o[1] 6.48893e-05
2 *1278:X 0.000204481
3 *601:14 0.00151949
4 *601:8 0.00165908
5 *601:14 cio_gpio_en_o[0] 0.000917124
6 *601:14 *602:8 0
*RES
1 *1278:X *601:8 41.936 
2 *601:8 *601:14 35.488 
3 *601:14 cio_gpio_en_o[1] 20.4664 
*END

*D_NET *600 0.00178943
*CONN
*P cio_gpio_en_o[2] O
*I *1277:X O *D sg13g2_buf_1
*CAP
1 cio_gpio_en_o[2] 0.000894715
2 *1277:X 0.000894715
*RES
1 *1277:X cio_gpio_en_o[2] 29.4688 
*END

*D_NET *599 0.0069106
*CONN
*P cio_gpio_en_o[3] O
*I *1276:X O *D sg13g2_buf_1
*CAP
1 cio_gpio_en_o[3] 0.000355999
2 *1276:X 0.00071924
3 *599:12 0.00179456
4 *599:8 0.0021578
5 *599:12 *648:12 0.001883
*RES
1 *1276:X *599:8 47.9024 
2 *599:8 *599:12 34.5024 
3 *599:12 cio_gpio_en_o[3] 22.7896 
*END

*D_NET *344 0.00178936
*CONN
*P cio_gpio_i[0] I
*I *1406:A I *D sg13g2_dlygate4sd3_1
*CAP
1 cio_gpio_i[0] 0.000894682
2 *1406:A 0.000894682
3 *1406:A *727:10 0
*RES
1 cio_gpio_i[0] *1406:A 49.4248 
*END

*D_NET *343 0.00196301
*CONN
*P cio_gpio_i[1] I
*I *1400:A I *D sg13g2_dlygate4sd3_1
*CAP
1 cio_gpio_i[1] 0.000981506
2 *1400:A 0.000981506
3 *1400:A tl_o[33] 0
4 *1401:A *1400:A 0
5 *310:13 *1400:A 0
*RES
1 cio_gpio_i[1] *1400:A 49.4248 
*END

*D_NET *342 0.00291076
*CONN
*P cio_gpio_i[2] I
*I *1402:A I *D sg13g2_dlygate4sd3_1
*CAP
1 cio_gpio_i[2] 0.00105099
2 *1402:A 0
3 *342:11 0.00105099
4 *342:11 *1323:A 0
5 *342:11 *1324:A 0.00046917
6 *340:13 *342:11 0.000339607
*RES
1 cio_gpio_i[2] *342:11 31.3608 
2 *342:11 *1402:A 20 
*END

*D_NET *340 0.00252005
*CONN
*P cio_gpio_i[3] I
*I *1404:A I *D sg13g2_dlygate4sd3_1
*CAP
1 cio_gpio_i[3] 0.00109022
2 *1404:A 0
3 *340:13 0.00109022
4 *340:13 *1323:A 0
5 *340:13 *342:11 0.000339607
*RES
1 cio_gpio_i[3] *340:13 31.4488 
2 *340:13 *1404:A 20 
*END

*D_NET *649 0.00259346
*CONN
*P cio_gpio_o[0] O
*I *1275:X O *D sg13g2_buf_1
*CAP
1 cio_gpio_o[0] 0.00129673
2 *1275:X 0.00129673
3 cio_gpio_o[1] cio_gpio_o[0] 0
4 *953:A cio_gpio_o[0] 0
5 *1415:A cio_gpio_o[0] 0
6 *182:16 cio_gpio_o[0] 0
7 *182:31 cio_gpio_o[0] 0
*RES
1 *1275:X cio_gpio_o[0] 32.7952 
*END

*D_NET *295 0.00222811
*CONN
*P cio_gpio_o[1] O
*I *1273:X O *D sg13g2_buf_1
*CAP
1 cio_gpio_o[1] 0.00111405
2 *1273:X 0.00111405
3 cio_gpio_o[1] cio_gpio_o[0] 0
4 cio_gpio_o[1] *1415:A 0
*RES
1 *1273:X cio_gpio_o[1] 29.768 
*END

*D_NET *294 0.00229943
*CONN
*P cio_gpio_o[2] O
*I *1271:X O *D sg13g2_buf_1
*CAP
1 cio_gpio_o[2] 0.00114972
2 *1271:X 0.00114972
3 cio_gpio_o[2] *1308:A 0
4 cio_gpio_o[2] *1415:A 0
5 cio_gpio_o[2] *1416:A 0
6 *948:A cio_gpio_o[2] 0
7 *953:A cio_gpio_o[2] 0
8 *265:14 cio_gpio_o[2] 0
*RES
1 *1271:X cio_gpio_o[2] 31.8536 
*END

*D_NET *648 0.00615515
*CONN
*P cio_gpio_o[3] O
*I *1270:X O *D sg13g2_buf_1
*CAP
1 cio_gpio_o[3] 0.00038597
2 *1270:X 0.00069809
3 *648:12 0.00143798
4 *648:8 0.0017501
5 *599:12 *648:12 0.001883
*RES
1 *1270:X *648:8 47.6912 
2 *648:8 *648:12 30.8064 
3 *648:12 cio_gpio_o[3] 23.0008 
*END

*D_NET *267 0.0160007
*CONN
*P clk_i I
*I *1350:A I *D sg13g2_buf_8
*CAP
1 clk_i 0.00437867
2 *1350:A 0.000118071
3 *267:34 0.00362167
4 *267:14 0.00788227
5 *1350:A *272:14 0
6 *1350:A *695:6 0
7 *1350:A *695:14 0
8 *267:14 *859:A 0
9 *267:14 *874:A2 0
10 *267:14 *1109:CLK 0
11 *267:14 *286:79 0
12 *267:14 *472:10 0
13 *267:14 *516:10 0
14 *267:14 *519:10 0
15 *267:14 *522:16 0
16 *267:14 *655:16 0
17 *267:14 *655:18 0
18 *267:14 *681:16 0
19 *267:14 *697:32 0
20 *267:14 *732:8 0
21 *267:34 *900:B2 0
22 *267:34 *1094:CLK 0
23 *267:34 *1103:CLK 0
24 *267:34 *1104:RESET_B 0
25 *267:34 *1306:A 0
26 *267:34 *1353:A 0
27 *267:34 *1438:A 0
28 *267:34 *272:14 0
29 *267:34 *502:10 0
30 *267:34 *503:10 0
31 *267:34 *517:14 0
32 *267:34 *630:22 0
33 *267:34 *633:8 0
34 *267:34 *665:12 0
35 *267:34 *671:40 0
36 *267:34 *679:104 0
37 *267:34 *681:10 0
38 *267:34 *695:14 0
39 *267:34 *695:24 0
40 *1121:D *267:14 0
41 *1139:D *267:34 0
42 *21:10 *267:14 0
43 *22:12 *267:14 0
44 *23:14 *267:14 0
45 *32:8 *267:14 0
46 *127:39 *267:34 0
47 *135:10 *267:14 0
48 *138:14 *267:34 0
*RES
1 clk_i *267:14 38.7816 
2 *267:14 *267:34 48.7232 
3 *267:34 *1350:A 21.1264 
*END

*D_NET *680 0.0369122
*CONN
*I *1208:A I *D sg13g2_buf_16
*I *1329:A I *D sg13g2_buf_16
*I *1339:A I *D sg13g2_buf_16
*I *1356:A I *D sg13g2_buf_16
*I *1204:A I *D sg13g2_buf_16
*I *1332:A I *D sg13g2_buf_16
*I *1335:A I *D sg13g2_buf_16
*I *1333:A I *D sg13g2_buf_16
*I *1336:A I *D sg13g2_buf_16
*I *1358:A I *D sg13g2_buf_16
*I *1342:A I *D sg13g2_buf_16
*I *1347:A I *D sg13g2_buf_16
*I *1357:A I *D sg13g2_buf_16
*I *1343:A I *D sg13g2_buf_16
*I *1346:A I *D sg13g2_buf_16
*I *1331:A I *D sg13g2_buf_16
*I *1350:X O *D sg13g2_buf_8
*CAP
1 *1208:A 3.87699e-05
2 *1329:A 0
3 *1339:A 0.000106828
4 *1356:A 0.000136177
5 *1204:A 9.98988e-05
6 *1332:A 0.000107581
7 *1335:A 0
8 *1333:A 5.12569e-05
9 *1336:A 0
10 *1358:A 0
11 *1342:A 0.000140269
12 *1347:A 8.07325e-05
13 *1357:A 0
14 *1343:A 7.87149e-05
15 *1346:A 0
16 *1331:A 0
17 *1350:X 9.94311e-05
18 *680:316 0.000451576
19 *680:310 0.00114516
20 *680:294 0.000282414
21 *680:282 0.000534475
22 *680:266 0.000478247
23 *680:260 0.00154295
24 *680:256 0.000998055
25 *680:244 0.000386702
26 *680:238 0.00218701
27 *680:231 0.00168619
28 *680:222 0.000186411
29 *680:216 0.000794077
30 *680:208 0.00150836
31 *680:204 0.00159804
32 *680:191 0.00171493
33 *680:182 0.000165914
34 *680:178 8.0867e-05
35 *680:173 0.000121772
36 *680:167 0.000374497
37 *680:153 0.000107718
38 *680:141 0.000140269
39 *680:139 0.00040413
40 *680:133 0.0011767
41 *680:121 0.00110143
42 *680:115 0.00184718
43 *680:106 0.000285929
44 *680:97 0.000178895
45 *680:87 0.00203427
46 *680:75 0.000335935
47 *680:71 0.00332384
48 *680:60 0.0012189
49 *680:53 0.000282289
50 *680:47 0.00104073
51 *680:38 0.00100138
52 *680:31 0.000197554
53 *680:27 0.001902
54 *680:17 0.00228362
55 *680:15 0.000473058
56 *680:6 0.00039912
57 *1332:A *1080:D 0
58 *1333:A *691:10 0
59 *1339:A *1391:A 0
60 *1339:A *690:14 0
61 *1342:A *765:24 0
62 *1343:A *766:10 0
63 *680:6 *1185:CLK 0
64 *680:6 *695:14 0
65 *680:15 *1185:CLK 0
66 *680:47 *712:26 0
67 *680:53 *712:26 0
68 *680:71 *712:8 0
69 *680:71 *712:26 0
70 *680:71 *712:58 0
71 *680:75 *708:8 0
72 *680:75 *766:10 0
73 *680:87 *1387:A 0
74 *680:87 *1388:A 0
75 *680:87 *685:81 0
76 *680:87 *712:58 0
77 *680:87 *743:8 0
78 *680:106 *1387:A 0
79 *680:115 *1126:CLK 0
80 *680:115 *1387:A 0
81 *680:121 *1126:CLK 0
82 *680:133 *1126:CLK 0
83 *680:204 *901:A 0
84 *680:204 *682:10 0
85 *680:204 *682:14 0
86 *680:204 *695:24 0
87 *680:216 *905:A 0
88 *680:216 *691:10 0
89 *680:222 *691:10 0
90 *680:238 *698:47 0
91 *680:238 *759:12 0
92 *680:244 *698:47 0
93 *680:260 *698:47 0
94 *680:260 *779:10 0
95 *680:266 *1080:D 0
96 *680:282 *703:10 0
97 *680:282 *779:10 0
98 *680:310 *682:14 0
99 *680:310 *682:20 0
100 *680:310 *682:33 0
101 *680:316 *690:14 0
102 *680:316 *690:29 0
103 *900:B2 *680:204 0
104 *902:B1 *680:204 0
105 *907:B *680:216 0
106 *926:A1 *680:106 0
107 *926:A1 *680:115 0
108 *926:A1 *680:121 0
109 *949:A2 *680:121 0
110 *1039:A1 *680:53 0
111 *1039:A1 *680:60 0
112 *1039:A1 *680:71 0
113 *1095:RESET_B *680:216 0
114 *1095:D *680:216 0
115 *1097:D *680:204 0
116 *1115:D *680:244 0
117 *1124:RESET_B *680:121 0
118 *1125:RESET_B *680:97 0
119 *1125:RESET_B *680:106 0
120 *1125:RESET_B *680:115 0
121 *1128:RESET_B *680:27 0
122 *1151:D *680:47 0
123 *1189:A *680:87 0
124 *1190:A *680:47 0
125 *1244:A *680:204 0
126 *1245:A *680:204 0
127 *1328:A *680:27 0
128 *1340:A *680:121 0
129 *1354:A *680:173 0
130 *1354:A *680:191 0
131 *1368:A *680:244 0
132 *1373:A *680:282 0
133 *3:10 *680:87 0
134 *38:8 *680:310 0
135 *49:10 *680:153 0
136 *61:10 *680:53 0
137 *67:10 *1332:A 0
138 *67:10 *680:266 0
139 *69:10 *680:238 0
140 *100:56 *1204:A 0
141 *100:56 *680:282 0
142 *105:105 *680:133 0
143 *113:26 *680:191 0
144 *113:26 *680:204 0
145 *116:10 *680:121 0
146 *116:18 *680:121 0
147 *146:10 *680:238 0
148 *156:81 *1342:A 0
149 *162:8 *680:153 0
150 *165:12 *680:133 0
151 *165:12 *680:153 0
152 *169:16 *1342:A 0
153 *187:31 *680:87 0
154 *198:16 *680:87 0
155 *216:20 *680:53 0
156 *216:20 *680:60 0
157 *216:20 *680:71 0
158 *253:10 *680:238 0
159 *270:12 *680:27 0
160 *270:12 *680:47 0
161 *271:25 *680:15 0
162 *271:25 *680:17 0
163 *272:14 *680:6 0
164 *272:14 *680:15 0
165 *272:14 *680:204 0
166 *272:14 *680:310 0
167 *283:14 *1343:A 0
168 *283:14 *680:75 0
169 *297:80 *680:282 0
170 *308:32 *1356:A 0
171 *308:32 *680:244 0
172 *308:32 *680:256 0
173 *308:32 *680:294 0
174 *349:46 *680:15 0
175 *349:46 *680:17 0
176 *349:46 *680:27 0
177 *351:26 *680:167 0
178 *351:54 *1333:A 0
179 *351:54 *680:216 0
180 *351:54 *680:222 0
181 *352:16 *1208:A 0
182 *352:16 *680:167 0
183 *352:16 *680:173 0
184 *352:16 *680:204 0
185 *353:24 *1208:A 0
186 *358:37 *1339:A 0
187 *358:37 *680:316 0
188 *366:18 *680:15 0
189 *395:30 *680:87 0
190 *406:14 *680:27 0
191 *409:6 *680:75 0
192 *499:14 *680:238 0
193 *505:10 *680:191 0
194 *505:10 *680:204 0
195 *560:31 *680:71 0
196 *562:12 *680:71 0
197 *569:10 *680:27 0
198 *604:12 *680:47 0
199 *604:27 *680:47 0
200 *630:22 *680:204 0
201 *631:14 *680:204 0
202 *658:80 *1339:A 0
203 *658:100 *680:27 0
204 *660:12 *1347:A 0
205 *660:12 *680:121 0
206 *664:71 *680:121 0
207 *664:79 *680:121 0
208 *664:94 *680:133 0
209 *666:27 *680:27 0
210 *674:25 *680:238 0
*RES
1 *1350:X *680:6 20.8272 
2 *680:6 *680:15 23.0272 
3 *680:15 *680:17 1.3552 
4 *680:17 *680:27 34.5288 
5 *680:27 *680:31 0.8272 
6 *680:31 *1331:A 20 
7 *680:31 *680:38 1.012 
8 *680:38 *680:47 7.9464 
9 *680:47 *680:53 1.3376 
10 *680:53 *1346:A 20 
11 *680:53 *680:60 1.012 
12 *680:60 *680:71 29.4512 
13 *680:71 *680:75 22.4904 
14 *680:75 *1343:A 20.8272 
15 *680:71 *680:87 16.984 
16 *680:87 *680:97 20.5544 
17 *680:97 *1357:A 20 
18 *680:97 *680:106 1.232 
19 *680:106 *680:115 21.5488 
20 *680:115 *680:121 28.7384 
21 *680:121 *1347:A 20.8712 
22 *680:115 *680:133 6.0016 
23 *680:133 *680:139 44.3384 
24 *680:139 *680:141 20 
25 *680:141 *1342:A 21.012 
26 *680:133 *680:153 0.9328 
27 *680:153 *1358:A 40 
28 *680:17 *680:167 22.6752 
29 *680:167 *680:173 20.2728 
30 *680:173 *680:178 0.8272 
31 *680:178 *680:182 20 
32 *680:182 *1336:A 20 
33 *680:182 *680:191 1.3376 
34 *680:191 *680:204 32.1792 
35 *680:204 *680:208 20.4576 
36 *680:208 *680:216 45.9048 
37 *680:216 *680:222 1.1528 
38 *680:222 *1333:A 20.4576 
39 *680:222 *680:231 20 
40 *680:231 *680:238 34.4496 
41 *680:238 *680:244 23.4496 
42 *680:244 *1335:A 40 
43 *680:238 *680:256 1.012 
44 *680:256 *680:260 28.1136 
45 *680:260 *680:266 22.948 
46 *680:266 *1332:A 20.8272 
47 *680:260 *680:282 24.0832 
48 *680:282 *1204:A 21.012 
49 *680:256 *680:294 1.3816 
50 *680:294 *1356:A 21.3376 
51 *680:208 *680:310 26.2128 
52 *680:310 *680:316 23.4232 
53 *680:316 *1339:A 21.012 
54 *680:310 *1329:A 40 
55 *680:15 *1208:A 40.2728 
*END

*D_NET *669 0.0048218
*CONN
*I *1360:A I *D sg13g2_buf_8
*I *1359:A I *D sg13g2_buf_8
*I *1339:X O *D sg13g2_buf_16
*CAP
1 *1360:A 0.00106185
2 *1359:A 0.000961402
3 *1339:X 0
4 *669:6 0.00202325
5 *1359:A *689:8 0
6 *1359:A *690:14 0
7 *1360:A *690:6 0
8 *1360:A *690:8 0
9 *1360:A *690:14 0
10 *1155:D *1359:A 0
11 *1162:D *1359:A 0
12 *157:28 *1359:A 0.000209713
13 *157:70 *1360:A 0.000565586
14 *209:18 *1359:A 0
15 *248:8 *1359:A 0
16 *598:12 *1360:A 0
17 *598:22 *1360:A 0
18 *659:10 *1360:A 0
*RES
1 *1339:X *669:6 40 
2 *669:6 *1359:A 48.0432 
3 *669:6 *1360:A 49.0992 
*END

*D_NET *676 0.00517309
*CONN
*I *1380:A I *D sg13g2_buf_8
*I *1379:A I *D sg13g2_buf_8
*I *1346:X O *D sg13g2_buf_16
*CAP
1 *1380:A 0.00109201
2 *1379:A 0.000148633
3 *1346:X 0.001507
4 *676:8 0.000563616
5 *1379:A *1177:CLK 0
6 *1380:A *1176:CLK 0
7 *1380:A *1179:CLK 0.000242187
8 *1380:A *710:14 0
9 *1380:A *710:23 0
10 *1005:A2 *1380:A 0
11 *1177:RESET_B *676:8 0.000609685
12 *1178:D *1380:A 4.79124e-05
13 *560:6 *1380:A 0
14 *604:33 *676:8 0.000962044
*RES
1 *1346:X *676:8 46.2128 
2 *676:8 *1379:A 41.3816 
3 *1346:X *1380:A 49.9968 
*END

*D_NET *673 0.00214708
*CONN
*I *1381:A I *D sg13g2_buf_8
*I *1382:A I *D sg13g2_buf_8
*I *1343:X O *D sg13g2_buf_16
*CAP
1 *1381:A 0.000510005
2 *1382:A 2.88561e-05
3 *1343:X 0.00041347
4 *673:8 0.00095233
5 *1381:A *712:26 0
6 *1382:A *712:26 0
7 *673:8 *712:26 0
8 *673:8 *712:33 0.000242423
9 *790:A1 *1381:A 0
10 *790:S *1381:A 0
11 *790:S *1382:A 0
12 *1180:RESET_B *1381:A 0
13 *410:10 *1381:A 0
14 *410:10 *673:8 0
*RES
1 *1343:X *673:8 23.9776 
2 *673:8 *1382:A 20.2992 
3 *673:8 *1381:A 24.6464 
*END

*D_NET *677 0.0071936
*CONN
*I *1384:A I *D sg13g2_buf_8
*I *1383:A I *D sg13g2_buf_8
*I *1347:X O *D sg13g2_buf_16
*CAP
1 *1384:A 9.07936e-05
2 *1383:A 0
3 *1347:X 0.00088849
4 *677:36 0.000325974
5 *677:20 0.00105722
6 *677:10 0.00171053
7 *677:10 *714:10 0
8 *677:20 *835:A2 4.77425e-05
9 *677:20 *685:40 0.000369759
10 *677:36 *714:10 0.000111683
11 *949:B1 *677:36 0
12 *949:A2 *677:36 0.000111683
13 *956:B1 *1384:A 4.76068e-05
14 *956:B1 *677:10 0.000144866
15 *956:B2 *1384:A 0
16 *956:B2 *677:10 0.000144866
17 *963:B1 *677:10 0.00039765
18 *1032:A *677:20 0
19 *1135:RESET_B *677:20 4.76456e-05
20 *1150:D *677:20 0
21 *116:50 *677:20 0.000561806
22 *116:63 *677:20 0.000337137
23 *116:80 *677:20 0.000578004
24 *116:88 *677:10 0
25 *116:94 *677:10 0
26 *183:8 *677:36 7.51285e-05
27 *272:28 *677:20 0
28 *354:38 *677:20 0
29 *359:14 *1384:A 0.000145006
30 *359:29 *677:10 0
31 *364:33 *677:10 0
32 *367:52 *677:20 0
33 *651:8 *677:36 0
34 *670:18 *677:36 0
*RES
1 *1347:X *677:10 46.4064 
2 *677:10 *677:20 30.2784 
3 *677:20 *1383:A 20 
4 *1347:X *677:36 41.9976 
5 *677:36 *1384:A 40.8272 
*END

*D_NET *672 0.00618147
*CONN
*I *1386:A I *D sg13g2_buf_8
*I *1385:A I *D sg13g2_buf_8
*I *1342:X O *D sg13g2_buf_16
*CAP
1 *1386:A 0.000607831
2 *1385:A 0.00105069
3 *1342:X 0.000554254
4 *672:10 0.00165852
5 *672:8 0.000554254
6 *1385:A *1083:CLK 0
7 *1385:A *715:10 0
8 *1385:A *715:23 0
9 *1386:A *716:6 0.000176034
10 *1386:A *716:40 0
11 *672:8 *937:A2 0
12 *672:8 *678:24 0
13 *672:8 *764:10 0
14 *672:8 *765:8 0
15 *672:8 *765:16 0
16 *66:8 *672:8 0
17 *158:12 *1386:A 0
18 *166:8 *672:8 0.000606712
19 *169:16 *672:8 0.000340553
20 *173:16 *1386:A 0
21 *173:16 *672:8 0
22 *403:10 *1385:A 0
23 *609:100 *1386:A 0
24 *660:29 *1385:A 0
25 *660:72 *1385:A 0
26 *660:87 *1385:A 0
27 *660:97 *1385:A 0.000328119
28 *660:97 *1386:A 0.000304509
29 *660:121 *1385:A 0
*RES
1 *1342:X *672:8 46.2128 
2 *672:8 *672:10 20 
3 *672:10 *1385:A 29.1256 
4 *672:10 *1386:A 25.3768 
*END

*D_NET *687 0.0032313
*CONN
*I *1387:A I *D sg13g2_buf_8
*I *1388:A I *D sg13g2_buf_8
*I *1357:X O *D sg13g2_buf_16
*CAP
1 *1387:A 0.000670363
2 *1388:A 0.000824146
3 *1357:X 0
4 *687:6 0.00149451
5 *1387:A *1141:CLK 0
6 *1387:A *717:12 0
7 *1388:A *1141:CLK 0
8 *836:A0 *1388:A 0.000242281
9 *926:A1 *1387:A 0
10 *187:31 *1388:A 0
11 *265:8 *1387:A 0
12 *395:30 *1388:A 0
13 *680:87 *1387:A 0
14 *680:87 *1388:A 0
15 *680:106 *1387:A 0
16 *680:115 *1387:A 0
*RES
1 *1357:X *687:6 40 
2 *687:6 *1388:A 46.7496 
3 *687:6 *1387:A 45.588 
*END

*D_NET *688 0.0064336
*CONN
*I *1389:A I *D sg13g2_buf_8
*I *1390:A I *D sg13g2_buf_8
*I *1358:X O *D sg13g2_buf_16
*CAP
1 *1389:A 0.000470417
2 *1390:A 0.00104141
3 *1358:X 0.000342133
4 *688:10 0.00185396
5 *1389:A *1124:CLK 0
6 *1389:A *1126:CLK 0.000179326
7 *1390:A *1075:D 0
8 *1390:A *1079:CLK 0
9 *1390:A *720:6 0
10 *1390:A *720:29 0
11 *1390:A *720:47 0
12 *1390:A *739:14 0
13 *1390:A *765:24 0
14 *688:10 *1126:CLK 0.000867061
15 *933:B2 *1390:A 0
16 *933:A1 *1390:A 0.00050132
17 *942:A *1390:A 0
18 *1075:RESET_B *1390:A 0
19 *49:10 *1390:A 0
20 *105:99 *688:10 0
21 *161:12 *1389:A 5.18521e-05
22 *161:12 *688:10 0.000868627
23 *341:33 *688:10 0.000242088
24 *657:59 *1390:A 0
25 *664:94 *688:10 1.54008e-05
*RES
1 *1358:X *688:10 44.8488 
2 *688:10 *1390:A 48.5888 
3 *688:10 *1389:A 43.256 
*END

*D_NET *663 0.00235297
*CONN
*I *1361:A I *D sg13g2_buf_8
*I *1362:A I *D sg13g2_buf_8
*I *1333:X O *D sg13g2_buf_16
*CAP
1 *1361:A 0.000266958
2 *1362:A 0.000497889
3 *1333:X 0.000121516
4 *663:8 0.000886362
5 *1361:A *683:83 0.00023547
6 *1362:A *1159:CLK 0
7 *1362:A *692:8 0
8 *1362:A *692:16 0
9 tl_o[32] *663:8 0
10 *892:A1 *1361:A 0
11 *892:A1 *1362:A 0
12 *506:18 *1362:A 0
13 *507:12 *1361:A 0
14 *591:8 *1362:A 0.000344779
*RES
1 *1333:X *663:8 41.012 
2 *663:8 *1362:A 45.1656 
3 *663:8 *1361:A 42.8952 
*END

*D_NET *659 0.00419724
*CONN
*I *1364:A I *D sg13g2_buf_8
*I *1363:A I *D sg13g2_buf_8
*I *1329:X O *D sg13g2_buf_16
*CAP
1 *1364:A 0.000366764
2 *1363:A 0.000229709
3 *1329:X 0.000397918
4 *659:12 0.00137038
5 *659:10 0.00117183
6 *1364:A *693:39 0.000144429
7 *659:10 *1360:A 0
8 *1031:A0 *659:10 8.01938e-05
9 *1031:A0 *659:12 0
10 *1071:RESET_B *659:10 0.000436017
11 *1071:D *659:10 0
12 *1157:D *659:12 0
13 *1169:RESET_B *1364:A 0
14 *157:20 *1364:A 0
15 *157:70 *659:10 0
16 *584:10 *1363:A 0
17 *584:10 *659:12 0
18 *596:21 *659:12 0
19 *596:32 *659:12 0
20 *598:12 *659:10 0
21 *598:22 *659:10 0
*RES
1 *1329:X *659:10 43.5552 
2 *659:10 *659:12 7.48 
3 *659:12 *1363:A 42.2 
4 *659:12 *1364:A 43.4144 
*END

*D_NET *666 0.00523543
*CONN
*I *1366:A I *D sg13g2_buf_8
*I *1365:A I *D sg13g2_buf_8
*I *1336:X O *D sg13g2_buf_16
*CAP
1 *1366:A 0.000354927
2 *1365:A 0
3 *1336:X 0.000134682
4 *666:27 0.00113068
5 *666:14 0.000858482
6 *666:6 0.00176892
7 *1366:A *696:20 0
8 *666:14 *1185:CLK 9.73703e-05
9 *666:14 *695:14 0.00030692
10 *666:27 *841:S 0
11 *666:27 *680:27 0
12 *789:A0 *666:27 0
13 *789:S *1366:A 0.000242236
14 *898:B1 *666:6 0
15 *898:B1 *666:27 0
16 *270:12 *1366:A 0
17 *349:46 *666:14 0
18 *351:26 *666:14 0.000341216
19 *351:42 *666:6 0
20 *353:24 *666:14 0
21 *354:12 *666:14 0
22 *411:18 *666:14 0
23 *505:10 *666:27 0
24 *550:39 *1366:A 0
25 *574:10 *666:27 0
26 *574:14 *1366:A 0
27 *574:20 *666:27 0
28 *658:18 *666:27 0
*RES
1 *1336:X *666:6 21.1968 
2 *666:6 *666:14 47.8848 
3 *666:14 *1365:A 20 
4 *666:6 *666:27 47.2248 
5 *666:27 *1366:A 22.86 
*END

*D_NET *665 0.0057338
*CONN
*I *1368:A I *D sg13g2_buf_8
*I *1367:A I *D sg13g2_buf_8
*I *1335:X O *D sg13g2_buf_16
*CAP
1 *1368:A 0.000498147
2 *1367:A 0
3 *1335:X 0
4 *665:12 0.000982121
5 *665:6 0.00148027
6 *1368:A *1115:RESET_B 8.02598e-05
7 *1368:A *667:21 0
8 *1368:A *667:32 0
9 *1368:A *680:244 0
10 *1368:A *698:47 0
11 *1368:A *704:23 0.000343074
12 *665:12 *1103:CLK 0.000435979
13 *665:12 *679:104 0
14 *665:12 *681:10 0.000274693
15 *665:12 *681:41 4.77425e-05
16 *1438:A *665:12 0
17 *33:12 *665:12 0
18 *267:34 *665:12 0
19 *308:72 *1368:A 0.000446438
20 *308:72 *665:12 0.00114508
21 *509:23 *665:12 0
*RES
1 *1335:X *665:6 40 
2 *665:6 *665:12 30.736 
3 *665:12 *1367:A 20 
4 *665:6 *1368:A 45.4032 
*END

*D_NET *330 0.0041895
*CONN
*I *1370:A I *D sg13g2_buf_8
*I *1369:A I *D sg13g2_buf_8
*I *1204:X O *D sg13g2_buf_16
*CAP
1 *1370:A 0.000311234
2 *1369:A 0
3 *1204:X 0.00101874
4 *330:12 0.00132997
5 *1370:A *531:10 0.000130415
6 *1370:A *699:10 0
7 *330:12 *857:A0 0
8 *330:12 *1286:A 0
9 *330:12 *524:18 0
10 *330:12 *531:10 0.00131906
11 *1120:D *330:12 8.00842e-05
12 *1122:D *330:12 0
*RES
1 *1204:X *330:12 49.9792 
2 *330:12 *1369:A 40 
3 *330:12 *1370:A 42.8336 
*END

*D_NET *686 0.00370079
*CONN
*I *1372:A I *D sg13g2_buf_8
*I *1371:A I *D sg13g2_buf_8
*I *1356:X O *D sg13g2_buf_16
*CAP
1 *1372:A 0.00107334
2 *1371:A 0
3 *1356:X 0
4 *686:12 0.00044559
5 *686:4 0.00151893
6 *1372:A *1090:CLK 0.000662923
7 *1372:A *1092:CLK 0
8 *1372:A *1113:CLK 0
9 *686:12 *1090:CLK 0
10 *686:12 *1113:CLK 0
11 *686:12 *701:10 0
12 *686:12 *701:32 0
13 *908:A1 *1372:A 0
14 *1248:A *1372:A 0
15 *150:10 *1372:A 0
16 *297:10 *1372:A 0
17 *366:26 *1372:A 0
18 *674:25 *686:12 0
*RES
1 *1356:X *686:4 20 
2 *686:4 *686:12 44.3472 
3 *686:12 *1371:A 20 
4 *686:4 *1372:A 29.9968 
*END

*D_NET *662 0.00375854
*CONN
*I *1373:A I *D sg13g2_buf_8
*I *1374:A I *D sg13g2_buf_8
*I *1332:X O *D sg13g2_buf_16
*CAP
1 *1373:A 0.000911703
2 *1374:A 0.000556152
3 *1332:X 0
4 *662:6 0.00146786
5 *1373:A *680:282 0
6 *1373:A *703:10 0
7 *1373:A *779:10 0
8 *1373:A *786:8 0
9 *1374:A *704:8 8.03692e-05
10 *67:10 *1373:A 0.000532953
11 *125:10 *1373:A 0.000209506
12 *308:32 *1374:A 0
*RES
1 *1332:X *662:6 40 
2 *662:6 *1374:A 46.0368 
3 *662:6 *1373:A 48.8352 
*END

*D_NET *661 0.0066448
*CONN
*I *1376:A I *D sg13g2_buf_8
*I *1375:A I *D sg13g2_buf_8
*I *1331:X O *D sg13g2_buf_16
*CAP
1 *1376:A 0
2 *1375:A 0.00017012
3 *1331:X 0.000515202
4 *661:14 0.00133964
5 *661:8 0.00168473
6 *1375:A *705:8 0
7 *661:8 *1153:CLK 0
8 *661:8 *706:6 0
9 *661:8 *706:18 0
10 *661:14 *1173:CLK 0
11 *661:14 *1392:A 0
12 *661:14 *705:34 0
13 *814:A *661:14 0
14 *816:B *661:14 0
15 *1030:B1 *661:14 0
16 *91:12 *661:14 0
17 *98:8 *661:14 0.000235228
18 *234:10 *661:14 0
19 *270:12 *661:8 0
20 *270:12 *661:14 0
21 *285:74 *1375:A 0
22 *413:14 *661:14 0.00269989
23 *550:37 *661:8 0
24 *550:39 *661:8 0
25 *550:39 *661:14 0
*RES
1 *1331:X *661:8 24.3472 
2 *661:8 *661:14 32.7688 
3 *661:14 *1375:A 41.3816 
4 *661:8 *1376:A 20 
*END

*D_NET *345 0.00658033
*CONN
*I *1377:A I *D sg13g2_buf_8
*I *1378:A I *D sg13g2_buf_8
*I *1208:X O *D sg13g2_buf_16
*CAP
1 *1377:A 0
2 *1378:A 0.00153766
3 *1208:X 0.00036671
4 *345:18 0.0020524
5 *345:8 0.000881449
6 *1378:A *833:A 4.78359e-05
7 *1378:A *1136:CLK 0
8 *1378:A *351:26 0
9 *1378:A *352:16 0
10 *1378:A *409:18 0
11 *1378:A *603:14 0
12 *1378:A *603:38 0
13 *1378:A *603:53 0
14 *1378:A *708:8 0.000598603
15 *1378:A *708:12 0
16 *345:8 *841:S 0.00024122
17 *345:8 *898:B1 0
18 *345:8 *684:10 0
19 *345:8 *684:71 0
20 *345:8 *707:10 8.01938e-05
21 *345:18 *351:26 0.000339278
22 *345:18 *352:16 0
23 *345:18 *355:8 0
24 *345:18 *675:31 0
25 *345:18 *684:10 0
26 *345:18 *684:12 0
27 *345:18 *707:10 0.000128247
28 *1137:D *1378:A 0
29 *6:10 *1378:A 0.000306739
30 *271:25 *345:18 0
*RES
1 *1208:X *345:8 23.344 
2 *345:8 *345:18 45.0688 
3 *345:18 *1378:A 33.4112 
4 *345:8 *1377:A 20 
*END

*D_NET *689 0.00265769
*CONN
*I *1160:CLK I *D sg13g2_dfrbpq_1
*I *1161:CLK I *D sg13g2_dfrbpq_1
*I *1163:CLK I *D sg13g2_dfrbpq_1
*I *1156:CLK I *D sg13g2_dfrbpq_1
*I *1359:X O *D sg13g2_buf_8
*CAP
1 *1160:CLK 0
2 *1161:CLK 0.000404601
3 *1163:CLK 4.64309e-05
4 *1156:CLK 0.000211704
5 *1359:X 0.000666108
6 *689:35 0.000640226
7 *689:10 0.000258135
8 *689:8 0.000430483
9 *1028:A2 *1161:CLK 0
10 *1155:D *1163:CLK 0
11 *1156:RESET_B *1156:CLK 0
12 *1161:RESET_B *1161:CLK 0
13 *1359:A *689:8 0
14 *157:28 *689:35 0
15 *192:16 *689:8 0
16 *192:20 *689:8 0
17 *192:22 *1163:CLK 0
18 *207:27 *1161:CLK 0
19 *589:10 *689:8 0
20 *589:10 *689:35 0
21 *593:16 *1161:CLK 0
*RES
1 *1359:X *689:8 44.5232 
2 *689:8 *689:10 20 
3 *689:10 *1156:CLK 22.0768 
4 *689:10 *1163:CLK 20.4576 
5 *1359:X *689:35 22.2352 
6 *689:35 *1161:CLK 23.9248 
7 *689:35 *1160:CLK 20 
*END

*D_NET *699 0.00426233
*CONN
*I *1114:CLK I *D sg13g2_dfrbpq_1
*I *1118:CLK I *D sg13g2_dfrbpq_1
*I *1122:CLK I *D sg13g2_dfrbpq_1
*I *1116:CLK I *D sg13g2_dfrbpq_1
*I *1369:X O *D sg13g2_buf_8
*CAP
1 *1114:CLK 0
2 *1118:CLK 0.000476196
3 *1122:CLK 0.00043735
4 *1116:CLK 0.000213596
5 *1369:X 0
6 *699:34 0.00104989
7 *699:10 0.000961056
8 *699:6 0.000883803
9 *1118:CLK *1121:CLK 0
10 *1122:CLK *750:10 0
11 *1118:RESET_B *1118:CLK 0
12 *1122:RESET_B *1122:CLK 0
13 *1223:A *1118:CLK 0
14 *1225:A *1116:CLK 0
15 *1225:A *1122:CLK 0
16 *1370:A *699:10 0
17 *23:14 *1118:CLK 1.54008e-05
18 *23:14 *699:34 0
19 *70:8 *1118:CLK 0
20 *70:8 *699:34 0
21 *372:22 *699:34 0
22 *522:16 *699:34 0
23 *611:10 *1116:CLK 0.000209637
24 *611:10 *1122:CLK 1.54008e-05
25 *655:16 *699:10 0
*RES
1 *1369:X *699:6 40 
2 *699:6 *699:10 22.8336 
3 *699:10 *1116:CLK 21.98 
4 *699:10 *1122:CLK 23.9688 
5 *699:6 *699:34 25.06 
6 *699:34 *1118:CLK 24.224 
7 *699:34 *1114:CLK 20 
*END

*D_NET *700 0.00472726
*CONN
*I *1117:CLK I *D sg13g2_dfrbpq_1
*I *1123:CLK I *D sg13g2_dfrbpq_1
*I *1393:A I *D sg13g2_inv_1
*I *1121:CLK I *D sg13g2_dfrbpq_1
*I *1370:X O *D sg13g2_buf_8
*CAP
1 *1117:CLK 2.77263e-05
2 *1123:CLK 0.000172039
3 *1393:A 4.72933e-05
4 *1121:CLK 0.000373502
5 *1370:X 0
6 *700:21 0.000740424
7 *700:13 0.0010138
8 *700:4 0.000838487
9 *1058:S *700:21 0.000242193
10 *1118:RESET_B *1121:CLK 0
11 *1118:CLK *1121:CLK 0
12 *23:14 *1117:CLK 0
13 *23:14 *1121:CLK 0.000241979
14 *23:14 *700:13 0.000436818
15 *23:14 *700:21 0
16 *71:12 *1393:A 1.54008e-05
17 *71:12 *700:21 7.99037e-05
18 *333:33 *1123:CLK 0
19 *522:16 *1121:CLK 0
20 *522:16 *700:13 0.00027283
21 *522:16 *700:21 0.000224857
22 *606:8 *1123:CLK 0
23 *667:73 *1121:CLK 0
*RES
1 *1370:X *700:4 20 
2 *700:4 *1121:CLK 22.86 
3 *700:4 *700:13 3.9688 
4 *700:13 *700:21 4.8928 
5 *700:21 *1393:A 20.4576 
6 *700:21 *1123:CLK 21.496 
7 *700:13 *1117:CLK 20.2992 
*END

*D_NET *701 0.00550877
*CONN
*I *1090:CLK I *D sg13g2_dfrbpq_1
*I *1113:CLK I *D sg13g2_dfrbpq_1
*I *1094:CLK I *D sg13g2_dfrbpq_1
*I *1095:CLK I *D sg13g2_dfrbpq_1
*I *1371:X O *D sg13g2_buf_8
*CAP
1 *1090:CLK 0.000462019
2 *1113:CLK 0.000330577
3 *1094:CLK 0.000465715
4 *1095:CLK 0.000251623
5 *1371:X 9.21169e-05
6 *701:32 0.00103269
7 *701:10 0.00112086
8 *701:8 0.000735735
9 tl_o[26] *701:8 0.0001448
10 *869:A *701:10 0
11 *869:A *701:32 0
12 *1198:A *1090:CLK 0
13 *1198:A *701:32 0
14 *1372:A *1090:CLK 0.000662923
15 *1372:A *1113:CLK 0
16 *150:10 *1090:CLK 0
17 *267:34 *1094:CLK 0
18 *500:8 *1095:CLK 0
19 *500:8 *701:10 0
20 *630:22 *1094:CLK 0
21 *630:22 *1095:CLK 0.000209713
22 *631:14 *1095:CLK 0
23 *674:8 *701:8 0
24 *675:67 *1090:CLK 0
25 *675:71 *701:32 0
26 *679:22 *1095:CLK 0
27 *679:22 *701:10 0
28 *679:51 *1090:CLK 0
29 *679:51 *1113:CLK 0
30 *686:12 *1090:CLK 0
31 *686:12 *1113:CLK 0
32 *686:12 *701:10 0
33 *686:12 *701:32 0
*RES
1 *1371:X *701:8 40.8272 
2 *701:8 *701:10 3.8896 
3 *701:10 *1095:CLK 42.3408 
4 *701:10 *1094:CLK 43.784 
5 *701:8 *701:32 2.2 
6 *701:32 *1113:CLK 43.0448 
7 *701:32 *1090:CLK 44.5056 
*END

*D_NET *702 0.00482551
*CONN
*I *1135:CLK I *D sg13g2_dfrbpq_1
*I *1133:CLK I *D sg13g2_dfrbpq_1
*I *1092:CLK I *D sg13g2_dfrbpq_1
*I *1139:CLK I *D sg13g2_dfrbpq_1
*I *1372:X O *D sg13g2_buf_8
*CAP
1 *1135:CLK 0.000344093
2 *1133:CLK 0
3 *1092:CLK 0.000355462
4 *1139:CLK 0.0004931
5 *1372:X 0.000103304
6 *702:32 0.000409104
7 *702:10 0.000962991
8 *702:8 0.000282744
9 *842:A1 *1135:CLK 0.000339508
10 *1133:RESET_B *1139:CLK 0
11 *1372:A *1092:CLK 0
12 *8:10 *1135:CLK 0.000479789
13 *8:10 *1139:CLK 0.000128662
14 *8:10 *702:10 0.000373089
15 *8:10 *702:32 0.000214271
16 *74:10 *1135:CLK 0
17 *113:20 *1139:CLK 0
18 *272:14 *1139:CLK 0
19 *350:16 *702:8 0
20 *366:18 *1139:CLK 0.000339398
21 *366:26 *1092:CLK 0
22 *367:20 *1135:CLK 0
23 *675:57 *1092:CLK 0
*RES
1 *1372:X *702:8 41.1968 
2 *702:8 *702:10 1.5664 
3 *702:10 *1139:CLK 44.9808 
4 *702:10 *1092:CLK 43.4144 
5 *702:8 *702:32 0.9328 
6 *702:32 *1133:CLK 40 
7 *702:32 *1135:CLK 43.9248 
*END

*D_NET *703 0.00591587
*CONN
*I *1080:CLK I *D sg13g2_dfrbpq_1
*I *1067:CLK I *D sg13g2_dfrbpq_1
*I *1081:CLK I *D sg13g2_dfrbpq_1
*I *1119:CLK I *D sg13g2_dfrbpq_1
*I *1373:X O *D sg13g2_buf_8
*CAP
1 *1080:CLK 0.000140492
2 *1067:CLK 0.000394968
3 *1081:CLK 0
4 *1119:CLK 0
5 *1373:X 0.000562031
6 *703:38 0.00105003
7 *703:25 0.000222189
8 *703:19 0.000929692
9 *703:12 0.000192935
10 *703:10 0.000562031
11 *1067:CLK *868:A 0
12 *703:10 *1123:D 0.000177399
13 *703:10 *746:10 0.000234726
14 *703:10 *779:10 0
15 *1053:B *1067:CLK 0
16 *1053:B *703:38 0
17 *1066:A2 *1080:CLK 0.000103517
18 *1119:RESET_B *703:10 1.54556e-05
19 *1373:A *703:10 0
20 *77:8 *1067:CLK 0
21 *100:50 *703:38 0
22 *100:56 *703:19 7.989e-05
23 *100:56 *703:38 0
24 *125:10 *1080:CLK 0
25 *297:47 *1067:CLK 0.000394566
26 *297:72 *703:10 0
27 *297:80 *703:10 0
28 *297:102 *703:10 0
29 *297:102 *703:25 0.000127744
30 *297:102 *703:38 1.54008e-05
31 *475:20 *703:25 0
32 *537:27 *1067:CLK 0.000128663
33 *537:27 *703:38 0.000584142
34 *680:282 *703:10 0
*RES
1 *1373:X *703:10 45.192 
2 *703:10 *703:12 20 
3 *703:12 *1119:CLK 20 
4 *703:12 *703:19 1.5664 
5 *703:19 *703:25 42.4112 
6 *703:25 *1081:CLK 20 
7 *703:19 *703:38 25.016 
8 *703:38 *1067:CLK 43.9248 
9 *703:38 *1080:CLK 41.1968 
*END

*D_NET *704 0.00879151
*CONN
*I *1091:CLK I *D sg13g2_dfrbpq_1
*I *1093:CLK I *D sg13g2_dfrbpq_1
*I *1112:CLK I *D sg13g2_dfrbpq_1
*I *1394:A I *D sg13g2_inv_1
*I *1374:X O *D sg13g2_buf_8
*CAP
1 *1091:CLK 0
2 *1093:CLK 0
3 *1112:CLK 0.000925911
4 *1394:A 2.77263e-05
5 *1374:X 0.000633792
6 *704:50 0.000696872
7 *704:37 0.000835249
8 *704:23 0.00147744
9 *704:8 0.00107467
10 *704:50 *783:22 4.77866e-05
11 tl_o[24] *1112:CLK 0
12 tl_o[24] *704:8 0
13 tl_o[24] *704:23 0
14 *871:A *1112:CLK 0
15 *909:A *704:50 0
16 *909:B *704:50 0
17 *1111:RESET_B *1112:CLK 0
18 *1115:D *1112:CLK 0
19 *1229:A *1112:CLK 0
20 *1230:A *1112:CLK 0
21 *1251:A *704:8 0
22 *1251:A *704:37 0
23 *1368:A *704:23 0.000343074
24 *1374:A *704:8 8.03692e-05
25 *25:14 *1112:CLK 0
26 *43:10 *704:50 0
27 *126:8 *704:50 0.000563199
28 *126:18 *704:50 0
29 *308:32 *704:8 0.000404597
30 *308:32 *704:23 0.000615703
31 *308:32 *704:37 0.000242236
32 *308:32 *704:50 0.00053358
33 *308:42 *1112:CLK 0
34 *308:42 *704:23 7.94972e-05
35 *508:10 *704:23 0.000209807
36 *667:8 *704:23 0
37 *679:10 *704:50 0
*RES
1 *1374:X *704:8 24.5056 
2 *704:8 *1394:A 20.2992 
3 *704:8 *704:23 45.324 
4 *704:23 *1112:CLK 27.6648 
5 *1374:X *704:37 21.3816 
6 *704:37 *1093:CLK 20 
7 *704:37 *704:50 46.4592 
8 *704:50 *1091:CLK 20 
*END

*D_NET *705 0.00488949
*CONN
*I *1173:CLK I *D sg13g2_dfrbpq_1
*I *1171:CLK I *D sg13g2_dfrbpq_1
*I *1166:CLK I *D sg13g2_dfrbpq_1
*I *1165:CLK I *D sg13g2_dfrbpq_1
*I *1375:X O *D sg13g2_buf_8
*CAP
1 *1173:CLK 0.000264255
2 *1171:CLK 0.000391197
3 *1166:CLK 0.000216823
4 *1165:CLK 0
5 *1375:X 0.000169109
6 *705:34 0.000912761
7 *705:18 0.000709595
8 *705:8 0.00091919
9 *705:18 *1298:A 0
10 *705:18 *775:8 0.000715156
11 *705:34 *775:8 0.000340288
12 *814:A *1173:CLK 0.00012816
13 *814:A *705:34 7.52149e-05
14 *1166:RESET_B *1166:CLK 0
15 *1166:RESET_B *705:18 0
16 *1375:A *705:8 0
17 *97:29 *1173:CLK 4.77425e-05
18 *285:18 *705:18 0
19 *285:74 *1171:CLK 0
20 *285:74 *1173:CLK 0
21 *285:74 *705:8 0
22 *285:83 *1173:CLK 0
23 *406:8 *1171:CLK 0
24 *413:14 *705:18 0
25 *563:10 *1173:CLK 0
26 *564:10 *1173:CLK 0
27 *564:10 *705:34 0
28 *566:18 *705:8 0
29 *661:14 *1173:CLK 0
30 *661:14 *705:34 0
*RES
1 *1375:X *705:8 41.1968 
2 *705:8 *705:18 24.972 
3 *705:18 *1165:CLK 20 
4 *705:18 *1166:CLK 22.2352 
5 *705:8 *705:34 2.4112 
6 *705:34 *1171:CLK 43.2296 
7 *705:34 *1173:CLK 42.2616 
*END

*D_NET *706 0.00390479
*CONN
*I *1174:CLK I *D sg13g2_dfrbpq_1
*I *1153:CLK I *D sg13g2_dfrbpq_1
*I *1175:CLK I *D sg13g2_dfrbpq_1
*I *1172:CLK I *D sg13g2_dfrbpq_1
*I *1376:X O *D sg13g2_buf_8
*CAP
1 *1174:CLK 0
2 *1153:CLK 0.000408357
3 *1175:CLK 0.000166469
4 *1172:CLK 0
5 *1376:X 0.000125869
6 *706:18 0.00123733
7 *706:8 0.00152652
8 *706:6 0.000173167
9 *1153:RESET_B *1153:CLK 0
10 *1175:RESET_B *1175:CLK 0
11 *1190:A *1153:CLK 2.4729e-05
12 *270:12 *1153:CLK 0
13 *270:12 *706:6 0.000242352
14 *285:83 *706:18 0
15 *550:37 *1153:CLK 0
16 *661:8 *1153:CLK 0
17 *661:8 *706:6 0
18 *661:8 *706:18 0
*RES
1 *1376:X *706:6 21.3816 
2 *706:6 *706:8 0.5104 
3 *706:8 *706:18 49.24 
4 *706:18 *1172:CLK 20 
5 *706:18 *1175:CLK 21.5664 
6 *706:8 *1153:CLK 23.4144 
7 *706:6 *1174:CLK 20 
*END

*D_NET *707 0.00459086
*CONN
*I *1134:CLK I *D sg13g2_dfrbpq_1
*I *1138:CLK I *D sg13g2_dfrbpq_1
*I *1128:CLK I *D sg13g2_dfrbpq_1
*I *1099:CLK I *D sg13g2_dfrbpq_1
*I *1377:X O *D sg13g2_buf_8
*CAP
1 *1134:CLK 0.000498495
2 *1138:CLK 0
3 *1128:CLK 0.000146132
4 *1099:CLK 0.00029913
5 *1377:X 0.00065231
6 *707:41 0.000949884
7 *707:10 0.000646183
8 *790:S *1128:CLK 0
9 *898:B1 *1099:CLK 0.000339376
10 *1137:RESET_B *1134:CLK 0
11 *1328:A *1099:CLK 0
12 *283:14 *1134:CLK 0
13 *345:8 *707:10 8.01938e-05
14 *345:18 *707:10 0.000128247
15 *355:8 *707:10 0
16 *355:23 *1099:CLK 3.23417e-05
17 *355:23 *1128:CLK 0.000177164
18 *355:36 *1099:CLK 7.51285e-05
19 *675:31 *1128:CLK 0
20 *675:31 *1134:CLK 0
21 *675:31 *707:41 0
22 *675:40 *1134:CLK 0
23 *684:12 *1099:CLK 0
24 *684:12 *707:10 0
25 *684:71 *707:10 0
26 *684:71 *707:41 0.000566278
*RES
1 *1377:X *707:10 42.2088 
2 *707:10 *1099:CLK 42.6312 
3 *707:10 *1128:CLK 41.3816 
4 *1377:X *707:41 44.3736 
5 *707:41 *1138:CLK 40 
6 *707:41 *1134:CLK 44.136 
*END

*D_NET *708 0.00725332
*CONN
*I *1395:A I *D sg13g2_inv_1
*I *1151:CLK I *D sg13g2_dfrbpq_1
*I *1137:CLK I *D sg13g2_dfrbpq_1
*I *1136:CLK I *D sg13g2_dfrbpq_1
*I *1378:X O *D sg13g2_buf_8
*CAP
1 *1395:A 0
2 *1151:CLK 0
3 *1137:CLK 0.000595391
4 *1136:CLK 6.45744e-05
5 *1378:X 0.000518882
6 *708:44 0.000305483
7 *708:18 0.00089792
8 *708:12 0.000955229
9 *708:8 0.000930674
10 *833:A *708:12 4.78359e-05
11 *833:A *708:44 0
12 *840:A1 *708:18 0.000177142
13 *1183:RESET_B *708:8 4.77425e-05
14 *1378:A *1136:CLK 0
15 *1378:A *708:8 0.000598603
16 *1378:A *708:12 0
17 *6:10 *708:12 0
18 *6:10 *708:18 0.00012816
19 *270:16 *1137:CLK 0
20 *270:16 *708:44 0.00108739
21 *270:29 *1137:CLK 0
22 *283:14 *1137:CLK 0
23 *351:8 *1137:CLK 0
24 *351:12 *1137:CLK 0
25 *351:12 *708:18 0
26 *368:8 *708:44 0
27 *408:8 *708:12 0
28 *409:6 *708:8 0
29 *409:6 *708:12 0.000566053
30 *409:18 *708:12 4.77425e-05
31 *409:18 *708:18 0.000209374
32 *409:18 *708:44 7.51285e-05
33 *603:14 *1136:CLK 0
34 *680:75 *708:8 0
*RES
1 *1378:X *708:8 24.7168 
2 *708:8 *708:12 3.7136 
3 *708:12 *708:18 22.3408 
4 *708:18 *1136:CLK 40.4576 
5 *708:18 *1137:CLK 45.3504 
6 *708:12 *708:44 44.312 
7 *708:44 *1151:CLK 20 
8 *708:8 *1395:A 20 
*END

*D_NET *690 0.00568001
*CONN
*I *1130:CLK I *D sg13g2_dfrbpq_1
*I *1071:CLK I *D sg13g2_dfrbpq_1
*I *1100:CLK I *D sg13g2_dfrbpq_1
*I *1155:CLK I *D sg13g2_dfrbpq_1
*I *1360:X O *D sg13g2_buf_8
*CAP
1 *1130:CLK 0.000195151
2 *1071:CLK 0
3 *1100:CLK 0
4 *1155:CLK 0
5 *1360:X 0.000398204
6 *690:29 0.000374864
7 *690:14 0.00138212
8 *690:8 0.00204218
9 *690:6 0.000488251
10 *1100:RESET_B *690:8 0
11 *1100:RESET_B *690:29 0.000238326
12 *1101:D *690:29 0.000111763
13 *1130:RESET_B *1130:CLK 0
14 *1339:A *690:14 0
15 *1359:A *690:14 0
16 *1360:A *690:6 0
17 *1360:A *690:8 0
18 *1360:A *690:14 0
19 *192:10 *690:14 0.000289418
20 *358:25 *1130:CLK 0
21 *358:50 *690:29 0
22 *658:57 *690:6 0
23 *658:57 *690:8 0
24 *658:80 *690:29 0.000159737
25 *680:316 *690:14 0
26 *680:316 *690:29 0
27 *682:42 *690:29 0
*RES
1 *1360:X *690:6 21.936 
2 *690:6 *690:8 2.4904 
3 *690:8 *690:14 31.8184 
4 *690:14 *1155:CLK 40 
5 *690:8 *690:29 43.8984 
6 *690:29 *1100:CLK 20 
7 *690:6 *1071:CLK 20 
8 *1360:X *1130:CLK 42.2352 
*END

*D_NET *709 0.00279118
*CONN
*I *1187:CLK I *D sg13g2_dfrbpq_1
*I *1177:CLK I *D sg13g2_dfrbpq_1
*I *1145:CLK I *D sg13g2_dfrbpq_1
*I *1188:CLK I *D sg13g2_dfrbpq_1
*I *1379:X O *D sg13g2_buf_8
*CAP
1 *1187:CLK 0.000543037
2 *1177:CLK 0.000340745
3 *1145:CLK 0
4 *1188:CLK 0.000211225
5 *1379:X 9.67827e-05
6 *709:23 0.000359766
7 *709:12 0.000415024
8 *709:8 0.000824597
9 *1144:RESET_B *1187:CLK 0
10 *1144:D *709:8 0
11 *1145:RESET_B *1188:CLK 0
12 *1145:RESET_B *709:23 0
13 *1177:RESET_B *1177:CLK 0
14 *1379:A *1177:CLK 0
15 *95:18 *1187:CLK 0
16 *369:30 *1187:CLK 0
17 *369:30 *709:12 0
*RES
1 *1379:X *709:8 41.3816 
2 *709:8 *709:12 21.9888 
3 *709:12 *1188:CLK 22.0504 
4 *709:12 *709:23 0.2728 
5 *709:23 *1145:CLK 20 
6 *709:23 *1177:CLK 23.4144 
7 *709:8 *1187:CLK 45.4296 
*END

*D_NET *710 0.00283093
*CONN
*I *1179:CLK I *D sg13g2_dfrbpq_1
*I *1181:CLK I *D sg13g2_dfrbpq_1
*I *1176:CLK I *D sg13g2_dfrbpq_1
*I *1182:CLK I *D sg13g2_dfrbpq_1
*I *1380:X O *D sg13g2_buf_8
*CAP
1 *1179:CLK 8.43577e-05
2 *1181:CLK 0
3 *1176:CLK 0.000260387
4 *1182:CLK 0
5 *1380:X 7.42155e-05
6 *710:23 0.000436925
7 *710:14 0.000875412
8 *710:8 0.000857447
9 *1179:RESET_B *1176:CLK 0
10 *1179:RESET_B *710:14 0
11 *1380:A *1176:CLK 0
12 *1380:A *1179:CLK 0.000242187
13 *1380:A *710:14 0
14 *1380:A *710:23 0
15 *604:57 *1176:CLK 0
16 *604:64 *1176:CLK 0
17 *604:64 *710:23 0
*RES
1 *1380:X *710:8 40.7216 
2 *710:8 *710:14 26.2744 
3 *710:14 *1182:CLK 20 
4 *710:14 *710:23 1.8656 
5 *710:23 *1176:CLK 22.6576 
6 *710:23 *1181:CLK 20 
7 *710:8 *1179:CLK 41.3816 
*END

*D_NET *711 0.00610651
*CONN
*I *1147:CLK I *D sg13g2_dfrbpq_1
*I *1184:CLK I *D sg13g2_dfrbpq_1
*I *1068:CLK I *D sg13g2_dfrbpq_1
*I *1144:CLK I *D sg13g2_dfrbpq_1
*I *1381:X O *D sg13g2_buf_8
*CAP
1 *1147:CLK 0.000167878
2 *1184:CLK 0.000237948
3 *1068:CLK 0
4 *1144:CLK 0.000997573
5 *1381:X 0.000122546
6 *711:28 0.00140315
7 *711:10 0.00133097
8 *711:8 0.00145326
9 *833:A *711:10 0
10 *833:A *711:28 0
11 *61:18 *1144:CLK 0.000183434
12 *114:8 *711:28 0
13 *114:19 *1147:CLK 0
14 *114:19 *711:28 0
15 *235:10 *1144:CLK 0
16 *270:16 *711:28 0
17 *270:29 *1147:CLK 0
18 *270:29 *711:28 0
19 *280:16 *711:28 0
20 *366:44 *1184:CLK 0
21 *368:8 *1144:CLK 0
22 *408:8 *711:8 0
23 *562:12 *711:8 0.000209747
24 *603:44 *711:28 0
*RES
1 *1381:X *711:8 41.1968 
2 *711:8 *711:10 2.6224 
3 *711:10 *1144:CLK 48.536 
4 *711:10 *1068:CLK 40 
5 *711:8 *711:28 8.1136 
6 *711:28 *1184:CLK 41.936 
7 *711:28 *1147:CLK 41.3552 
*END

*D_NET *712 0.00569494
*CONN
*I *1183:CLK I *D sg13g2_dfrbpq_1
*I *1180:CLK I *D sg13g2_dfrbpq_1
*I *1396:A I *D sg13g2_inv_1
*I *1178:CLK I *D sg13g2_dfrbpq_1
*I *1382:X O *D sg13g2_buf_8
*CAP
1 *1183:CLK 0
2 *1180:CLK 0
3 *1396:A 0.000219723
4 *1178:CLK 0
5 *1382:X 0.00058199
6 *712:58 0.000529248
7 *712:33 0.000350772
8 *712:26 0.00110696
9 *712:10 0.00123801
10 *712:8 5.27425e-05
11 *790:S *712:26 0
12 *1005:A2 *712:26 0
13 *1178:RESET_B *712:26 0
14 *1180:RESET_B *712:26 0
15 *1180:D *1396:A 0
16 *1183:RESET_B *712:58 0.000448012
17 *1189:A *712:58 7.52158e-05
18 *1381:A *712:26 0
19 *1382:A *712:26 0
20 *216:20 *712:26 0
21 *242:12 *712:26 0
22 *243:10 *712:26 0
23 *280:8 *712:58 0
24 *408:8 *712:58 0
25 *410:10 *1396:A 0
26 *410:10 *712:58 0.000274628
27 *560:6 *712:26 0
28 *560:23 *712:26 0.00050008
29 *560:31 *712:26 0
30 *562:12 *712:58 7.51285e-05
31 *673:8 *712:26 0
32 *673:8 *712:33 0.000242423
33 *680:47 *712:26 0
34 *680:53 *712:26 0
35 *680:71 *712:8 0
36 *680:71 *712:26 0
37 *680:71 *712:58 0
38 *680:87 *712:58 0
*RES
1 *1382:X *712:8 40.5104 
2 *712:8 *712:10 20 
3 *712:10 *712:26 49.5832 
4 *712:26 *1178:CLK 20 
5 *712:10 *712:33 1.3816 
6 *712:33 *1396:A 22.0768 
7 *712:33 *1180:CLK 20 
8 *1382:X *712:58 45.6672 
9 *712:58 *1183:CLK 40 
*END

*D_NET *713 0.00667487
*CONN
*I *1150:CLK I *D sg13g2_dfrbpq_1
*I *1132:CLK I *D sg13g2_dfrbpq_1
*I *1186:CLK I *D sg13g2_dfrbpq_1
*I *1143:CLK I *D sg13g2_dfrbpq_1
*I *1383:X O *D sg13g2_buf_8
*CAP
1 *1150:CLK 0.000226038
2 *1132:CLK 0.000144661
3 *1186:CLK 8.05177e-05
4 *1143:CLK 0
5 *1383:X 2.81963e-05
6 *713:29 0.000544698
7 *713:25 0.000718596
8 *713:14 0.000488559
9 *713:6 0.000689794
10 *1033:A1 *1150:CLK 0.000174956
11 *1033:A2 *713:14 0
12 *1033:B1 *1150:CLK 0.000128247
13 *1033:B1 *713:14 0
14 *1035:C *713:29 0.000181192
15 *1036:B1 *1150:CLK 0
16 *1036:B1 *713:6 4.77425e-05
17 *1036:B1 *713:25 0.000209747
18 *1064:S *713:14 8.0216e-05
19 *1355:A *1150:CLK 0
20 *74:10 *713:14 0
21 *76:10 *713:14 0
22 *116:35 *713:14 0.000980408
23 *116:35 *713:29 0
24 *116:50 *1132:CLK 0
25 *116:50 *1186:CLK 0
26 *238:8 *1150:CLK 2.20966e-05
27 *238:8 *713:29 0.00044631
28 *272:18 *713:29 0.000821002
29 *365:22 *1150:CLK 0
30 *366:8 *713:29 0
31 *367:38 *713:6 0
32 *367:38 *713:25 0
33 *407:12 *713:14 0.000661886
34 *675:57 *1132:CLK 0
35 *675:57 *1186:CLK 0
*RES
1 *1383:X *713:6 20.2728 
2 *713:6 *713:14 46.248 
3 *713:14 *1143:CLK 20 
4 *713:6 *713:25 21.8392 
5 *713:25 *713:29 24.7344 
6 *713:29 *1186:CLK 20.7832 
7 *713:29 *1132:CLK 21.3816 
8 *713:25 *1150:CLK 42.6136 
*END

*D_NET *714 0.00523076
*CONN
*I *1148:CLK I *D sg13g2_dfrbpq_1
*I *1142:CLK I *D sg13g2_dfrbpq_1
*I *1149:CLK I *D sg13g2_dfrbpq_1
*I *1127:CLK I *D sg13g2_dfrbpq_1
*I *1384:X O *D sg13g2_buf_8
*CAP
1 *1148:CLK 0
2 *1142:CLK 0
3 *1149:CLK 0
4 *1127:CLK 0
5 *1384:X 0.000553706
6 *714:26 0.000831437
7 *714:20 0.00128328
8 *714:16 0.000644834
9 *714:12 0.000192994
10 *714:10 0.000553706
11 *947:A *714:26 0
12 *949:A2 *714:10 0
13 *955:A2 *714:10 0.000221379
14 *963:B1 *714:10 0
15 *1035:B *714:20 0.000274452
16 *1036:B1 *714:20 0
17 *1060:A0 *714:26 0
18 *171:25 *714:26 0
19 *180:8 *714:26 0
20 *190:22 *714:16 0
21 *354:38 *714:20 0.000274594
22 *359:29 *714:10 0
23 *365:10 *714:26 0
24 *365:22 *714:26 0
25 *367:52 *714:16 0
26 *367:52 *714:20 0
27 *651:8 *714:10 0.000288704
28 *652:8 *714:26 0
29 *677:10 *714:10 0
30 *677:36 *714:10 0.000111683
*RES
1 *1384:X *714:10 45.2712 
2 *714:10 *714:12 20 
3 *714:12 *714:16 1.8656 
4 *714:16 *714:20 4.136 
5 *714:20 *714:26 47.2688 
6 *714:26 *1127:CLK 20 
7 *714:20 *1149:CLK 20 
8 *714:16 *1142:CLK 20 
9 *714:12 *1148:CLK 20 
*END

*D_NET *715 0.00300828
*CONN
*I *1085:CLK I *D sg13g2_dfrbpq_1
*I *1089:CLK I *D sg13g2_dfrbpq_1
*I *1082:CLK I *D sg13g2_dfrbpq_1
*I *1084:CLK I *D sg13g2_dfrbpq_1
*I *1385:X O *D sg13g2_buf_8
*CAP
1 *1085:CLK 0
2 *1089:CLK 0.00045932
3 *1082:CLK 0
4 *1084:CLK 0
5 *1385:X 0
6 *715:36 0.000794498
7 *715:23 0.00035975
8 *715:10 0.000674819
9 *715:4 0.000650246
10 *715:36 *763:8 0
11 *828:A2 *1089:CLK 0
12 *939:A *1089:CLK 0
13 *939:A *715:36 0
14 *1261:A *715:10 0
15 *1261:A *715:36 0
16 *1385:A *715:10 0
17 *1385:A *715:23 0
18 *181:8 *715:23 0
19 *304:19 *1089:CLK 0
20 *486:8 *715:23 0
21 *486:23 *715:23 0
22 *660:39 *1089:CLK 6.96421e-05
23 *660:39 *715:10 0
24 *660:58 *1089:CLK 0
*RES
1 *1385:X *715:4 20 
2 *715:4 *715:10 2.9304 
3 *715:10 *1084:CLK 20 
4 *715:10 *715:23 43.2912 
5 *715:23 *1082:CLK 20 
6 *715:4 *715:36 43.3704 
7 *715:36 *1089:CLK 24.136 
8 *715:36 *1085:CLK 20 
*END

*D_NET *716 0.00785176
*CONN
*I *1086:CLK I *D sg13g2_dfrbpq_1
*I *1083:CLK I *D sg13g2_dfrbpq_1
*I *1397:A I *D sg13g2_inv_1
*I *1126:CLK I *D sg13g2_dfrbpq_1
*I *1386:X O *D sg13g2_buf_8
*CAP
1 *1086:CLK 4.5233e-05
2 *1083:CLK 0.000234765
3 *1397:A 3.34444e-05
4 *1126:CLK 0.000961577
5 *1386:X 0.000119795
6 *716:40 0.00091152
7 *716:12 0.00128717
8 *716:6 0.00104346
9 *1126:CLK *1124:CLK 0
10 *933:B2 *1397:A 4.77425e-05
11 *934:A *716:40 0.000176247
12 *1087:RESET_B *716:6 0
13 *1087:RESET_B *716:40 0.000337026
14 *1124:RESET_B *1126:CLK 0.000209856
15 *1125:RESET_B *1126:CLK 0
16 *1385:A *1083:CLK 0
17 *1386:A *716:6 0.000176034
18 *1386:A *716:40 0
19 *1389:A *1126:CLK 0.000179326
20 *162:8 *1126:CLK 0
21 *162:8 *716:12 0.000659571
22 *364:19 *1126:CLK 0
23 *660:87 *1083:CLK 0
24 *660:97 *716:40 0.000561931
25 *664:94 *1126:CLK 0
26 *680:115 *1126:CLK 0
27 *680:121 *1126:CLK 0
28 *680:133 *1126:CLK 0
29 *688:10 *1126:CLK 0.000867061
*RES
1 *1386:X *716:6 21.012 
2 *716:6 *716:12 22.8952 
3 *716:12 *1126:CLK 49.4424 
4 *716:12 *1397:A 40.2728 
5 *716:6 *716:40 6.16 
6 *716:40 *1083:CLK 21.936 
7 *716:40 *1086:CLK 20.5104 
*END

*D_NET *717 0.00500769
*CONN
*I *1078:CLK I *D sg13g2_dfrbpq_1
*I *1125:CLK I *D sg13g2_dfrbpq_1
*I *1074:CLK I *D sg13g2_dfrbpq_1
*I *1141:CLK I *D sg13g2_dfrbpq_1
*I *1387:X O *D sg13g2_buf_8
*CAP
1 *1078:CLK 0.000162679
2 *1125:CLK 0
3 *1074:CLK 2.99702e-05
4 *1141:CLK 0.000650091
5 *1387:X 0.000168661
6 *717:38 0.00018917
7 *717:12 0.00127895
8 *717:8 0.000794042
9 *926:A1 *1078:CLK 0.00025904
10 *926:A1 *717:8 0
11 *926:A1 *717:38 4.77537e-05
12 *954:B *1141:CLK 0.000468787
13 *960:B *1141:CLK 0.000895389
14 *1387:A *1141:CLK 0
15 *1387:A *717:12 0
16 *1388:A *1141:CLK 0
17 *159:8 *1078:CLK 1.54008e-05
18 *265:8 *717:12 0
19 *265:14 *1074:CLK 0
20 *363:29 *1078:CLK 0
21 *363:29 *717:8 0
22 *363:29 *717:38 0
23 *402:18 *1074:CLK 4.77537e-05
24 *402:18 *717:12 0
25 *657:44 *717:12 0
26 *657:55 *717:12 0
*RES
1 *1387:X *717:8 21.496 
2 *717:8 *717:12 25.7904 
3 *717:12 *1141:CLK 46.1864 
4 *717:12 *1074:CLK 40.2728 
5 *717:8 *717:38 0.2728 
6 *717:38 *1125:CLK 20 
7 *717:38 *1078:CLK 21.5664 
*END

*D_NET *718 0.00353286
*CONN
*I *1140:CLK I *D sg13g2_dfrbpq_1
*I *1073:CLK I *D sg13g2_dfrbpq_1
*I *1398:A I *D sg13g2_inv_1
*I *1072:CLK I *D sg13g2_dfrbpq_1
*I *1388:X O *D sg13g2_buf_8
*CAP
1 *1140:CLK 0.00019261
2 *1073:CLK 0.000398369
3 *1398:A 0.000409799
4 *1072:CLK 0
5 *1388:X 0.000482056
6 *718:19 0.00111596
7 *718:8 0.000597238
8 *834:A *1140:CLK 0
9 *834:A *718:8 0
10 *834:A *718:19 0
11 *973:B1 *718:19 0
12 *973:A2 *718:19 0
13 *1073:RESET_B *1398:A 0
14 *1074:D *718:8 0
15 *1074:D *718:19 0
16 *59:10 *1073:CLK 0
17 *182:31 *1398:A 0
18 *196:8 *718:19 0.00012874
19 *282:20 *1398:A 8.03692e-05
20 *346:22 *718:19 0.00011226
21 *346:26 *1398:A 0
22 *346:38 *1398:A 1.54556e-05
23 *397:12 *1073:CLK 0
24 *397:12 *718:19 0
25 *685:89 *1140:CLK 0
*RES
1 *1388:X *718:8 22.6576 
2 *718:8 *1072:CLK 20 
3 *718:8 *718:19 23.0272 
4 *718:19 *1398:A 43.08 
5 *718:19 *1073:CLK 43.5552 
6 *1388:X *1140:CLK 41.7512 
*END

*D_NET *691 0.00443335
*CONN
*I *1107:CLK I *D sg13g2_dfrbpq_1
*I *1106:CLK I *D sg13g2_dfrbpq_1
*I *1105:CLK I *D sg13g2_dfrbpq_1
*I *1108:CLK I *D sg13g2_dfrbpq_1
*I *1361:X O *D sg13g2_buf_8
*CAP
1 *1107:CLK 0
2 *1106:CLK 0.000683141
3 *1105:CLK 0
4 *1108:CLK 0
5 *1361:X 0.000474825
6 *691:27 0.000906661
7 *691:18 0.000687526
8 *691:12 0.000464006
9 *691:10 0.000474825
10 tl_o[30] *691:10 0
11 tl_o[35] *691:10 0
12 tl_o[35] *691:18 0
13 tl_o[39] *1106:CLK 0
14 tl_o[42] *1106:CLK 0
15 *877:A *1106:CLK 4.78028e-05
16 *878:A1 *1106:CLK 0.000296836
17 *878:A1 *691:18 0
18 *878:A1 *691:27 0
19 *880:A2 *691:18 0
20 *882:B1 *1106:CLK 0
21 *1233:A *1106:CLK 0
22 *1333:A *691:10 0
23 *29:8 *691:10 0
24 *30:10 *1106:CLK 0
25 *31:10 *1106:CLK 0
26 *31:10 *691:27 1.54008e-05
27 *132:8 *691:10 0
28 *351:54 *691:10 0
29 *515:8 *1106:CLK 0
30 *680:216 *691:10 0
31 *680:222 *691:10 0
32 *681:55 *691:18 0.000382322
33 *681:55 *691:27 0
*RES
1 *1361:X *691:10 44.6112 
2 *691:10 *691:12 20 
3 *691:12 *691:18 4.224 
4 *691:18 *1108:CLK 20 
5 *691:18 *691:27 1.8656 
6 *691:27 *1105:CLK 20 
7 *691:27 *1106:CLK 26.16 
8 *691:12 *1107:CLK 20 
*END

*D_NET *719 0.00732796
*CONN
*I *1088:CLK I *D sg13g2_dfrbpq_1
*I *1087:CLK I *D sg13g2_dfrbpq_1
*I *1079:CLK I *D sg13g2_dfrbpq_1
*I *1124:CLK I *D sg13g2_dfrbpq_1
*I *1389:X O *D sg13g2_buf_8
*CAP
1 *1088:CLK 0.00019674
2 *1087:CLK 0.000337038
3 *1079:CLK 0.000668396
4 *1124:CLK 0.000713686
5 *1389:X 0.000876785
6 *719:8 0.00172509
7 *1079:CLK *720:47 0.000849586
8 *926:A1 *1124:CLK 8.03692e-05
9 *932:A1 *1124:CLK 0.000180318
10 *942:A *1079:CLK 0.000240608
11 *1087:RESET_B *1087:CLK 0
12 *1087:RESET_B *1088:CLK 0
13 *1126:CLK *1124:CLK 0
14 *1255:A *1088:CLK 0
15 *1389:A *1124:CLK 0
16 *1390:A *1079:CLK 0
17 *48:10 *1124:CLK 0
18 *158:12 *1124:CLK 0
19 *161:12 *1124:CLK 0.00107958
20 *162:8 *719:8 0
21 *173:16 *1079:CLK 0.000143692
22 *173:16 *1124:CLK 0
23 *362:12 *1124:CLK 0
24 *364:19 *1124:CLK 0.000236081
25 *609:119 *1079:CLK 0
26 *660:97 *719:8 0
27 *664:94 *1124:CLK 0
*RES
1 *1389:X *719:8 42.8336 
2 *719:8 *1124:CLK 47.304 
3 *719:8 *1079:CLK 46.1424 
4 *1389:X *1087:CLK 43.1592 
5 *1389:X *1088:CLK 41.8656 
*END

*D_NET *720 0.00461705
*CONN
*I *1075:CLK I *D sg13g2_dfrbpq_1
*I *1399:A I *D sg13g2_inv_1
*I *1077:CLK I *D sg13g2_dfrbpq_1
*I *1076:CLK I *D sg13g2_dfrbpq_1
*I *1390:X O *D sg13g2_buf_8
*CAP
1 *1075:CLK 0
2 *1399:A 0
3 *1077:CLK 0.000246857
4 *1076:CLK 0
5 *1390:X 0.000449839
6 *720:47 0.000818297
7 *720:29 0.00105555
8 *720:6 0.000459446
9 *1077:CLK *739:14 0
10 *720:6 *739:14 0
11 *917:A *720:47 0.000288238
12 *933:B2 *720:47 0
13 *935:A *720:6 0
14 *942:A *720:47 0
15 *1075:RESET_B *720:29 0
16 *1079:CLK *720:47 0.000849586
17 *1390:A *720:6 0
18 *1390:A *720:29 0
19 *1390:A *720:47 0
20 *49:10 *720:47 0
21 *609:119 *720:47 0.00044924
*RES
1 *1390:X *720:6 21.936 
2 *720:6 *1076:CLK 20 
3 *720:6 *1077:CLK 22.4464 
4 *1390:X *720:29 22.3144 
5 *720:29 *720:47 48.3468 
6 *720:47 *1399:A 20 
7 *720:29 *1075:CLK 20 
*END

*D_NET *692 0.00366497
*CONN
*I *1098:CLK I *D sg13g2_dfrbpq_1
*I *1391:A I *D sg13g2_inv_1
*I *1158:CLK I *D sg13g2_dfrbpq_1
*I *1159:CLK I *D sg13g2_dfrbpq_1
*I *1362:X O *D sg13g2_buf_8
*CAP
1 *1098:CLK 0.000339553
2 *1391:A 0.000148424
3 *1158:CLK 0
4 *1159:CLK 0.000377909
5 *1362:X 3.18441e-05
6 *692:16 0.000681184
7 *692:10 0.000682995
8 *692:8 0.000602693
9 *892:B2 *1098:CLK 0.00023386
10 *892:A1 *1098:CLK 0.000390236
11 *898:A1 *1098:CLK 0
12 *1159:RESET_B *1159:CLK 0
13 *1243:A *1098:CLK 0.000176274
14 *1339:A *1391:A 0
15 *1362:A *1159:CLK 0
16 *1362:A *692:8 0
17 *1362:A *692:16 0
18 *139:10 *1098:CLK 0
19 *157:70 *692:16 0
20 *200:10 *1159:CLK 0
21 *319:40 *1098:CLK 0
22 *358:37 *692:8 0
23 *358:37 *692:10 0
24 *591:12 *1159:CLK 0
25 *591:24 *1159:CLK 0
26 *658:80 *1391:A 0
*RES
1 *1362:X *692:8 40.2728 
2 *692:8 *692:10 2.4112 
3 *692:10 *692:16 23.0536 
4 *692:16 *1159:CLK 23.4144 
5 *692:16 *1158:CLK 20 
6 *692:10 *1391:A 41.3816 
7 *692:8 *1098:CLK 43.3704 
*END

*D_NET *693 0.00308049
*CONN
*I *1157:CLK I *D sg13g2_dfrbpq_1
*I *1169:CLK I *D sg13g2_dfrbpq_1
*I *1164:CLK I *D sg13g2_dfrbpq_1
*I *1167:CLK I *D sg13g2_dfrbpq_1
*I *1363:X O *D sg13g2_buf_8
*CAP
1 *1157:CLK 0.000305035
2 *1169:CLK 8.11784e-05
3 *1164:CLK 0.000163178
4 *1167:CLK 0.00015464
5 *1363:X 0.00055368
6 *693:39 0.00065155
7 *693:8 0.000606161
8 *1157:CLK *1162:CLK 0
9 *1169:CLK *1162:CLK 0.000144617
10 *1164:D *1167:CLK 0
11 *1164:D *693:8 0
12 *1169:RESET_B *693:39 0.000144999
13 *1170:RESET_B *1164:CLK 0
14 *1170:RESET_B *1167:CLK 0
15 *1364:A *693:39 0.000144429
16 *157:20 *1169:CLK 0.000131027
17 *229:8 *1164:CLK 0
18 *584:10 *693:8 0
19 *584:36 *1157:CLK 0
*RES
1 *1363:X *693:8 42.8336 
2 *693:8 *1167:CLK 41.6016 
3 *693:8 *1164:CLK 41.5664 
4 *1363:X *693:39 42.3936 
5 *693:39 *1169:CLK 40.8272 
6 *693:39 *1157:CLK 42.816 
*END

*D_NET *694 0.00677556
*CONN
*I *1070:CLK I *D sg13g2_dfrbpq_1
*I *1168:CLK I *D sg13g2_dfrbpq_1
*I *1170:CLK I *D sg13g2_dfrbpq_1
*I *1162:CLK I *D sg13g2_dfrbpq_1
*I *1364:X O *D sg13g2_buf_8
*CAP
1 *1070:CLK 0.000509903
2 *1168:CLK 0.000222684
3 *1170:CLK 0.000245171
4 *1162:CLK 0.000629962
5 *1364:X 0
6 *694:19 0.000854667
7 *694:15 0.000896714
8 *694:4 0.000629962
9 *1170:CLK *1170:D 0
10 *1016:A2 *1168:CLK 0
11 *1157:RESET_B *1162:CLK 0.000339376
12 *1157:CLK *1162:CLK 0
13 *1169:CLK *1162:CLK 0.000144617
14 *1170:RESET_B *1170:CLK 0
15 *157:20 *1070:CLK 0
16 *157:20 *1162:CLK 0
17 *229:14 *694:19 0.000392884
18 *285:36 *1168:CLK 0
19 *285:46 *1168:CLK 0
20 *285:46 *1170:CLK 0
21 *415:12 *1070:CLK 0.000395811
22 *415:12 *694:19 0.00151381
23 *572:8 *1070:CLK 0
24 *581:10 *1170:CLK 0
25 *596:8 *1162:CLK 0
*RES
1 *1364:X *694:4 20 
2 *694:4 *1162:CLK 25.7464 
3 *694:4 *694:15 20 
4 *694:15 *694:19 26.0016 
5 *694:19 *1170:CLK 22.42 
6 *694:19 *1168:CLK 22.1032 
7 *694:15 *1070:CLK 44.796 
*END

*D_NET *695 0.00724224
*CONN
*I *1185:CLK I *D sg13g2_dfrbpq_1
*I *1097:CLK I *D sg13g2_dfrbpq_1
*I *1096:CLK I *D sg13g2_dfrbpq_1
*I *1101:CLK I *D sg13g2_dfrbpq_1
*I *1365:X O *D sg13g2_buf_8
*CAP
1 *1185:CLK 0.000254096
2 *1097:CLK 0
3 *1096:CLK 0.000161942
4 *1101:CLK 0.000471234
5 *1365:X 4.61589e-05
6 *695:30 0.000805227
7 *695:24 0.000505688
8 *695:14 0.000981913
9 *695:6 0.000948531
10 *900:B1 *695:14 0
11 *900:B1 *695:24 0.000176824
12 *900:B2 *695:14 0
13 *901:A *1101:CLK 0
14 *902:A1 *1101:CLK 0.000340704
15 *904:B1 *1096:CLK 0.000177186
16 *1139:D *695:14 0
17 *1244:A *695:24 0.000176731
18 *1245:A *1096:CLK 4.77425e-05
19 *1350:A *695:6 0
20 *1350:A *695:14 0
21 *40:12 *1101:CLK 0
22 *267:34 *695:14 0
23 *267:34 *695:24 0
24 *272:14 *695:14 0
25 *352:16 *695:24 0.000241765
26 *352:28 *1096:CLK 0
27 *352:28 *695:30 0.000130017
28 *353:24 *1185:CLK 0
29 *353:24 *695:14 0
30 *354:12 *695:14 0
31 *502:10 *1101:CLK 7.51285e-05
32 *502:10 *695:30 0
33 *503:14 *695:24 3.23417e-05
34 *631:14 *1096:CLK 0.000209516
35 *666:14 *1185:CLK 9.73703e-05
36 *666:14 *695:14 0.00030692
37 *680:6 *1185:CLK 0
38 *680:6 *695:14 0
39 *680:15 *1185:CLK 0
40 *680:204 *695:24 0
41 *682:63 *1101:CLK 0.000873927
42 *683:30 *695:24 0.00018128
*RES
1 *1365:X *695:6 20.5104 
2 *695:6 *695:14 5.6056 
3 *695:14 *695:24 43.3 
4 *695:24 *695:30 21.7336 
5 *695:30 *1101:CLK 45.368 
6 *695:30 *1096:CLK 41.5664 
7 *695:14 *1097:CLK 20 
8 *695:6 *1185:CLK 22.42 
*END

*D_NET *696 0.0023797
*CONN
*I *1129:CLK I *D sg13g2_dfrbpq_1
*I *1131:CLK I *D sg13g2_dfrbpq_1
*I *1069:CLK I *D sg13g2_dfrbpq_1
*I *1392:A I *D sg13g2_inv_1
*I *1366:X O *D sg13g2_buf_8
*CAP
1 *1129:CLK 0
2 *1131:CLK 0.000294278
3 *1069:CLK 1.68859e-05
4 *1392:A 0.000192215
5 *1366:X 0.000549831
6 *696:29 0.000470013
7 *696:20 0.000550237
8 *789:S *1131:CLK 0
9 *789:S *696:20 0
10 *789:S *696:29 0
11 *1099:D *696:20 0
12 *1099:D *696:29 0
13 *1366:A *696:20 0
14 *270:12 *1069:CLK 0
15 *270:12 *1392:A 0
16 *270:12 *696:20 0.000306243
17 *550:39 *1392:A 0
18 *574:14 *696:20 0
19 *658:47 *1131:CLK 0
20 *658:47 *696:29 0
21 *661:14 *1392:A 0
*RES
1 *1366:X *1392:A 41.6808 
2 *1366:X *696:20 23.2296 
3 *696:20 *1069:CLK 20.2992 
4 *696:20 *696:29 1.5664 
5 *696:29 *1131:CLK 22.7456 
6 *696:29 *1129:CLK 20 
*END

*D_NET *697 0.00489988
*CONN
*I *1110:CLK I *D sg13g2_dfrbpq_1
*I *1109:CLK I *D sg13g2_dfrbpq_1
*I *1104:CLK I *D sg13g2_dfrbpq_1
*I *1103:CLK I *D sg13g2_dfrbpq_1
*I *1367:X O *D sg13g2_buf_8
*CAP
1 *1110:CLK 0
2 *1109:CLK 0.000326429
3 *1104:CLK 0.000397031
4 *1103:CLK 0.00036703
5 *1367:X 0.000544709
6 *697:32 0.00108401
7 *697:24 0.000538224
8 tl_o[26] *1104:CLK 0.000630966
9 *875:A *1109:CLK 3.23636e-05
10 *886:B1 *1104:CLK 0
11 *1232:A *1109:CLK 1.54556e-05
12 *1438:A *1103:CLK 0
13 *1438:A *1104:CLK 0
14 *1438:A *697:24 0
15 *1438:A *697:32 0.000242181
16 *135:10 *1109:CLK 4.78192e-05
17 *267:14 *1109:CLK 0
18 *267:14 *697:32 0
19 *267:34 *1103:CLK 0
20 *665:12 *1103:CLK 0.000435979
21 *681:10 *697:24 0
22 *681:10 *697:32 0
23 *681:16 *697:32 0.000237686
*RES
1 *1367:X *1103:CLK 43.4584 
2 *1367:X *697:24 21.496 
3 *697:24 *697:32 23.6168 
4 *697:32 *1104:CLK 43.8984 
5 *697:32 *1109:CLK 42.8952 
6 *697:24 *1110:CLK 20 
*END

*D_NET *698 0.00529232
*CONN
*I *1115:CLK I *D sg13g2_dfrbpq_1
*I *1102:CLK I *D sg13g2_dfrbpq_1
*I *1120:CLK I *D sg13g2_dfrbpq_1
*I *1111:CLK I *D sg13g2_dfrbpq_1
*I *1368:X O *D sg13g2_buf_8
*CAP
1 *1115:CLK 7.23532e-05
2 *1102:CLK 0
3 *1120:CLK 0.000759233
4 *1111:CLK 0.000465432
5 *1368:X 0.000440412
6 *698:47 0.000884775
7 *698:39 0.00106915
8 *698:8 0.00155305
9 *698:8 *1281:A 4.79124e-05
10 *871:A *1111:CLK 0
11 *1115:RESET_B *1115:CLK 0
12 *1115:RESET_B *698:8 0
13 *1115:RESET_B *698:39 0
14 *1115:D *1111:CLK 0
15 *1115:D *698:8 0
16 *1368:A *698:47 0
17 *253:10 *698:47 0
18 *524:18 *698:8 0
19 *524:18 *698:39 0
20 *674:29 *698:47 0
21 *674:50 *698:47 0
22 *680:238 *698:47 0
23 *680:244 *698:47 0
24 *680:260 *698:47 0
*RES
1 *1368:X *698:8 43.0448 
2 *698:8 *1111:CLK 44.1536 
3 *698:8 *1120:CLK 45.5792 
4 *1368:X *698:39 21.012 
5 *698:39 *698:47 48.1488 
6 *698:47 *1102:CLK 20 
7 *698:39 *1115:CLK 20.7568 
*END

*D_NET *268 0.00154126
*CONN
*I *1151:RESET_B I *D sg13g2_dfrbpq_1
*I *1153:RESET_B I *D sg13g2_dfrbpq_1
*I *1187:Q O *D sg13g2_dfrbpq_1
*CAP
1 *1151:RESET_B 0.000360598
2 *1153:RESET_B 0.000166245
3 *1187:Q 9.97813e-05
4 *268:10 0.000626625
5 *1151:RESET_B *270:16 0.000288016
6 *1151:RESET_B *298:8 0
7 *1151:RESET_B *368:8 0
8 *1151:RESET_B *550:8 0
9 *1153:RESET_B *1153:CLK 0
10 *268:10 *368:8 0
11 *92:56 *1153:RESET_B 0
12 *92:56 *268:10 0
*RES
1 *1187:Q *268:10 40.9944 
2 *268:10 *1153:RESET_B 41.5664 
3 *268:10 *1151:RESET_B 43.6784 
*END

*D_NET *270 0.0116207
*CONN
*I *1148:D I *D sg13g2_dfrbpq_1
*I *800:A1 I *D sg13g2_a21oi_1
*I *799:C I *D sg13g2_nor3_1
*I *1184:D I *D sg13g2_dfrbpq_1
*I *789:X O *D sg13g2_mux2_1
*CAP
1 *1148:D 0.000505407
2 *800:A1 3.12201e-05
3 *799:C 3.00302e-05
4 *1184:D 0
5 *789:X 0.00136106
6 *270:40 0.000632182
7 *270:29 0.000592122
8 *270:16 0.00126554
9 *270:12 0.00216007
10 *799:C *366:44 0
11 *1148:D *359:29 0
12 *1148:D *367:52 0
13 *1148:D *685:40 0
14 *1148:D *685:49 0
15 *270:12 *1069:CLK 0
16 *270:12 *1153:CLK 0
17 *270:12 *1190:A 0.000265469
18 *270:12 *1366:A 0
19 *270:12 *1392:A 0
20 *270:12 *550:37 0.000371872
21 *270:12 *550:39 0
22 *270:12 *574:14 0
23 *270:12 *658:100 0
24 *270:12 *661:8 0
25 *270:12 *661:14 0
26 *270:12 *680:27 0
27 *270:12 *680:47 0
28 *270:12 *684:51 7.99455e-05
29 *270:12 *696:20 0.000306243
30 *270:12 *706:6 0.000242352
31 *270:16 *1137:CLK 0
32 *270:16 *368:8 0
33 *270:16 *368:25 0
34 *270:16 *603:8 0.000820153
35 *270:16 *603:44 0.000501962
36 *270:16 *708:44 0.00108739
37 *270:16 *711:28 0
38 *270:29 *796:A 0
39 *270:29 *1137:CLK 0
40 *270:29 *1147:CLK 0
41 *270:29 *282:12 0
42 *270:29 *366:44 0
43 *270:29 *603:44 0.000236057
44 *270:29 *711:28 0
45 *797:A1 *1148:D 1.53311e-05
46 *800:A2 *800:A1 1.54008e-05
47 *1128:D *270:12 0
48 *1151:RESET_B *270:16 0.000288016
49 *82:12 *1148:D 4.76034e-05
50 *84:8 *1148:D 0.000424162
51 *84:8 *270:40 0.000341119
*RES
1 *789:X *270:12 32.4168 
2 *270:12 *270:16 30.8592 
3 *270:16 *1184:D 40 
4 *270:16 *270:29 24.8752 
5 *270:29 *799:C 20.2728 
6 *270:29 *270:40 21.3552 
7 *270:40 *800:A1 40.2728 
8 *270:40 *1148:D 44.9192 
*END

*D_NET *271 0.00947674
*CONN
*I *794:C I *D sg13g2_nor3_1
*I *795:A1 I *D sg13g2_a21oi_1
*I *1149:D I *D sg13g2_dfrbpq_1
*I *1185:D I *D sg13g2_dfrbpq_1
*I *788:X O *D sg13g2_mux2_1
*CAP
1 *794:C 0.000379195
2 *795:A1 0
3 *1149:D 0
4 *1185:D 0
5 *788:X 0.000717477
6 *271:31 0.000549699
7 *271:25 0.00152679
8 *271:12 0.0022817
9 *271:10 0.00240128
10 *794:C *791:A 0
11 *794:C *793:B_N 0
12 *794:C *349:16 0
13 *794:C *548:10 0
14 *271:10 *788:A1 0
15 *271:10 *806:B 0
16 *271:10 *844:S 0
17 *271:10 *572:8 0
18 *271:10 *586:10 4.78195e-05
19 *271:10 *684:20 0
20 *271:10 *684:24 0.000242072
21 *271:12 *406:14 0
22 *271:12 *566:10 0
23 *271:12 *566:18 0
24 *271:12 *684:10 0
25 *271:12 *684:12 0
26 *271:12 *684:20 0
27 *271:25 *1185:RESET_B 0.000181781
28 *271:25 *1186:RESET_B 0.000746096
29 *271:25 *283:14 0
30 *271:25 *345:18 0
31 *271:25 *366:18 0
32 *271:25 *548:10 0
33 *271:25 *680:15 0
34 *271:25 *680:17 0
35 *271:31 *360:24 0
36 *271:31 *366:8 0
37 *271:31 *675:57 0
38 *794:B *794:C 0.000307238
39 *795:A2 *794:C 1.54008e-05
40 *795:A2 *271:25 8.01938e-05
41 *795:B1 *794:C 0
42 *795:B1 *271:25 0
43 *807:A *271:10 0
44 *1042:S *271:10 0
45 *79:8 *271:31 0
*RES
1 *788:X *271:10 46.512 
2 *271:10 *271:12 12.9712 
3 *271:12 *1185:D 40 
4 *271:12 *271:25 26.644 
5 *271:25 *271:31 44.9456 
6 *271:31 *1149:D 20 
7 *271:25 *795:A1 20 
8 *271:25 *794:C 23.4144 
*END

*D_NET *272 0.0131427
*CONN
*I *1186:D I *D sg13g2_dfrbpq_1
*I *1035:C I *D sg13g2_nor3_1
*I *1150:D I *D sg13g2_dfrbpq_1
*I *1036:A1 I *D sg13g2_a21oi_1
*I *1031:X O *D sg13g2_mux2_1
*CAP
1 *1186:D 0
2 *1035:C 0.000651442
3 *1150:D 0.000169636
4 *1036:A1 0
5 *1031:X 0
6 *272:28 0.000393973
7 *272:20 0.000563609
8 *272:18 0.00121324
9 *272:14 0.0036253
10 *272:6 0.0030635
11 *1035:C *354:38 0
12 *1035:C *365:22 8.02914e-05
13 *1035:C *367:38 0.000177033
14 *1035:C *713:29 0.000181192
15 *1150:D *354:38 0.000237998
16 *1150:D *677:20 0
17 *272:14 *843:A0 0
18 *272:14 *894:A2 0
19 *272:14 *1139:CLK 0
20 *272:14 *1249:A 0
21 *272:14 *1306:A 0.000209637
22 *272:14 *1353:A 0
23 *272:14 *319:8 0
24 *272:14 *319:10 0
25 *272:14 *319:12 0
26 *272:14 *358:50 0
27 *272:14 *366:18 0
28 *272:14 *497:12 0
29 *272:14 *503:10 0.000177339
30 *272:14 *506:10 0
31 *272:14 *598:8 0
32 *272:14 *658:57 0
33 *272:14 *680:6 0
34 *272:14 *680:15 0
35 *272:14 *680:204 0
36 *272:14 *680:310 0
37 *272:14 *682:10 0
38 *272:14 *682:33 0
39 *272:14 *683:10 0
40 *272:14 *683:64 0
41 *272:14 *695:14 0
42 *272:18 *1186:RESET_B 0
43 *272:18 *349:46 0
44 *272:18 *366:8 0
45 *272:18 *713:29 0.000821002
46 *272:28 *1032:A 0
47 *272:28 *284:16 7.57164e-05
48 *272:28 *350:16 0
49 *272:28 *354:38 0.000339398
50 *272:28 *677:20 0
51 *1035:B *1035:C 0.00050103
52 *1036:B1 *1035:C 0
53 *1350:A *272:14 0
54 *9:10 *272:18 0
55 *74:10 *272:28 0
56 *116:35 *1035:C 0
57 *116:35 *272:18 0
58 *116:35 *272:28 0.000661386
59 *127:39 *272:14 0
60 *127:69 *272:14 0
61 *138:14 *272:14 0
62 *240:10 *1035:C 0
63 *267:34 *272:14 0
*RES
1 *1031:X *272:6 40 
2 *272:6 *272:14 47.1656 
3 *272:14 *272:18 26.424 
4 *272:18 *272:20 20 
5 *272:20 *272:28 44.5584 
6 *272:28 *1036:A1 20 
7 *272:20 *1150:D 21.6808 
8 *272:18 *1035:C 46.0016 
9 *272:14 *1186:D 20 
*END

*D_NET *280 0.00322842
*CONN
*I *1183:D I *D sg13g2_dfrbpq_1
*I *1147:D I *D sg13g2_dfrbpq_1
*I *805:A1 I *D sg13g2_a21oi_1
*I *804:C I *D sg13g2_nor3_1
*I *790:X O *D sg13g2_mux2_1
*CAP
1 *1183:D 7.84645e-05
2 *1147:D 0.000177067
3 *805:A1 4.43643e-05
4 *804:C 3.8059e-05
5 *790:X 0.000235024
6 *280:29 0.000305607
7 *280:16 0.000756202
8 *280:10 0.000712432
9 *280:8 0.000235024
10 *804:C *283:14 0
11 *805:A1 *1268:A 4.77425e-05
12 *805:A1 *283:14 0
13 *1147:D *283:14 0
14 *1147:D *362:20 0.000112349
15 *1183:D *408:8 0
16 *1183:D *562:12 0
17 *280:8 *562:12 0
18 *280:8 *712:58 0
19 *280:16 *1183:RESET_B 0
20 *280:16 *1189:A 0
21 *280:16 *408:8 0
22 *280:16 *562:12 0
23 *280:16 *711:28 0
24 *805:A2 *805:A1 4.77425e-05
25 *87:8 *1147:D 0.000128576
26 *88:8 *280:16 7.51285e-05
27 *88:8 *280:29 0.00023464
28 *114:8 *1147:D 0
29 *114:8 *280:16 0
30 *114:8 *280:29 0
*RES
1 *790:X *280:8 41.9888 
2 *280:8 *280:10 20 
3 *280:10 *280:16 25.8784 
4 *280:16 *804:C 40.2728 
5 *280:16 *280:29 1.2056 
6 *280:29 *805:A1 40.4576 
7 *280:29 *1147:D 41.7336 
8 *280:10 *1183:D 20.6424 
*END

*D_NET *293 0.00319677
*CONN
*P intr_gpio_o[0] O
*I *1268:X O *D sg13g2_buf_1
*CAP
1 intr_gpio_o[0] 0.00159838
2 *1268:X 0.00159838
3 intr_gpio_o[0] *1422:A 0
4 intr_gpio_o[0] *1436:A 0
5 *283:14 intr_gpio_o[0] 0
6 *291:10 intr_gpio_o[0] 0
*RES
1 *1268:X intr_gpio_o[0] 36.1216 
*END

*D_NET *292 0.00233334
*CONN
*P intr_gpio_o[1] O
*I *1266:X O *D sg13g2_buf_1
*CAP
1 intr_gpio_o[1] 0.00116667
2 *1266:X 0.00116667
3 intr_gpio_o[1] *1073:RESET_B 0
4 intr_gpio_o[1] *1314:A 0
5 intr_gpio_o[1] *329:13 0
6 intr_gpio_o[1] *331:11 0
7 intr_gpio_o[1] *395:20 0
*RES
1 *1266:X intr_gpio_o[1] 31.8184 
*END

*D_NET *291 0.00264084
*CONN
*P intr_gpio_o[2] O
*I *1264:X O *D sg13g2_buf_1
*CAP
1 intr_gpio_o[2] 0.000859124
2 *1264:X 0.000461296
3 *291:10 0.00132042
4 intr_gpio_o[2] tl_o[5] 0
5 *291:10 intr_gpio_o[0] 0
*RES
1 *1264:X *291:10 44.532 
2 *291:10 intr_gpio_o[2] 27.436 
*END

*D_NET *647 0.00328653
*CONN
*P intr_gpio_o[3] O
*I *1263:X O *D sg13g2_buf_1
*CAP
1 intr_gpio_o[3] 0.000773332
2 *1263:X 0.000869933
3 *647:8 0.00164327
4 tl_o[17] *647:8 0
5 tl_o[20] *647:8 0
6 *176:8 *647:8 0
*RES
1 *1263:X *647:8 49.1696 
2 *647:8 intr_gpio_o[3] 47.1808 
*END

*D_NET *397 0.00718597
*CONN
*I *972:B I *D sg13g2_nand2_1
*I *834:A I *D sg13g2_nor2_1
*I *1312:X O *D sg13g2_buf_1
*CAP
1 *972:B 0.000106893
2 *834:A 0.00173931
3 *1312:X 0.000342596
4 *397:12 0.00224881
5 *397:8 0.000745207
6 *834:A *796:A 0
7 *834:A *1140:CLK 0
8 *834:A *685:40 0
9 *834:A *685:49 0
10 *834:A *685:68 0
11 *834:A *718:8 0
12 *834:A *718:19 0
13 *397:12 *1073:CLK 0
14 *397:12 *718:19 0
15 *798:B_N *834:A 0.000501419
16 *836:A0 *834:A 0.00108255
17 *974:B *834:A 8.00913e-05
18 *974:B *397:12 0
19 *975:B1 *397:12 0
20 *975:A2 *397:12 0
21 *1140:RESET_B *834:A 0
22 *1141:D *834:A 0
23 *3:10 *834:A 0.000339097
24 *59:10 *397:8 0
25 *59:10 *397:12 0
26 *282:12 *834:A 0
27 *346:22 *834:A 0
28 *346:22 *972:B 0
*RES
1 *1312:X *397:8 43.0448 
2 *397:8 *397:12 23.2296 
3 *397:12 *834:A 35.4704 
4 *397:12 *972:B 21.1792 
*END

*D_NET *398 0.00554723
*CONN
*I *1049:B I *D sg13g2_nand2_1
*I *1064:A0 I *D sg13g2_mux2_1
*I *1311:X O *D sg13g2_buf_1
*CAP
1 *1049:B 0.000150632
2 *1064:A0 0
3 *1311:X 0.000184783
4 *398:22 0.000841151
5 *398:10 0.00200039
6 *398:8 0.00119339
7 *398:10 *486:23 0
8 *398:10 *763:8 0
9 *398:10 *781:8 0
10 *398:22 *437:64 0
11 *398:22 *653:12 0
12 *398:22 *664:10 0
13 *919:B1 *1049:B 0.000209681
14 *105:48 *398:22 0.000565872
15 *151:10 *398:10 0
16 *155:10 *398:10 0.000126859
17 *175:10 *398:22 0
18 *176:8 *398:10 0
19 *180:8 *398:10 0
20 *180:8 *398:22 0
21 *191:23 *1049:B 0
22 *250:8 *398:10 0
23 *250:8 *398:22 0
24 *250:16 *398:22 0
25 *284:16 *398:8 0.000274479
26 *323:9 *398:8 0
27 *361:10 *398:22 0
28 *365:10 *398:22 0
*RES
1 *1311:X *398:8 41.5664 
2 *398:8 *398:10 8.7472 
3 *398:10 *398:22 47.0312 
4 *398:22 *1064:A0 40 
5 *398:10 *1049:B 41.4696 
*END

*D_NET *399 0.00665456
*CONN
*I *970:B I *D sg13g2_nand2_1
*I *849:A0 I *D sg13g2_mux2_1
*I *1310:X O *D sg13g2_buf_1
*CAP
1 *970:B 0
2 *849:A0 0.00132969
3 *1310:X 0.000349412
4 *399:31 0.00030756
5 *399:10 0.00198666
6 *399:10 *968:B 0
7 *399:10 *1309:A 0
8 *848:A1 *399:31 0
9 *849:A1 *849:A0 7.98567e-05
10 *850:A *849:A0 0
11 *949:A2 *849:A0 0.000436401
12 *967:A2 *849:A0 0
13 *1078:D *849:A0 0
14 *1125:D *849:A0 0
15 *1126:RESET_B *849:A0 0.000112733
16 *1210:A *849:A0 4.77425e-05
17 *1210:A *399:10 4.78359e-05
18 *1210:A *399:31 0.000616607
19 *1271:A *399:10 0
20 *1416:A *399:10 0.000242313
21 *114:48 *849:A0 0.00024211
22 *178:14 *849:A0 2.20736e-05
23 *257:12 *399:31 0.000401086
24 *265:14 *849:A0 0
25 *341:44 *399:31 0.000432479
26 *359:8 *849:A0 0
27 *359:14 *849:A0 0
28 *359:42 *849:A0 0
*RES
1 *1310:X *399:10 23.4584 
2 *399:10 *849:A0 31.6864 
3 *399:10 *399:31 44.312 
4 *399:31 *970:B 20 
*END

*D_NET *400 0.00187194
*CONN
*I *968:B I *D sg13g2_nand2_1
*I *848:A0 I *D sg13g2_mux2_1
*I *1309:X O *D sg13g2_buf_1
*CAP
1 *968:B 0.000201964
2 *848:A0 0.000431911
3 *1309:X 0
4 *400:6 0.000633875
5 *848:A0 *402:6 8.02927e-05
6 *968:B *1309:A 0
7 *848:A1 *848:A0 1.54008e-05
8 *968:A *968:B 0
9 *1210:A *848:A0 0.000346048
10 *1210:A *968:B 0.000162445
11 *1271:A *848:A0 0
12 *399:10 *968:B 0
*RES
1 *1309:X *400:6 40 
2 *400:6 *848:A0 44.136 
3 *400:6 *968:B 41.9184 
*END

*D_NET *402 0.00322115
*CONN
*I *966:B I *D sg13g2_nand2_1
*I *847:A0 I *D sg13g2_mux2_1
*I *1308:X O *D sg13g2_buf_1
*CAP
1 *966:B 2.77263e-05
2 *847:A0 0
3 *1308:X 0.000387573
4 *402:18 0.000604859
5 *402:6 0.00102016
6 *402:6 *848:S 0
7 *402:18 *1074:CLK 4.77537e-05
8 *402:18 *657:44 0.000181192
9 *402:18 *717:12 0
10 *847:A1 *402:18 0
11 *848:A0 *402:6 8.02927e-05
12 *848:A1 *402:6 0
13 *954:B *402:18 0.000792185
14 *966:A *402:6 0
15 *966:A *402:18 0
16 *1271:A *402:6 0
17 *182:16 *402:6 0
18 *182:31 *402:6 0
19 *187:10 *402:18 7.9407e-05
20 *265:14 *402:18 0
*RES
1 *1308:X *402:6 23.0448 
2 *402:6 *402:18 46.0016 
3 *402:18 *847:A0 20 
4 *402:6 *966:B 20.2992 
*END

*D_NET *403 0.00591897
*CONN
*I *1051:B I *D sg13g2_nand2_1
*I *1060:A0 I *D sg13g2_mux2_1
*I *1307:X O *D sg13g2_buf_1
*CAP
1 *1051:B 0.000193019
2 *1060:A0 0.000719024
3 *1307:X 0.000615026
4 *403:10 0.00152707
5 *1051:B *664:62 0
6 *1060:A0 *714:26 0
7 *403:10 *1385:A 0
8 *403:10 *609:69 0
9 *403:10 *660:29 0.000112426
10 *403:10 *660:39 0.000208083
11 *919:B1 *1051:B 4.77425e-05
12 *919:B1 *1060:A0 0.000215263
13 *947:A *1060:A0 0
14 *1036:B1 *1060:A0 0
15 *1127:D *1060:A0 0
16 *1443:A *1051:B 1.54446e-05
17 *52:10 *403:10 0.000234128
18 *54:10 *403:10 0
19 *105:54 *1060:A0 0.000127457
20 *180:8 *1060:A0 0.00131276
21 *180:8 *403:10 0.000591525
22 *185:8 *1060:A0 0
23 *185:8 *403:10 0
24 *191:23 *1051:B 0
*RES
1 *1307:X *403:10 46.2744 
2 *403:10 *1060:A0 48.3336 
3 *403:10 *1051:B 41.3816 
*END

*D_NET *404 0.00111935
*CONN
*I *843:A0 I *D sg13g2_mux2_1
*I *1306:X O *D sg13g2_buf_1
*CAP
1 *843:A0 0.000487205
2 *1306:X 0.000487205
3 *843:A0 *497:12 0.000144942
4 *910:B1 *843:A0 0
5 *272:14 *843:A0 0
*RES
1 *1306:X *843:A0 43.8544 
*END

*D_NET *405 0.00489147
*CONN
*I *842:A0 I *D sg13g2_mux2_1
*I *1305:X O *D sg13g2_buf_1
*CAP
1 *842:A0 0
2 *1305:X 0
3 *405:12 0.00170503
4 *405:6 0.00170503
5 *405:12 *1250:A 0
6 *405:12 *435:12 0.000502149
7 *405:12 *438:8 0.000531062
8 *405:12 *438:14 0.000448186
9 *405:12 *778:27 0
10 *405:12 *783:8 0
11 *405:12 *785:10 0
12 *891:A *405:12 0
13 *8:10 *405:12 0
14 *103:8 *405:12 0
15 *105:8 *405:12 0
16 *113:10 *405:12 0
17 *113:12 *405:12 0
18 *113:18 *405:12 0
19 *122:8 *405:12 0
20 *138:8 *405:12 0
21 *138:14 *405:12 0
22 *350:16 *405:12 0
*RES
1 *1305:X *405:6 40 
2 *405:6 *405:12 37.6264 
3 *405:12 *842:A0 20 
*END

*D_NET *406 0.00508779
*CONN
*I *841:A0 I *D sg13g2_mux2_1
*I *1304:X O *D sg13g2_buf_1
*CAP
1 *841:A0 0
2 *1304:X 0.000290667
3 *406:14 0.00225323
4 *406:8 0.0025439
5 *406:8 *1171:CLK 0
6 *406:14 *789:A0 0
7 *406:14 *841:S 0
8 *406:14 *1171:D 0
9 *406:14 *505:10 0
10 *406:14 *566:18 0
11 *406:14 *572:19 0
12 *406:14 *572:28 0
13 *406:14 *574:10 0
14 *406:14 *574:20 0
15 *406:14 *680:27 0
16 *271:12 *406:14 0
17 *285:74 *406:8 0
*RES
1 *1304:X *406:8 42.3056 
2 *406:8 *406:14 38.6296 
3 *406:14 *841:A0 20 
*END

*D_NET *407 0.00520608
*CONN
*I *1062:A0 I *D sg13g2_mux2_1
*I *1303:X O *D sg13g2_buf_1
*CAP
1 *1062:A0 0
2 *1303:X 0
3 *407:12 0.001478
4 *407:6 0.001478
5 *407:12 *916:A 0.000980593
6 *407:12 *940:B 0
7 *407:12 *1252:A 0.000213373
8 *407:12 *660:58 0
9 *407:12 *713:14 0.000661886
10 *407:12 *761:8 0
11 *1033:A2 *407:12 0
12 *76:10 *407:12 0
13 *113:64 *407:12 0
14 *116:22 *407:12 0
15 *170:8 *407:12 0
16 *175:10 *407:12 0
17 *284:16 *407:12 0
18 *361:10 *407:12 0.000394236
19 *361:18 *407:12 0
*RES
1 *1303:X *407:6 40 
2 *407:6 *407:12 35.62 
3 *407:12 *1062:A0 20 
*END

*D_NET *408 0.00479166
*CONN
*I *840:A0 I *D sg13g2_mux2_1
*I *1302:X O *D sg13g2_buf_1
*CAP
1 *840:A0 0
2 *1302:X 0.0014159
3 *408:8 0.0014159
4 *408:8 *409:6 0.00195986
5 *408:8 *410:10 0
6 *408:8 *562:12 0
7 *408:8 *708:12 0
8 *408:8 *711:8 0
9 *408:8 *712:58 0
10 *408:8 *766:10 0
11 *1183:D *408:8 0
12 *1445:A *408:8 0
13 *280:16 *408:8 0
*RES
1 *1302:X *408:8 33.3232 
2 *408:8 *840:A0 20 
*END

*D_NET *409 0.00676403
*CONN
*I *839:A0 I *D sg13g2_mux2_1
*I *1301:X O *D sg13g2_buf_1
*CAP
1 *839:A0 0
2 *1301:X 0.00115608
3 *409:18 0.000470006
4 *409:6 0.00162608
5 *409:6 *1183:RESET_B 4.77425e-05
6 *409:6 *680:75 0
7 *409:6 *708:8 0
8 *409:6 *708:12 0.000566053
9 *409:6 *766:10 0
10 *409:18 *708:12 4.77425e-05
11 *409:18 *708:18 0.000209374
12 *409:18 *708:44 7.51285e-05
13 *840:A1 *409:18 2.4669e-05
14 *1378:A *409:18 0
15 *6:10 *409:18 0.000274189
16 *351:26 *409:18 0.0003071
17 *408:8 *409:6 0.00195986
*RES
1 *1301:X *409:6 31.176 
2 *409:6 *409:18 44.4968 
3 *409:18 *839:A0 20 
*END

*D_NET *410 0.00413953
*CONN
*I *838:A0 I *D sg13g2_mux2_1
*I *1300:X O *D sg13g2_buf_1
*CAP
1 *838:A0 0
2 *1300:X 0.00189241
3 *410:10 0.00189241
4 *410:10 *840:S 0
5 *410:10 *1300:A 0
6 *410:10 *1381:A 0
7 *410:10 *1396:A 0
8 *410:10 *556:10 0
9 *410:10 *562:12 0
10 *410:10 *673:8 0
11 *410:10 *712:58 0.000274628
12 *790:S *410:10 0
13 *1138:D *410:10 8.00842e-05
14 *1345:A *410:10 0
15 *1445:A *410:10 0
16 *1448:A *410:10 0
17 *368:12 *410:10 0
18 *408:8 *410:10 0
*RES
1 *1300:X *410:10 36.7376 
2 *410:10 *838:A0 20 
*END

*D_NET *411 0.0102149
*CONN
*I *1063:A0 I *D sg13g2_mux2_1
*I *1299:X O *D sg13g2_buf_1
*CAP
1 *1063:A0 0
2 *1299:X 0.000159635
3 *411:18 0.0025979
4 *411:8 0.00275754
5 *411:18 tl_o[33] 0
6 *411:18 *414:10 0.0022072
7 *411:18 *416:10 0
8 *411:18 *550:52 0
9 *411:18 *582:12 0
10 *411:18 *582:27 0
11 *411:18 *584:51 0.00140757
12 *411:18 *658:18 0
13 *411:18 *666:14 0
14 *845:A1 *411:18 0
15 *900:B1 *411:18 8.0194e-05
16 *1023:A1 *411:18 0.000288173
17 *1061:A1 *411:18 0
18 *1401:A *411:8 0.000242253
19 *127:39 *411:18 0
20 *127:45 *411:18 0
21 *157:10 *411:18 0
22 *226:8 *411:18 0.000159096
23 *228:8 *411:18 0.000235141
24 *228:27 *411:18 0
25 *230:33 *411:18 0
26 *310:13 *411:8 0
27 *351:26 *411:18 0
28 *353:24 *411:18 8.0194e-05
29 *356:25 *411:18 0
*RES
1 *1299:X *411:8 41.3816 
2 *411:8 *411:18 49.6296 
3 *411:18 *1063:A0 20 
*END

*D_NET *413 0.00697369
*CONN
*I *846:A0 I *D sg13g2_mux2_1
*I *1298:X O *D sg13g2_buf_1
*CAP
1 *846:A0 0
2 *1298:X 2.47826e-05
3 *413:14 0.00102671
4 *413:8 0.00105149
5 *413:14 *1128:RESET_B 0
6 *413:14 *566:10 0.000342145
7 *413:14 *566:18 0.00168466
8 *413:14 *661:14 0.00269989
9 *413:14 *684:20 0
10 *413:14 *684:51 0.000144014
11 *413:14 *705:18 0
*RES
1 *1298:X *413:8 40.2728 
2 *413:8 *413:14 34.8544 
3 *413:14 *846:A0 20 
*END

*D_NET *414 0.00516504
*CONN
*I *845:A0 I *D sg13g2_mux2_1
*I *1297:X O *D sg13g2_buf_1
*CAP
1 *845:A0 0
2 *1297:X 0.000604322
3 *414:10 0.000604322
4 *414:10 *1045:A1 0.00140798
5 *414:10 *582:12 0.000112435
6 *414:10 *584:51 1.54008e-05
7 *414:10 *586:10 0.000213373
8 *1044:B *414:10 0
9 *157:10 *414:10 0
10 *157:14 *414:10 0
11 *411:18 *414:10 0.0022072
*RES
1 *1297:X *414:10 49.944 
2 *414:10 *845:A0 40 
*END

*D_NET *415 0.00516671
*CONN
*I *844:A0 I *D sg13g2_mux2_1
*I *1296:X O *D sg13g2_buf_1
*CAP
1 *844:A0 0
2 *1296:X 0
3 *415:12 0.00135151
4 *415:6 0.00135151
5 *415:12 *844:S 0
6 *415:12 *1070:CLK 0.000395811
7 *415:12 *505:18 0
8 *415:12 *578:10 0
9 *415:12 *694:19 0.00151381
10 *415:12 *754:10 0
11 *788:S *415:12 0.000554078
12 *1130:D *415:12 0
13 *229:14 *415:12 0
14 *285:46 *415:12 0
*RES
1 *1296:X *415:6 40 
2 *415:6 *415:12 33.64 
3 *415:12 *844:A0 20 
*END

*D_NET *416 0.00143992
*CONN
*I *1061:A0 I *D sg13g2_mux2_1
*I *1295:X O *D sg13g2_buf_1
*CAP
1 *1061:A0 0
2 *1295:X 0.00071996
3 *416:10 0.00071996
4 *416:10 *505:18 0
5 *416:10 *584:51 0
6 *157:20 *416:10 0
7 *411:18 *416:10 0
*RES
1 *1295:X *416:10 46.6704 
2 *416:10 *1061:A0 40 
*END

*D_NET *430 0.0014842
*CONN
*I *827:A I *D sg13g2_inv_1
*I *1294:X O *D sg13g2_buf_1
*CAP
1 *827:A 4.93995e-05
2 *1294:X 0.000285804
3 *430:8 0.000335203
4 *430:8 *437:10 0
5 *430:8 *785:10 0.000718157
6 *823:C *827:A 0
7 *828:B1 *827:A 1.54008e-05
8 *1431:A *827:A 8.02379e-05
*RES
1 *1294:X *430:8 42.8336 
2 *430:8 *827:A 40.4576 
*END

*D_NET *431 0.00169344
*CONN
*I *826:A I *D sg13g2_nand2_1
*I *1293:X O *D sg13g2_buf_1
*CAP
1 *826:A 0.000846718
2 *1293:X 0.000846718
3 *826:A *826:B 0
4 *826:A *1212:A 0
5 *826:A *1252:A 0
6 *826:A *645:8 0
7 *826:A *785:10 0
8 *302:13 *826:A 0
9 *321:11 *826:A 0
*RES
1 *1293:X *826:A 46.6704 
*END

*D_NET *432 0.00164015
*CONN
*I *826:B I *D sg13g2_nand2_1
*I *1292:X O *D sg13g2_buf_1
*CAP
1 *826:B 0.000408986
2 *1292:X 0.000265506
3 *432:10 0.000674492
4 *826:B *645:8 0
5 *826:B *777:10 0
6 *432:10 *645:8 0
7 *432:10 *761:8 0
8 *432:10 *777:10 0.000291165
9 *826:A *826:B 0
10 *1440:A *432:10 0
11 *284:16 *826:B 0
12 *284:16 *432:10 0
13 *304:19 *432:10 0
14 *306:15 *432:10 0
*RES
1 *1292:X *432:10 42.684 
2 *432:10 *826:B 42.86 
*END

*D_NET *435 0.00212354
*CONN
*I *821:A I *D sg13g2_inv_1
*I *1291:X O *D sg13g2_buf_1
*CAP
1 *821:A 6.11419e-05
2 *1291:X 0.000346765
3 *435:12 0.000407907
4 *435:12 *819:A 0.000144992
5 *823:A *821:A 0
6 *100:10 *435:12 0
7 *304:19 *435:12 0
8 *309:11 *435:12 0.000660584
9 *405:12 *435:12 0.000502149
*RES
1 *1291:X *435:12 44.356 
2 *435:12 *821:A 40.4576 
*END

*D_NET *436 0.000930762
*CONN
*I *822:A I *D sg13g2_inv_1
*I *1290:X O *D sg13g2_buf_1
*CAP
1 *822:A 0.00042575
2 *1290:X 0.00042575
3 *822:A *1055:A2 0
4 *822:A *1250:A 0
5 *823:A *822:A 0
6 *104:10 *822:A 0
7 *304:19 *822:A 7.92614e-05
*RES
1 *1290:X *822:A 43.344 
*END

*D_NET *437 0.00816142
*CONN
*I *829:B I *D sg13g2_nand2_1
*I *920:A2 I *D sg13g2_o21ai_1
*I *1348:A I *D sg13g2_buf_1
*I *918:A I *D sg13g2_inv_1
*I *825:A I *D sg13g2_nor2_1
*I *891:B I *D sg13g2_nor3_2
*I *1289:X O *D sg13g2_buf_1
*CAP
1 *829:B 9.39051e-05
2 *920:A2 0
3 *1348:A 0
4 *918:A 0
5 *825:A 0.000105498
6 *891:B 0.000344178
7 *1289:X 0.000914079
8 *437:64 0.000410769
9 *437:49 0.000777154
10 *437:34 0.000647225
11 *437:16 0.000555234
12 *437:12 0.000637811
13 *437:10 0.0012594
14 *891:B *438:14 0
15 *891:B *438:23 0
16 *891:B *668:80 0
17 *891:B *778:27 0
18 *437:10 *1305:A 7.96596e-05
19 *437:10 *438:8 0
20 *437:10 *668:80 0.000213056
21 *437:10 *785:10 0
22 *437:12 *438:14 0
23 *437:12 *668:80 0.000181192
24 *437:34 *438:23 0
25 *828:A1 *437:12 0
26 *830:B1 *829:B 3.24516e-05
27 *832:A *825:A 0
28 *867:C *829:B 4.77425e-05
29 *891:A *891:B 0
30 *920:B1 *437:64 1.54556e-05
31 *920:A1 *437:64 1.54556e-05
32 *1064:S *825:A 0
33 *1089:D *437:64 0
34 *1334:A *437:34 0
35 *1334:A *437:49 0
36 *76:10 *437:49 0
37 *104:10 *437:10 0
38 *104:16 *437:10 0
39 *104:16 *437:12 0
40 *105:8 *437:12 0
41 *105:8 *437:16 0
42 *105:23 *825:A 0
43 *105:23 *891:B 0
44 *105:23 *437:34 0.000144562
45 *105:40 *437:34 0.00033942
46 *105:40 *437:49 0.000576306
47 *105:40 *437:64 1.54008e-05
48 *105:48 *437:64 0
49 *106:27 *437:49 0
50 *111:18 *829:B 0.000143756
51 *113:10 *825:A 0
52 *171:10 *437:64 0.000337302
53 *175:10 *437:49 1.54008e-05
54 *175:10 *437:64 0.000259013
55 *250:16 *437:64 0
56 *303:13 *437:10 0
57 *338:23 *437:10 0
58 *361:14 *437:49 0
59 *398:22 *437:64 0
60 *430:8 *437:10 0
*RES
1 *1289:X *437:10 46.8816 
2 *437:10 *437:12 2.2 
3 *437:12 *437:16 20.7216 
4 *437:16 *891:B 22.6752 
5 *437:16 *825:A 20.8272 
6 *437:12 *437:34 22.6752 
7 *437:34 *918:A 20 
8 *437:34 *437:49 3.608 
9 *437:49 *1348:A 20 
10 *437:49 *437:64 43.828 
11 *437:64 *920:A2 20 
12 *437:10 *829:B 40.8272 
*END

*D_NET *438 0.00321194
*CONN
*I *829:A I *D sg13g2_nand2_1
*I *940:A I *D sg13g2_nor2_1
*I *964:A I *D sg13g2_nor4_1
*I *824:A I *D sg13g2_inv_2
*I *1288:X O *D sg13g2_buf_1
*CAP
1 *829:A 4.99447e-05
2 *940:A 0.000195519
3 *964:A 0
4 *824:A 0
5 *1288:X 0.000187561
6 *438:23 0.000619934
7 *438:14 0.000627849
8 *438:8 0.00044094
9 *940:A *940:B 1.54556e-05
10 *438:14 *668:80 0
11 *438:23 *668:80 0
12 *830:A1 *438:23 0
13 *867:C *829:A 8.00842e-05
14 *891:B *438:14 0
15 *891:B *438:23 0
16 *964:C *438:23 0
17 *1334:A *940:A 0
18 *1334:A *438:23 1.54008e-05
19 *104:16 *438:23 0
20 *105:8 *438:14 0
21 *105:23 *438:23 0
22 *111:18 *438:8 0
23 *111:18 *438:14 0
24 *111:18 *438:23 0
25 *405:12 *438:8 0.000531062
26 *405:12 *438:14 0.000448186
27 *437:10 *438:8 0
28 *437:12 *438:14 0
29 *437:34 *438:23 0
*RES
1 *1288:X *438:8 42.2 
2 *438:8 *438:14 22.2352 
3 *438:14 *824:A 20 
4 *438:14 *438:23 3.7136 
5 *438:23 *964:A 20 
6 *438:23 *940:A 21.5664 
7 *438:8 *829:A 40.4576 
*END

*D_NET *470 0.00383873
*CONN
*I *858:A0 I *D sg13g2_mux2_1
*I *1287:X O *D sg13g2_buf_1
*CAP
1 *858:A0 0.000423237
2 *1287:X 0.000759039
3 *470:8 0.00118228
4 *858:A0 tl_o[53] 0
5 *858:A0 *1058:S 0.000181594
6 *858:A0 *530:27 0.000712013
7 *858:A0 *531:30 0
8 *470:8 *1287:A 0
9 *470:8 *530:12 0
10 *470:8 *530:27 0
11 *470:8 *605:14 0
12 *470:8 *613:10 0
13 *470:8 *741:10 7.93378e-05
14 *470:8 *745:10 0.000501238
15 *20:10 *858:A0 0
16 *276:13 *470:8 0
*RES
1 *1287:X *470:8 46.1864 
2 *470:8 *858:A0 44.7344 
*END

*D_NET *471 0.00239485
*CONN
*I *857:A0 I *D sg13g2_mux2_1
*I *1286:X O *D sg13g2_buf_1
*CAP
1 *857:A0 0.000777808
2 *1286:X 0.000777808
3 *857:A0 *851:S 0.000339267
4 *857:A0 *857:A1 1.54556e-05
5 *857:A0 *1116:RESET_B 0
6 *857:A0 *1285:A 0
7 *857:A0 *1286:A 0.000177164
8 *857:A0 *524:18 0.000307343
9 *1120:D *857:A0 0
10 *1122:D *857:A0 0
11 *22:12 *857:A0 0
12 *330:12 *857:A0 0
*RES
1 *1286:X *857:A0 46.8728 
*END

*D_NET *472 0.000454609
*CONN
*I *856:A0 I *D sg13g2_mux2_1
*I *1285:X O *D sg13g2_buf_1
*CAP
1 *856:A0 0
2 *1285:X 0.00018712
3 *472:10 0.00018712
4 *472:10 *524:26 0
5 *472:10 *750:10 0
6 *1414:A *472:10 8.03692e-05
7 *267:14 *472:10 0
*RES
1 *1285:X *472:10 41.8128 
2 *472:10 *856:A0 40 
*END

*D_NET *473 0.00147917
*CONN
*I *855:A0 I *D sg13g2_mux2_1
*I *1284:X O *D sg13g2_buf_1
*CAP
1 *855:A0 0
2 *1284:X 0.000299721
3 *473:10 0.000299721
4 *473:10 *1284:A 0
5 *473:10 *530:12 8.02924e-05
6 *473:10 *745:10 0.000345274
7 *372:22 *473:10 0.000454162
*RES
1 *1284:X *473:10 43.2912 
2 *473:10 *855:A0 40 
*END

*D_NET *474 0.000447109
*CONN
*I *854:A0 I *D sg13g2_mux2_1
*I *1283:X O *D sg13g2_buf_1
*CAP
1 *854:A0 0
2 *1283:X 0.00018337
3 *474:10 0.00018337
4 *474:10 *854:S 0
5 *474:10 *732:8 0
6 *1411:A *474:10 8.03692e-05
*RES
1 *1283:X *474:10 41.8128 
2 *474:10 *854:A0 40 
*END

*D_NET *475 0.00491245
*CONN
*I *853:A0 I *D sg13g2_mux2_1
*I *1282:X O *D sg13g2_buf_1
*CAP
1 *853:A0 0
2 *1282:X 0.00139145
3 *475:20 0.000452134
4 *475:14 0.00184358
5 *475:14 *818:A 0
6 *475:14 *1216:A 0
7 *475:14 *1291:A 0.00024211
8 *475:14 *530:12 0
9 *475:14 *530:27 0
10 *475:14 *532:16 0
11 *475:14 *540:10 8.01118e-05
12 *475:14 *608:8 0.000177372
13 *475:14 *751:18 0
14 *475:20 *537:27 0
15 *475:20 *703:25 0
16 *475:20 *730:8 0
17 *288:8 *475:14 1.54556e-05
18 *333:33 *475:14 0
19 *372:8 *475:14 7.93444e-05
20 *372:22 *475:14 0.000630901
*RES
1 *1282:X *475:14 32.1352 
2 *475:14 *475:20 43.6784 
3 *475:20 *853:A0 20 
*END

*D_NET *476 0.000529865
*CONN
*I *852:A0 I *D sg13g2_mux2_1
*I *1281:X O *D sg13g2_buf_1
*CAP
1 *852:A0 7.98149e-05
2 *1281:X 0.00014501
3 *476:8 0.000224824
4 *852:A0 *852:A1 0
5 *852:A0 *852:S 8.0216e-05
6 *852:A0 *524:18 0
*RES
1 *1281:X *476:8 41.144 
2 *476:8 *852:A0 40.7568 
*END

*D_NET *477 0.00116719
*CONN
*I *1058:A0 I *D sg13g2_mux2_1
*I *1280:X O *D sg13g2_buf_1
*CAP
1 *1058:A0 0
2 *1280:X 0.000426672
3 *477:12 0.000426672
4 *477:12 tl_o[55] 0
5 *477:12 *479:8 0
6 *477:12 *540:10 0
7 *477:12 *605:14 8.00842e-05
8 *477:12 *740:10 0.000233757
9 *477:12 *751:18 0
10 *269:11 *477:12 0
*RES
1 *1280:X *477:12 43.8016 
2 *477:12 *1058:A0 40 
*END

*D_NET *255 0.00154971
*CONN
*I *1279:A I *D sg13g2_buf_1
*I *935:A I *D sg13g2_inv_1
*I *1076:Q O *D sg13g2_dfrbpq_1
*CAP
1 *1279:A 0
2 *935:A 0.000204028
3 *1076:Q 0.000774857
4 *255:24 0.000570829
5 *935:A *720:6 0
6 *255:24 *930:A 0
7 *163:8 *255:24 0
*RES
1 *1076:Q *935:A 41.9184 
2 *1076:Q *255:24 45.72 
3 *255:24 *1279:A 40 
*END

*D_NET *256 0.000670877
*CONN
*I *1278:A I *D sg13g2_buf_1
*I *930:A I *D sg13g2_inv_1
*I *1077:Q O *D sg13g2_dfrbpq_1
*CAP
1 *1278:A 0.000125584
2 *930:A 0.000209855
3 *1077:Q 0
4 *256:4 0.000335439
5 *255:24 *930:A 0
*RES
1 *1077:Q *256:4 20 
2 *256:4 *930:A 21.7512 
3 *256:4 *1278:A 21.3552 
*END

*D_NET *257 0.00248633
*CONN
*I *1277:A I *D sg13g2_buf_1
*I *925:A I *D sg13g2_inv_1
*I *1078:Q O *D sg13g2_dfrbpq_1
*CAP
1 *1277:A 0.000332822
2 *925:A 0
3 *1078:Q 0.000434616
4 *257:16 0.000365769
5 *257:12 0.000467564
6 *1277:A *968:A 0.00024211
7 *257:12 *848:A1 0
8 *257:12 *363:12 0.000111683
9 *257:12 *399:31 0.000401086
10 *257:12 *657:55 0
11 *257:16 *1309:A 0
12 *931:A1 *257:12 0
13 *936:A2 *257:12 0
14 *971:A1 *257:12 0.000130677
15 *1418:A *257:12 0
16 *1427:A *1277:A 0
*RES
1 *1078:Q *257:12 44.1184 
2 *257:12 *257:16 20.2728 
3 *257:16 *925:A 20 
4 *257:16 *1277:A 23.2296 
*END

*D_NET *258 0.00204276
*CONN
*I *1276:A I *D sg13g2_buf_1
*I *917:A I *D sg13g2_inv_1
*I *1079:Q O *D sg13g2_dfrbpq_1
*CAP
1 *1276:A 0.000175099
2 *917:A 0.000638081
3 *1079:Q 0
4 *258:6 0.000813181
5 *917:A *1075:RESET_B 0
6 *917:A *266:8 0
7 *917:A *720:47 0.000288238
8 *917:A *765:24 0.00012816
9 *1276:A *266:8 0
10 *936:A2 *917:A 0
11 *49:10 *917:A 0
12 *165:12 *917:A 0
*RES
1 *1079:Q *258:6 40 
2 *258:6 *917:A 46.3272 
3 *258:6 *1276:A 41.8128 
*END

*D_NET *263 0.000981095
*CONN
*I *1275:A I *D sg13g2_buf_1
*I *959:A I *D sg13g2_inv_1
*I *1072:Q O *D sg13g2_dfrbpq_1
*CAP
1 *1275:A 0.000227085
2 *959:A 0.000151323
3 *1072:Q 0
4 *263:4 0.000378408
5 *959:A *848:S 4.77425e-05
6 *1275:A *848:S 0
7 *1074:D *1275:A 0
8 *182:16 *959:A 8.03091e-05
9 *182:16 *1275:A 9.62275e-05
*RES
1 *1072:Q *263:4 20 
2 *263:4 *959:A 21.452 
3 *263:4 *1275:A 22.1296 
*END

*D_NET *264 0.000514176
*CONN
*I *1273:A I *D sg13g2_buf_1
*I *953:A I *D sg13g2_inv_1
*I *1073:Q O *D sg13g2_dfrbpq_1
*CAP
1 *1273:A 0
2 *953:A 0.00020209
3 *1073:Q 4.72978e-05
4 *264:6 0.000249388
5 *953:A cio_gpio_o[0] 0
6 *953:A cio_gpio_o[2] 0
7 *953:A *1271:A 0
8 *953:A *1308:A 0
9 *182:31 *953:A 1.54008e-05
*RES
1 *1073:Q *264:6 20.5104 
2 *264:6 *953:A 21.7512 
3 *264:6 *1273:A 20 
*END

*D_NET *265 0.002485
*CONN
*I *948:A I *D sg13g2_inv_1
*I *1271:A I *D sg13g2_buf_1
*I *1074:Q O *D sg13g2_dfrbpq_1
*CAP
1 *948:A 4.72978e-05
2 *1271:A 0.000190006
3 *1074:Q 0.00017799
4 *265:14 0.000693799
5 *265:8 0.000634484
6 *948:A cio_gpio_o[2] 0
7 *1271:A *848:A0 0
8 *1271:A *1308:A 0
9 *1271:A *1416:A 0
10 *1271:A *399:10 0
11 *1271:A *402:6 0
12 *265:8 *1387:A 0
13 *265:8 *717:12 0
14 *265:14 cio_gpio_o[2] 0
15 *265:14 *849:A0 0
16 *265:14 *966:A 0.000273562
17 *265:14 *1074:CLK 0
18 *265:14 *402:18 0
19 *953:A *1271:A 0
20 *1125:D *265:14 0.000467858
21 *182:31 *1271:A 0
*RES
1 *1074:Q *265:8 41.3552 
2 *265:8 *265:14 24.268 
3 *265:14 *1271:A 21.7512 
4 *265:14 *948:A 20.5104 
*END

*D_NET *266 0.00228954
*CONN
*I *1270:A I *D sg13g2_buf_1
*I *942:A I *D sg13g2_inv_1
*I *1075:Q O *D sg13g2_dfrbpq_1
*CAP
1 *1270:A 0.000128163
2 *942:A 0.000580622
3 *1075:Q 0.000443843
4 *266:8 0.000896302
5 *942:A *1079:CLK 0.000240608
6 *942:A *1390:A 0
7 *942:A *720:47 0
8 *917:A *266:8 0
9 *1276:A *266:8 0
*RES
1 *1075:Q *266:8 43.256 
2 *266:8 *942:A 45.2096 
3 *1075:Q *1270:A 41.1968 
*END

*D_NET *281 0.00130155
*CONN
*I *1268:A I *D sg13g2_buf_1
*I *805:Y O *D sg13g2_a21oi_1
*CAP
1 *1268:A 0.000586775
2 *805:Y 0.000586775
3 *1268:A *801:A 0
4 *1268:A *1422:A 0
5 *1268:A *283:14 0
6 *803:A *1268:A 0
7 *805:A1 *1268:A 4.77425e-05
8 *805:B1 *1268:A 8.02598e-05
9 *86:8 *1268:A 0
*RES
1 *805:Y *1268:A 45.5616 
*END

*D_NET *282 0.00586811
*CONN
*I *1266:A I *D sg13g2_buf_1
*I *800:Y O *D sg13g2_a21oi_1
*CAP
1 *1266:A 0
2 *800:Y 0.00134482
3 *282:20 0.000425617
4 *282:12 0.00177044
5 *282:12 *796:A 0
6 *282:12 *802:A2 0
7 *282:12 *834:A 0
8 *282:12 *1314:A 0
9 *282:12 *366:44 0
10 *282:12 *395:20 3.23417e-05
11 *282:12 *395:30 0.000824938
12 *282:12 *657:12 0.000760389
13 *282:12 *685:77 0
14 *282:20 *1073:RESET_B 0
15 *282:20 *1398:A 8.03692e-05
16 *282:20 *346:38 0.000171916
17 *282:20 *395:20 0.000409644
18 *282:20 *396:10 4.76345e-05
19 *800:B1 *282:12 0
20 *1140:RESET_B *282:12 0
21 *270:29 *282:12 0
*RES
1 *800:Y *282:12 32.6808 
2 *282:12 *282:20 43.9248 
3 *282:20 *1266:A 20 
*END

*D_NET *283 0.0062539
*CONN
*I *1264:A I *D sg13g2_buf_1
*I *795:Y O *D sg13g2_a21oi_1
*CAP
1 *1264:A 0
2 *795:Y 0.00268668
3 *283:14 0.00268668
4 *283:14 intr_gpio_o[0] 0
5 *283:14 *794:A 0
6 *283:14 *804:A 0.000880547
7 *283:14 *1134:CLK 0
8 *283:14 *1137:RESET_B 0
9 *283:14 *1137:CLK 0
10 *283:14 *1343:A 0
11 *283:14 *353:24 0
12 *283:14 *603:14 0
13 *283:14 *603:53 0
14 *283:14 *680:75 0
15 *283:14 *762:10 0
16 *795:B1 *283:14 0
17 *804:C *283:14 0
18 *805:A1 *283:14 0
19 *805:B1 *283:14 0
20 *1147:D *283:14 0
21 *1268:A *283:14 0
22 *271:25 *283:14 0
*RES
1 *795:Y *283:14 45.1768 
2 *283:14 *1264:A 20 
*END

*D_NET *284 0.00763275
*CONN
*I *1263:A I *D sg13g2_buf_1
*I *1036:Y O *D sg13g2_a21oi_1
*CAP
1 *1263:A 0
2 *1036:Y 0
3 *284:16 0.00286201
4 *284:6 0.00286201
5 *284:16 *826:B 0
6 *284:16 *946:A 0
7 *284:16 *1258:A 4.78359e-05
8 *284:16 *1259:A 0
9 *284:16 *1261:A 0
10 *284:16 *323:9 0
11 *284:16 *350:10 0
12 *284:16 *350:16 0
13 *284:16 *398:8 0.000274479
14 *284:16 *407:12 0
15 *284:16 *432:10 0
16 *284:16 *486:8 0
17 *284:16 *488:6 0
18 *284:16 *609:10 0
19 *284:16 *642:12 7.98971e-05
20 *284:16 *643:10 0
21 *284:16 *660:58 0.000288713
22 *284:16 *752:10 0
23 *284:16 *761:8 0
24 *284:16 *777:10 0
25 *284:16 *778:8 0
26 *74:10 *284:16 0
27 *76:10 *284:16 0.00114208
28 *116:35 *284:16 0
29 *191:8 *284:16 0
30 *272:28 *284:16 7.57164e-05
*RES
1 *1036:Y *284:6 40 
2 *284:6 *284:16 46.3824 
3 *284:16 *1263:A 20 
*END

*D_NET *479 0.00645991
*CONN
*I *1262:A I *D sg13g2_buf_1
*I *819:A I *D sg13g2_nand2_2
*I *1055:A1 I *D sg13g2_o21ai_1
*I *818:Y O *D sg13g2_inv_1
*CAP
1 *1262:A 2.77263e-05
2 *819:A 0.000197333
3 *1055:A1 0.000271583
4 *818:Y 0.000245785
5 *479:18 0.00143321
6 *479:12 0.00184768
7 *479:8 0.00110145
8 *1055:A1 *1055:A2 9.56658e-05
9 *479:8 *531:30 0
10 *479:8 *740:10 0
11 *479:12 *1212:A 0
12 *479:12 *1218:A 8.00842e-05
13 *479:12 *605:14 0.000435897
14 *479:12 *740:10 0
15 *479:12 *751:18 0
16 *479:18 *1212:A 0
17 *819:B *819:A 0.000274491
18 *1318:A *479:18 0.000176405
19 *100:24 *1055:A1 0
20 *274:9 *479:12 0
21 *274:23 *479:8 0
22 *304:19 *479:18 0
23 *305:9 *479:12 0
24 *305:9 *479:18 0
25 *336:11 *479:12 0
26 *347:10 *479:18 0
27 *377:10 *479:18 8.00954e-05
28 *379:10 *479:18 4.7526e-05
29 *435:12 *819:A 0.000144992
30 *477:12 *479:8 0
*RES
1 *818:Y *479:8 41.7776 
2 *479:8 *479:12 27.1104 
3 *479:12 *479:18 27.04 
4 *479:18 *1055:A1 42.0504 
5 *479:18 *819:A 41.8656 
6 *479:12 *1262:A 20.2992 
*END

*D_NET *486 0.00542148
*CONN
*I *958:A I *D sg13g2_inv_1
*I *1261:A I *D sg13g2_buf_1
*I *1082:Q O *D sg13g2_dfrbpq_1
*CAP
1 *958:A 0
2 *1261:A 0.00086202
3 *1082:Q 0.000211057
4 *486:23 0.000517041
5 *486:8 0.00159012
6 *1261:A *1258:A 4.78359e-05
7 *1261:A *489:8 0
8 *1261:A *715:10 0
9 *1261:A *715:36 0
10 *1261:A *777:10 0.000208747
11 *486:8 *715:23 0
12 *486:23 *715:23 0
13 *52:10 *486:23 0.000234128
14 *156:42 *486:23 0
15 *176:8 *486:23 0.00151288
16 *180:8 *486:23 0.000237656
17 *191:23 *486:23 0
18 *284:16 *1261:A 0
19 *284:16 *486:8 0
20 *398:10 *486:23 0
*RES
1 *1082:Q *486:8 21.9184 
2 *486:8 *1261:A 26.7408 
3 *486:8 *486:23 46.908 
4 *486:23 *958:A 20 
*END

*D_NET *487 0.00122739
*CONN
*I *952:A I *D sg13g2_inv_1
*I *1260:A I *D sg13g2_buf_1
*I *1083:Q O *D sg13g2_dfrbpq_1
*CAP
1 *952:A 5.02227e-05
2 *1260:A 0.000399076
3 *1083:Q 4.32204e-05
4 *487:6 0.000492519
5 *1260:A *946:A 0
6 *1260:A *1259:A 0.000242352
7 *1260:A *643:10 0
*RES
1 *1083:Q *487:6 20.5104 
2 *487:6 *1260:A 23.9688 
3 *487:6 *952:A 20.4576 
*END

*D_NET *488 0.000800552
*CONN
*I *1259:A I *D sg13g2_buf_1
*I *946:A I *D sg13g2_inv_1
*I *1084:Q O *D sg13g2_dfrbpq_1
*CAP
1 *1259:A 0.000176023
2 *946:A 5.57794e-05
3 *1084:Q 4.72978e-05
4 *488:6 0.0002791
5 *1260:A *946:A 0
6 *1260:A *1259:A 0.000242352
7 *284:16 *946:A 0
8 *284:16 *1259:A 0
9 *284:16 *488:6 0
*RES
1 *1084:Q *488:6 20.5104 
2 *488:6 *946:A 20.4576 
3 *488:6 *1259:A 21.892 
*END

*D_NET *489 0.00223563
*CONN
*I *1258:A I *D sg13g2_buf_1
*I *939:A I *D sg13g2_inv_1
*I *1085:Q O *D sg13g2_dfrbpq_1
*CAP
1 *1258:A 9.48751e-05
2 *939:A 0.000400704
3 *1085:Q 0.000177514
4 *489:8 0.000673093
5 *939:A *1089:CLK 0
6 *939:A *660:58 7.98201e-05
7 *939:A *715:36 0
8 *1261:A *1258:A 4.78359e-05
9 *1261:A *489:8 0
10 *107:8 *939:A 0.000501495
11 *107:8 *1258:A 0.000212456
12 *284:16 *1258:A 4.78359e-05
13 *304:19 *489:8 0
*RES
1 *1085:Q *489:8 41.5664 
2 *489:8 *939:A 44.3472 
3 *489:8 *1258:A 41.2056 
*END

*D_NET *490 0.00240053
*CONN
*I *1257:A I *D sg13g2_buf_1
*I *1053:B I *D sg13g2_nand2_1
*I *1080:Q O *D sg13g2_dfrbpq_1
*CAP
1 *1257:A 0.000395725
2 *1053:B 0.000724455
3 *1080:Q 0
4 *490:6 0.00112018
5 *1053:B *868:A 0
6 *1053:B *1067:CLK 0
7 *1053:B *703:38 0
8 *1257:A *731:8 0
9 *1200:A *1053:B 0
10 *1409:A *1257:A 8.00842e-05
11 *67:10 *1053:B 0
12 *68:12 *1257:A 0
13 *100:32 *1053:B 0
14 *120:8 *1257:A 0
15 *121:8 *1053:B 0
16 *338:9 *1257:A 8.00842e-05
*RES
1 *1080:Q *490:6 40 
2 *490:6 *1053:B 46.7496 
3 *490:6 *1257:A 43.5024 
*END

*D_NET *491 0.00190476
*CONN
*I *1256:A I *D sg13g2_buf_1
*I *934:A I *D sg13g2_inv_1
*I *1086:Q O *D sg13g2_dfrbpq_1
*CAP
1 *1256:A 0.000307212
2 *934:A 0.000473528
3 *1086:Q 8.35157e-05
4 *491:8 0.000864256
5 *934:A *493:10 0
6 *934:A *716:40 0.000176247
7 *1256:A *493:10 0
*RES
1 *1086:Q *491:8 40.8272 
2 *491:8 *934:A 44.268 
3 *491:8 *1256:A 43.2384 
*END

*D_NET *492 0.00151786
*CONN
*I *929:A I *D sg13g2_inv_1
*I *1255:A I *D sg13g2_buf_1
*I *1087:Q O *D sg13g2_dfrbpq_1
*CAP
1 *929:A 2.77263e-05
2 *1255:A 0.000369205
3 *1087:Q 0.000361997
4 *492:8 0.000758929
5 *929:A *1254:A 0
6 *1255:A *1088:CLK 0
7 *1255:A *493:10 0
8 *1255:A *638:8 0
9 *492:8 *1254:A 0
10 *492:8 *638:8 0
*RES
1 *1087:Q *492:8 23.344 
2 *492:8 *1255:A 23.5288 
3 *492:8 *929:A 20.2992 
*END

*D_NET *493 0.00335972
*CONN
*I *1254:A I *D sg13g2_buf_1
*I *924:A I *D sg13g2_inv_1
*I *1088:Q O *D sg13g2_dfrbpq_1
*CAP
1 *1254:A 0.000349606
2 *924:A 4.9824e-05
3 *1088:Q 0.0012831
4 *493:10 0.000983322
5 *924:A *609:91 7.98619e-05
6 *1254:A *638:8 0.000436713
7 *493:10 tl_o[21] 0
8 *493:10 *638:8 0.00017729
9 *929:A *1254:A 0
10 *934:A *493:10 0
11 *1255:A *493:10 0
12 *1256:A *493:10 0
13 *166:8 *493:10 0
14 *492:8 *1254:A 0
*RES
1 *1088:Q *493:10 47.964 
2 *493:10 *924:A 40.4576 
3 *1088:Q *1254:A 43.5816 
*END

*D_NET *494 0.00374223
*CONN
*I *1252:A I *D sg13g2_buf_1
*I *916:A I *D sg13g2_inv_1
*I *1089:Q O *D sg13g2_dfrbpq_1
*CAP
1 *1252:A 0.000468508
2 *916:A 0.000466645
3 *1089:Q 3.70162e-05
4 *494:8 0.000972169
5 *916:A *609:16 0.000209769
6 *916:A *660:58 0
7 *1252:A *642:12 0.000394151
8 *1252:A *761:8 0
9 *826:A *1252:A 0
10 *107:8 *916:A 0
11 *107:8 *1252:A 0
12 *170:8 *916:A 0
13 *407:12 *916:A 0.000980593
14 *407:12 *1252:A 0.000213373
*RES
1 *1089:Q *494:8 40.2728 
2 *494:8 *916:A 45.0864 
3 *494:8 *1252:A 44.4792 
*END

*D_NET *495 0.00265067
*CONN
*I *914:A1 I *D sg13g2_a22oi_1
*I *1251:A I *D sg13g2_buf_1
*I *1090:Q O *D sg13g2_dfrbpq_1
*CAP
1 *914:A1 0.000156249
2 *1251:A 0.000445433
3 *1090:Q 0.000928278
4 *495:26 0.000639095
5 *914:A1 *675:57 0.000242137
6 *1251:A tl_o[24] 0
7 *1251:A *908:A1 3.8463e-05
8 *1251:A *1248:A 0
9 *1251:A *634:12 0
10 *1251:A *704:8 0
11 *1251:A *704:37 0
12 *495:26 *910:B2 0
13 *495:26 *679:10 0
14 *495:26 *783:24 0
15 *43:10 *1251:A 0.000153277
16 *150:10 *914:A1 0
17 *308:32 *1251:A 0
18 *366:26 *914:A1 4.77425e-05
*RES
1 *1090:Q *1251:A 43.9688 
2 *1090:Q *495:26 44.7344 
3 *495:26 *914:A1 41.3816 
*END

*D_NET *496 0.00595613
*CONN
*I *1250:A I *D sg13g2_buf_1
*I *912:A1 I *D sg13g2_a22oi_1
*I *1091:Q O *D sg13g2_dfrbpq_1
*CAP
1 *1250:A 0.000818405
2 *912:A1 0.000792382
3 *1091:Q 9.56744e-05
4 *496:8 0.00170646
5 *912:A1 *783:22 0
6 *912:A1 *784:8 0.000398157
7 *1250:A *1055:A2 0
8 *1250:A *636:24 4.71353e-05
9 *1250:A *778:27 0
10 *822:A *1250:A 0
11 *891:C *496:8 0
12 *1054:B *1250:A 0.00039332
13 *100:32 *1250:A 0
14 *101:10 *1250:A 0.000183097
15 *101:14 *1250:A 0
16 *119:10 *1250:A 0
17 *124:19 *1250:A 0.000106064
18 *138:8 *912:A1 0
19 *138:8 *1250:A 0
20 *156:10 *1250:A 0
21 *308:10 *1250:A 0.00018387
22 *308:12 *1250:A 0.000345666
23 *308:18 *1250:A 0.000885893
24 *308:18 *496:8 0
25 *350:16 *912:A1 0
26 *405:12 *1250:A 0
*RES
1 *1091:Q *496:8 40.6424 
2 *496:8 *912:A1 46.8552 
3 *496:8 *1250:A 49.152 
*END

*D_NET *497 0.00393893
*CONN
*I *910:A1 I *D sg13g2_a22oi_1
*I *1249:A I *D sg13g2_buf_1
*I *1092:Q O *D sg13g2_dfrbpq_1
*CAP
1 *910:A1 0
2 *1249:A 0.000635756
3 *1092:Q 0.000752827
4 *497:12 0.00074689
5 *497:8 0.000863961
6 *1249:A *911:A 9.26662e-06
7 *1249:A *1306:A 0
8 *1249:A *499:14 3.86039e-05
9 *1249:A *679:22 0.00020977
10 *497:8 *1353:A 0
11 *497:8 *668:14 0
12 *843:A0 *497:12 0.000144942
13 *910:B1 *1249:A 3.15716e-05
14 *910:B1 *497:12 0.000209637
15 *911:B *1249:A 0.000295709
16 *127:18 *1249:A 0
17 *138:14 *497:8 0
18 *272:14 *1249:A 0
19 *272:14 *497:12 0
*RES
1 *1092:Q *497:8 45.7904 
2 *497:8 *497:12 21.1968 
3 *497:12 *1249:A 25.676 
4 *497:12 *910:A1 20 
*END

*D_NET *498 0.00334762
*CONN
*I *908:A1 I *D sg13g2_a22oi_1
*I *1248:A I *D sg13g2_buf_1
*I *1093:Q O *D sg13g2_dfrbpq_1
*CAP
1 *908:A1 0.000395448
2 *1248:A 0.000328115
3 *1093:Q 0.000471072
4 *498:8 0.00119463
5 *908:A1 *1372:A 0
6 *1248:A *1372:A 0
7 *1248:A *679:10 0
8 *498:8 *679:10 0
9 *909:B *908:A1 0
10 *1251:A *908:A1 3.8463e-05
11 *1251:A *1248:A 0
12 *43:10 *908:A1 0
13 *43:10 *1248:A 0.000129095
14 *43:10 *498:8 0.000212871
15 *126:18 *498:8 0
16 *297:10 *1248:A 0
17 *297:23 *498:8 0.000182023
18 *297:34 *498:8 0.000395897
*RES
1 *1093:Q *498:8 44.9456 
2 *498:8 *1248:A 42.8424 
3 *498:8 *908:A1 43.432 
*END

*D_NET *499 0.00366841
*CONN
*I *1247:A I *D sg13g2_buf_1
*I *906:A1 I *D sg13g2_a22oi_1
*I *1094:Q O *D sg13g2_dfrbpq_1
*CAP
1 *1247:A 0
2 *906:A1 0.000393284
3 *1094:Q 0.0010896
4 *499:14 0.00148289
5 *906:A1 *906:A2 0.00012816
6 *906:A1 *500:8 0
7 *906:A1 *500:20 0.000232421
8 *906:A1 *683:83 0.000126358
9 *499:14 tl_o[26] 0
10 *499:14 *1306:A 0
11 *499:14 *500:8 0
12 *499:14 *680:238 0
13 *499:14 *759:12 0
14 *1249:A *499:14 3.86039e-05
15 *127:18 *499:14 0
16 *146:10 *906:A1 0.000177093
17 *351:54 *906:A1 0
*RES
1 *1094:Q *499:14 49.196 
2 *499:14 *906:A1 44.004 
3 *499:14 *1247:A 40 
*END

*D_NET *500 0.00172886
*CONN
*I *1246:A I *D sg13g2_buf_1
*I *904:A1 I *D sg13g2_a22oi_1
*I *1095:Q O *D sg13g2_dfrbpq_1
*CAP
1 *1246:A 0
2 *904:A1 0
3 *1095:Q 0.000251495
4 *500:20 0.000163716
5 *500:12 0.000298999
6 *500:8 0.000386778
7 *500:8 *1095:CLK 0
8 *500:8 *701:10 0
9 *500:12 *630:22 0.000209637
10 *500:12 *631:14 0
11 *500:20 *631:14 0
12 *500:20 *683:83 7.48178e-05
13 *904:B1 *500:20 1.54008e-05
14 *906:B2 *500:12 4.78524e-05
15 *906:A1 *500:8 0
16 *906:A1 *500:20 0.000232421
17 *145:10 *500:20 0
18 *319:57 *500:12 0
19 *351:54 *500:20 4.77425e-05
20 *499:14 *500:8 0
*RES
1 *1095:Q *500:8 42.6224 
2 *500:8 *500:12 21.1968 
3 *500:12 *500:20 41.628 
4 *500:20 *904:A1 20 
5 *500:12 *1246:A 20 
*END

*D_NET *502 0.00259102
*CONN
*I *1245:A I *D sg13g2_buf_1
*I *902:A1 I *D sg13g2_a22oi_1
*I *1096:Q O *D sg13g2_dfrbpq_1
*CAP
1 *1245:A 4.5539e-05
2 *902:A1 0.000126333
3 *1096:Q 0.000330203
4 *502:10 0.000502075
5 *902:A1 *1101:CLK 0.000340704
6 *902:A1 *683:10 0.00012816
7 *1245:A *1096:CLK 4.77425e-05
8 *1245:A *680:204 0
9 *502:10 *1101:CLK 7.51285e-05
10 *502:10 *1353:A 0.000177032
11 *502:10 *683:10 0.000690245
12 *502:10 *695:30 0
13 *113:26 *502:10 0
14 *127:45 *902:A1 4.77425e-05
15 *143:8 *502:10 0
16 *267:34 *502:10 0
17 *352:28 *1245:A 8.01118e-05
*RES
1 *1096:Q *502:10 43.8456 
2 *502:10 *902:A1 41.628 
3 *502:10 *1245:A 40.4576 
*END

*D_NET *503 0.00291006
*CONN
*I *900:A1 I *D sg13g2_a22oi_1
*I *1244:A I *D sg13g2_buf_1
*I *1097:Q O *D sg13g2_dfrbpq_1
*CAP
1 *900:A1 0
2 *1244:A 0.000238259
3 *1097:Q 0.000266647
4 *503:14 0.000260113
5 *503:10 0.0002885
6 *1244:A *680:204 0
7 *1244:A *695:24 0.000176731
8 *503:10 *683:28 0.00037214
9 *503:10 *683:30 0.00023464
10 *503:14 *695:24 3.23417e-05
11 *900:B1 *1244:A 4.77425e-05
12 *900:B1 *503:14 4.77425e-05
13 *900:B2 *1244:A 0
14 *113:26 *503:10 0.000767865
15 *267:34 *503:10 0
16 *272:14 *503:10 0.000177339
*RES
1 *1097:Q *503:10 44.0568 
2 *503:10 *503:14 20.2728 
3 *503:14 *1244:A 22.1384 
4 *503:14 *900:A1 20 
*END

*D_NET *504 0.00266161
*CONN
*I *1243:A I *D sg13g2_buf_1
*I *898:A1 I *D sg13g2_a22oi_1
*I *1098:Q O *D sg13g2_dfrbpq_1
*CAP
1 *1243:A 0.000377833
2 *898:A1 0.000512857
3 *1098:Q 0.000344269
4 *504:10 0.00089069
5 *504:8 0.000344269
6 *898:A1 *1098:CLK 0
7 *898:A1 *682:20 0
8 *898:A1 *682:42 0
9 *1243:A tl_o[32] 0
10 *1243:A tl_o[35] 0
11 *1243:A *1098:CLK 0.000176274
12 *1243:A *683:83 0
13 *504:8 *682:20 0
14 *892:B2 *1243:A 0
15 *893:B *898:A1 0
16 *899:B *898:A1 1.54205e-05
17 *139:10 *898:A1 0
18 *319:40 *898:A1 0
19 *319:57 *504:8 0
20 *351:54 *504:8 0
*RES
1 *1098:Q *504:8 43.0448 
2 *504:8 *504:10 20 
3 *504:10 *898:A1 24.1712 
4 *504:10 *1243:A 23.4584 
*END

*D_NET *505 0.00810668
*CONN
*I *896:A1 I *D sg13g2_a22oi_1
*I *1242:A I *D sg13g2_buf_1
*I *1099:Q O *D sg13g2_dfrbpq_1
*CAP
1 *896:A1 9.2392e-05
2 *1242:A 0
3 *1099:Q 0.000910354
4 *505:18 0.00194765
5 *505:12 0.00261162
6 *505:10 0.00148192
7 *896:A1 *658:47 0
8 *505:10 *841:S 0
9 *505:10 *666:27 0
10 *505:10 *680:191 0
11 *505:10 *680:204 0
12 *505:12 *896:A2 0
13 *505:12 *683:30 0
14 *505:18 *754:10 0
15 *788:S *505:18 0
16 *894:B1 *896:A1 4.75265e-05
17 *896:B1 *896:A1 0.00014344
18 *1061:A1 *505:18 0
19 *1354:A *505:10 0.000727199
20 *127:45 *505:10 0.000144573
21 *157:20 *505:18 0
22 *230:12 *505:18 0
23 *351:42 *505:10 0
24 *357:6 *896:A1 0
25 *357:10 *505:18 0
26 *406:14 *505:10 0
27 *415:12 *505:18 0
28 *416:10 *505:18 0
*RES
1 *1099:Q *505:10 47.6208 
2 *505:10 *505:12 4.5232 
3 *505:12 *505:18 35.2504 
4 *505:18 *1242:A 20 
5 *505:12 *896:A1 40.8272 
*END

*D_NET *506 0.00303878
*CONN
*I *894:A1 I *D sg13g2_a22oi_1
*I *1241:A I *D sg13g2_buf_1
*I *1100:Q O *D sg13g2_dfrbpq_1
*CAP
1 *894:A1 0
2 *1241:A 0
3 *1100:Q 0.000419616
4 *506:36 0.000343849
5 *506:18 0.000892701
6 *506:10 0.000968468
7 *506:10 *682:33 0
8 *506:10 *682:59 0
9 *506:18 *1362:A 0
10 *506:36 *894:A2 0
11 *506:36 *682:42 0
12 *506:36 *682:50 0.000286322
13 *506:36 *682:59 4.77425e-05
14 *506:36 *683:47 8.00842e-05
15 *898:B1 *506:36 0
16 *272:14 *506:10 0
17 *319:16 *506:36 0
*RES
1 *1100:Q *506:10 40.5984 
2 *506:10 *506:18 48.9672 
3 *506:18 *1241:A 40 
4 *1100:Q *506:36 42.948 
5 *506:36 *894:A1 40 
*END

*D_NET *507 0.00312142
*CONN
*I *892:A1 I *D sg13g2_a22oi_1
*I *1240:A I *D sg13g2_buf_1
*I *1101:Q O *D sg13g2_dfrbpq_1
*CAP
1 *892:A1 0.000156017
2 *1240:A 0
3 *1101:Q 0.000961236
4 *507:12 0.000348145
5 *507:10 0.00115336
6 *892:A1 *1098:CLK 0.000390236
7 *892:A1 *1361:A 0
8 *892:A1 *1362:A 0
9 *507:10 *905:A 0
10 *507:10 *683:64 0
11 *507:10 *683:73 0
12 *507:10 *683:83 0
13 *507:12 *1361:A 0
14 *507:12 *683:83 0
15 *892:B2 *507:12 0
16 *898:B1 *507:10 0
17 *1095:D *507:10 0
18 *1096:D *507:10 0.000112421
19 *319:36 *507:10 0
20 *319:57 *507:12 0
21 *351:42 *507:10 0
*RES
1 *1101:Q *507:10 48.3336 
2 *507:10 *507:12 1.7776 
3 *507:12 *1240:A 40 
4 *507:12 *892:A1 41.8392 
*END

*D_NET *508 0.00289495
*CONN
*I *1239:A I *D sg13g2_buf_1
*I *889:A I *D sg13g2_inv_1
*I *1102:Q O *D sg13g2_dfrbpq_1
*CAP
1 *1239:A 0
2 *889:A 9.29855e-05
3 *1102:Q 0.000550124
4 *508:10 0.00064311
5 *889:A *1341:A 0.000128663
6 *889:A *674:50 5.34469e-05
7 *508:10 tl_o[24] 0.000209807
8 *508:10 *674:50 0.000931789
9 *508:10 *704:23 0.000209807
10 *137:8 *889:A 7.52158e-05
11 *308:72 *889:A 0
12 *308:72 *508:10 0
*RES
1 *1102:Q *508:10 45.5088 
2 *508:10 *889:A 40.9944 
3 *508:10 *1239:A 40 
*END

*D_NET *509 0.00176264
*CONN
*I *887:A I *D sg13g2_inv_1
*I *1238:A I *D sg13g2_buf_1
*I *1103:Q O *D sg13g2_dfrbpq_1
*CAP
1 *887:A 0
2 *1238:A 0.000302121
3 *1103:Q 5.98931e-05
4 *509:23 0.000216784
5 *509:6 0.000578798
6 *1238:A tl_o[26] 0
7 *1238:A *1341:A 0.000112437
8 *1238:A *679:72 0
9 *509:6 tl_o[26] 8.00231e-05
10 *509:6 *1341:A 0.000112349
11 *509:23 *665:12 0
12 *509:23 *679:104 0
13 *1438:A *509:23 0.000112552
14 *308:82 *1238:A 0.000112552
15 *308:82 *509:23 7.51285e-05
*RES
1 *1103:Q *509:6 20.6424 
2 *509:6 *1238:A 22.6048 
3 *509:6 *509:23 41.7864 
4 *509:23 *887:A 20 
*END

*D_NET *510 0.00265541
*CONN
*I *1237:A I *D sg13g2_buf_1
*I *885:A I *D sg13g2_inv_1
*I *1104:Q O *D sg13g2_dfrbpq_1
*CAP
1 *1237:A 0
2 *885:A 0.000684266
3 *1104:Q 2.32816e-05
4 *510:25 0.00010347
5 *510:6 0.000811018
6 *885:A tl_o[36] 0
7 *885:A tl_o[43] 0
8 *885:A tl_o[44] 0.000857659
9 *885:A *875:A 0
10 *885:A *1231:A 0
11 *885:A *1232:A 0
12 *885:A *671:12 0
13 *510:6 tl_o[43] 4.77534e-05
14 *510:6 tl_o[44] 0
15 *510:25 tl_o[36] 4.77537e-05
16 *510:25 tl_o[43] 8.02105e-05
17 *135:10 *885:A 0
*RES
1 *1104:Q *510:6 20.2728 
2 *510:6 *885:A 26.2568 
3 *510:6 *510:25 40.968 
4 *510:25 *1237:A 20 
*END

*D_NET *511 0.00100757
*CONN
*I *1236:A I *D sg13g2_buf_1
*I *883:A I *D sg13g2_inv_1
*I *1105:Q O *D sg13g2_dfrbpq_1
*CAP
1 *1236:A 0
2 *883:A 0
3 *1105:Q 0.000235058
4 *511:16 0.000230912
5 *511:8 0.00046597
6 *511:8 tl_o[30] 0
7 *511:8 *515:8 0
8 *511:16 tl_o[30] 0
9 *511:16 *515:8 0
10 *133:8 *511:16 0
11 *134:8 *511:16 7.56299e-05
*RES
1 *1105:Q *511:8 22.1296 
2 *511:8 *511:16 41.8392 
3 *511:16 *883:A 20 
4 *511:8 *1236:A 20 
*END

*D_NET *513 0.000905983
*CONN
*I *1235:A I *D sg13g2_buf_1
*I *881:A I *D sg13g2_inv_1
*I *1106:Q O *D sg13g2_dfrbpq_1
*CAP
1 *1235:A 0
2 *881:A 0.000188938
3 *1106:Q 0
4 *513:21 0.000102798
5 *513:4 0.000291735
6 *881:A tl_o[30] 0.000242203
7 *881:A tl_o[41] 0
8 *513:21 tl_o[30] 0
9 *513:21 tl_o[41] 8.03091e-05
*RES
1 *1106:Q *513:4 20 
2 *513:4 *881:A 21.6808 
3 *513:4 *513:21 40.968 
4 *513:21 *1235:A 20 
*END

*D_NET *514 0.00145299
*CONN
*I *1234:A I *D sg13g2_buf_1
*I *879:A I *D sg13g2_inv_1
*I *1107:Q O *D sg13g2_dfrbpq_1
*CAP
1 *1234:A 0.000312535
2 *879:A 0.00016328
3 *1107:Q 0
4 *514:4 0.000475815
5 *1234:A tl_o[30] 0.000501364
6 *28:10 *1234:A 0
7 *351:54 *1234:A 0
*RES
1 *1107:Q *514:4 20 
2 *514:4 *879:A 21.7072 
3 *514:4 *1234:A 23.5816 
*END

*D_NET *515 0.00156685
*CONN
*I *1233:A I *D sg13g2_buf_1
*I *877:A I *D sg13g2_inv_1
*I *1108:Q O *D sg13g2_dfrbpq_1
*CAP
1 *1233:A 0.000176045
2 *877:A 7.71602e-05
3 *1108:Q 0.0004824
4 *515:8 0.000735606
5 *877:A *1106:CLK 4.78028e-05
6 *1233:A tl_o[30] 0
7 *1233:A tl_o[39] 0
8 *1233:A *1106:CLK 0
9 *515:8 tl_o[30] 0
10 *515:8 *1106:CLK 0
11 *878:A1 *877:A 0
12 *878:A1 *515:8 4.78356e-05
13 *511:8 *515:8 0
14 *511:16 *515:8 0
*RES
1 *1108:Q *515:8 24.3736 
2 *515:8 *877:A 20.7832 
3 *515:8 *1233:A 21.5664 
*END

*D_NET *516 0.00190069
*CONN
*I *875:A I *D sg13g2_inv_1
*I *1232:A I *D sg13g2_buf_1
*I *1109:Q O *D sg13g2_dfrbpq_1
*CAP
1 *875:A 0.000256762
2 *1232:A 0.000313435
3 *1109:Q 0.000332424
4 *516:12 0.000570197
5 *516:10 0.000332424
6 *875:A tl_o[36] 0
7 *875:A *1109:CLK 3.23636e-05
8 *1232:A tl_o[36] 0
9 *1232:A *1109:CLK 1.54556e-05
10 *516:10 tl_o[36] 0
11 *885:A *875:A 0
12 *885:A *1232:A 0
13 *1112:D *516:10 4.76243e-05
14 *135:10 *875:A 0
15 *135:10 *1232:A 0
16 *267:14 *516:10 0
*RES
1 *1109:Q *516:10 42.684 
2 *516:10 *516:12 20 
3 *516:12 *1232:A 22.4728 
4 *516:12 *875:A 21.936 
*END

*D_NET *517 0.00276132
*CONN
*I *1231:A I *D sg13g2_buf_1
*I *873:A I *D sg13g2_inv_1
*I *1110:Q O *D sg13g2_dfrbpq_1
*CAP
1 *1231:A 8.20812e-05
2 *873:A 0
3 *1110:Q 0
4 *517:14 0.000800668
5 *517:4 0.000882749
6 *1231:A *1109:RESET_B 0
7 *1231:A *671:12 0
8 *517:14 *1104:RESET_B 0
9 *517:14 *681:10 0.000209746
10 *874:A1 *517:14 0.000209593
11 *885:A *1231:A 0
12 *1104:D *517:14 1.54008e-05
13 *1438:A *517:14 0
14 *130:8 *517:14 0.000561086
15 *267:34 *517:14 0
*RES
1 *1110:Q *517:4 20 
2 *517:4 *517:14 47.0224 
3 *517:14 *873:A 20 
4 *517:4 *1231:A 20.7832 
*END

*D_NET *518 0.00265424
*CONN
*I *871:A I *D sg13g2_inv_1
*I *1230:A I *D sg13g2_buf_1
*I *1111:Q O *D sg13g2_dfrbpq_1
*CAP
1 *871:A 0.000257597
2 *1230:A 0.000480204
3 *1111:Q 0.000298796
4 *518:10 0.000737801
5 *518:8 0.000298796
6 *871:A *1111:CLK 0
7 *871:A *1112:CLK 0
8 *1230:A tl_o[24] 0
9 *1230:A tl_o[46] 0.000500737
10 *1230:A *1112:CLK 0
11 *1230:A *1229:A 8.03089e-05
12 *1230:A *519:10 0
13 *1115:D *871:A 0
14 *1115:D *1230:A 0
*RES
1 *1111:Q *518:8 42.8336 
2 *518:8 *518:10 20 
3 *518:10 *1230:A 24.5232 
4 *518:10 *871:A 22.1208 
*END

*D_NET *519 0.00267094
*CONN
*I *1229:A I *D sg13g2_buf_1
*I *859:A I *D sg13g2_inv_1
*I *1112:Q O *D sg13g2_dfrbpq_1
*CAP
1 *1229:A 5.29793e-05
2 *859:A 0.000468435
3 *1112:Q 0.000434236
4 *519:10 0.00095565
5 *859:A tl_o[27] 0.000144817
6 *859:A *1112:RESET_B 0
7 *1229:A *1112:CLK 0
8 *519:10 tl_o[46] 0
9 *519:10 *1281:A 0
10 *1112:D *859:A 0.000242236
11 *1230:A *1229:A 8.03089e-05
12 *1230:A *519:10 0
13 *22:12 *519:10 0.000292275
14 *267:14 *859:A 0
15 *267:14 *519:10 0
*RES
1 *1112:Q *519:10 43.9512 
2 *519:10 *859:A 44.4264 
3 *519:10 *1229:A 40.4576 
*END

*D_NET *520 0.00248346
*CONN
*I *1056:A I *D sg13g2_inv_1
*I *1228:A I *D sg13g2_buf_1
*I *1113:Q O *D sg13g2_dfrbpq_1
*CAP
1 *1056:A 5.06546e-05
2 *1228:A 0.000707515
3 *1113:Q 4.79604e-05
4 *520:6 0.00080613
5 *1056:A *634:12 0
6 *1228:A *1112:RESET_B 0
7 *1228:A *634:12 0.000630796
8 *1228:A *679:72 1.54008e-05
9 *253:10 *1056:A 1.54556e-05
10 *253:10 *1228:A 0.000209549
*RES
1 *1113:Q *520:6 20.5104 
2 *520:6 *1228:A 26.4856 
3 *520:6 *1056:A 20.4576 
*END

*D_NET *522 0.0044727
*CONN
*I *1227:A I *D sg13g2_buf_1
*I *858:A1 I *D sg13g2_mux2_1
*I *1114:Q O *D sg13g2_dfrbpq_1
*CAP
1 *1227:A 0.000514322
2 *858:A1 0
3 *1114:Q 0
4 *522:16 0.00128617
5 *522:6 0.00180049
6 *1227:A *1223:A 0
7 *1227:A *1287:A 1.54008e-05
8 *1227:A *613:10 0
9 *1227:A *741:10 0
10 *522:16 *1121:CLK 0
11 *522:16 *667:73 0.0001757
12 *522:16 *699:34 0
13 *522:16 *700:13 0.00027283
14 *522:16 *700:21 0.000224857
15 *23:14 *522:16 0.000182933
16 *71:12 *522:16 0
17 *267:14 *522:16 0
18 *276:13 *1227:A 0
*RES
1 *1114:Q *522:6 40 
2 *522:6 *522:16 30.648 
3 *522:16 *858:A1 20 
4 *522:6 *1227:A 44.136 
*END

*D_NET *524 0.00447445
*CONN
*I *857:A1 I *D sg13g2_mux2_1
*I *1226:A I *D sg13g2_buf_1
*I *1115:Q O *D sg13g2_dfrbpq_1
*CAP
1 *857:A1 3.55224e-05
2 *1226:A 0
3 *1115:Q 0.0013473
4 *524:26 0.000378356
5 *524:18 0.00176118
6 *524:18 *851:S 0.000339267
7 *524:18 *852:A1 4.78359e-05
8 *524:18 *852:S 0
9 *524:18 *857:S 0
10 *524:18 *1286:A 0.000242181
11 *524:18 *698:8 0
12 *524:18 *698:39 0
13 *524:26 *733:10 0
14 *852:A0 *524:18 0
15 *857:A0 *857:A1 1.54556e-05
16 *857:A0 *524:18 0.000307343
17 *1413:A *524:18 0
18 *1413:A *524:26 0
19 *1414:A *524:26 0
20 *22:12 *857:A1 0
21 *22:12 *524:26 0
22 *330:12 *524:18 0
23 *371:10 *524:18 0
24 *472:10 *524:26 0
*RES
1 *1115:Q *524:18 32.7336 
2 *524:18 *524:26 43.7928 
3 *524:26 *1226:A 20 
4 *524:18 *857:A1 20.4576 
*END

*D_NET *525 0.00217083
*CONN
*I *1225:A I *D sg13g2_buf_1
*I *856:A1 I *D sg13g2_mux2_1
*I *1116:Q O *D sg13g2_dfrbpq_1
*CAP
1 *1225:A 0.000238287
2 *856:A1 0.000198147
3 *1116:Q 0.000224974
4 *525:10 0.000436435
5 *525:8 0.000224974
6 *856:A1 tl_o[51] 4.79124e-05
7 *856:A1 *856:S 0
8 *856:A1 *750:10 0
9 *1225:A *1116:CLK 0
10 *1225:A *1122:CLK 0
11 *1225:A *750:10 0
12 *525:8 *655:16 0.00029279
13 *525:8 *655:18 0.000507313
14 *21:10 *856:A1 0
*RES
1 *1116:Q *525:8 43.0448 
2 *525:8 *525:10 20 
3 *525:10 *856:A1 21.5664 
4 *525:10 *1225:A 22.288 
*END

*D_NET *526 0.00189364
*CONN
*I *1224:A I *D sg13g2_buf_1
*I *855:A1 I *D sg13g2_mux2_1
*I *1117:Q O *D sg13g2_dfrbpq_1
*CAP
1 *1224:A 9.84808e-05
2 *855:A1 0.000262476
3 *1117:Q 0.000114314
4 *526:10 0.000475271
5 *855:A1 tl_o[53] 0
6 *855:A1 *532:16 0.000288174
7 *855:A1 *745:10 0.000234311
8 *1224:A tl_o[53] 0
9 *1224:A *530:12 4.77425e-05
10 *1224:A *745:10 0.000212543
11 *526:10 *530:12 0
12 *526:10 *608:8 0.000144915
13 *23:14 *855:A1 1.54118e-05
*RES
1 *1117:Q *526:10 41.1 
2 *526:10 *855:A1 42.6576 
3 *526:10 *1224:A 41.2056 
*END

*D_NET *527 0.00250535
*CONN
*I *1223:A I *D sg13g2_buf_1
*I *854:A1 I *D sg13g2_mux2_1
*I *1118:Q O *D sg13g2_dfrbpq_1
*CAP
1 *1223:A 0.000618085
2 *854:A1 0.000528186
3 *1118:Q 0.000106404
4 *527:10 0.00125267
5 *1223:A *1118:CLK 0
6 *1223:A *1284:A 0
7 *1223:A *530:12 0
8 *1227:A *1223:A 0
9 *70:8 *1223:A 0
10 *276:13 *1223:A 0
*RES
1 *1118:Q *527:10 40.9944 
2 *527:10 *854:A1 45.7904 
3 *527:10 *1223:A 45.2624 
*END

*D_NET *528 0.00135302
*CONN
*I *1222:A I *D sg13g2_buf_1
*I *853:A1 I *D sg13g2_mux2_1
*I *1119:Q O *D sg13g2_dfrbpq_1
*CAP
1 *1222:A 0.000101872
2 *853:A1 0.000518224
3 *1119:Q 0
4 *528:4 0.000620096
5 *333:33 *853:A1 0
6 *333:33 *1222:A 0.000112826
*RES
1 *1119:Q *528:4 20 
2 *528:4 *853:A1 24.8224 
3 *528:4 *1222:A 21.1528 
*END

*D_NET *529 0.00426782
*CONN
*I *1221:A I *D sg13g2_buf_1
*I *852:A1 I *D sg13g2_mux2_1
*I *1120:Q O *D sg13g2_dfrbpq_1
*CAP
1 *1221:A 0.000799567
2 *852:A1 0.000788334
3 *1120:Q 0
4 *529:6 0.0015879
5 *1221:A *858:S 0
6 *1221:A *1117:RESET_B 0.00011226
7 *1221:A *531:10 0
8 *1221:A *532:16 0
9 *1221:A *667:61 0
10 *1221:A *667:73 0
11 *852:A0 *852:A1 0
12 *1059:A0 *1221:A 4.76247e-05
13 *1121:RESET_B *1221:A 0.000884297
14 *71:12 *1221:A 0
15 *524:18 *852:A1 4.78359e-05
*RES
1 *1120:Q *529:6 40 
2 *529:6 *852:A1 46.6968 
3 *529:6 *1221:A 47.4008 
*END

*D_NET *530 0.00530982
*CONN
*I *1058:A1 I *D sg13g2_mux2_1
*I *1220:A I *D sg13g2_buf_1
*I *1121:Q O *D sg13g2_dfrbpq_1
*CAP
1 *1058:A1 0
2 *1220:A 0
3 *1121:Q 0.000846826
4 *530:27 0.000524145
5 *530:12 0.00137097
6 *530:12 *1284:A 0
7 *530:12 *608:8 0
8 *530:27 *1058:S 0
9 *530:27 *531:30 0.000711927
10 *530:27 *605:14 0.000242022
11 *858:A0 *530:27 0.000712013
12 *1223:A *530:12 0
13 *1224:A *530:12 4.77425e-05
14 *276:13 *530:12 0.000466915
15 *279:13 *530:12 0
16 *333:33 *530:27 0.000306964
17 *470:8 *530:12 0
18 *470:8 *530:27 0
19 *473:10 *530:12 8.02924e-05
20 *475:14 *530:12 0
21 *475:14 *530:27 0
22 *526:10 *530:12 0
*RES
1 *1121:Q *530:12 27.5064 
2 *530:12 *1220:A 20 
3 *530:12 *530:27 46.5208 
4 *530:27 *1058:A1 20 
*END

*D_NET *531 0.00706914
*CONN
*I *1218:A I *D sg13g2_buf_1
*I *851:A1 I *D sg13g2_mux2_1
*I *1122:Q O *D sg13g2_dfrbpq_1
*CAP
1 *1218:A 0.000161963
2 *851:A1 0
3 *1122:Q 0.00150036
4 *531:30 0.000950139
5 *531:10 0.000712187
6 *1218:A *605:14 4.77425e-05
7 *531:10 *655:6 0.000226764
8 *531:10 *655:16 0.000242056
9 *531:30 *1058:S 0.000340172
10 *531:30 *655:6 0.000144942
11 *531:30 *655:90 0.00042611
12 tl_o[57] *1218:A 0
13 *858:A0 *531:30 0
14 *1221:A *531:10 0
15 *1370:A *531:10 0.000130415
16 *274:23 *531:30 7.52158e-05
17 *297:80 *531:30 0
18 *330:12 *531:10 0.00131906
19 *479:8 *531:30 0
20 *479:12 *1218:A 8.00842e-05
21 *530:27 *531:30 0.000711927
*RES
1 *1122:Q *531:10 48.4656 
2 *531:10 *851:A1 40 
3 *1122:Q *531:30 48.712 
4 *531:30 *1218:A 41.3816 
*END

*D_NET *532 0.00369341
*CONN
*I *1216:A I *D sg13g2_buf_1
*I *1059:A1 I *D sg13g2_mux2_1
*I *1123:Q O *D sg13g2_dfrbpq_1
*CAP
1 *1216:A 0.000102168
2 *1059:A1 0
3 *1123:Q 2.88561e-05
4 *532:16 0.00111133
5 *532:6 0.00124235
6 *532:16 *818:A 0.000177164
7 *855:A1 *532:16 0.000288174
8 *1059:A0 *532:16 1.54008e-05
9 *1221:A *532:16 0
10 *20:10 *532:16 0
11 *70:8 *532:16 0.00072797
12 *333:33 *1216:A 0
13 *333:33 *532:16 0
14 *372:22 *532:16 0
15 *475:14 *1216:A 0
16 *475:14 *532:16 0
*RES
1 *1123:Q *532:6 20.2992 
2 *532:6 *532:16 49.7152 
3 *532:16 *1059:A1 20 
4 *532:6 *1216:A 20.9416 
*END

*D_NET *537 0.0041432
*CONN
*I *1214:A I *D sg13g2_buf_1
*I *1065:A I *D sg13g2_inv_1
*I *1067:Q O *D sg13g2_dfrbpq_1
*CAP
1 *1214:A 0
2 *1065:A 3.11262e-05
3 *1067:Q 8.24983e-05
4 *537:27 0.000678463
5 *537:8 0.000792088
6 *537:27 *1067:CLK 0.000128663
7 *537:27 *1291:A 0.000208255
8 *537:27 *636:24 0.000660758
9 *537:27 *703:38 0.000584142
10 *537:27 *730:8 0.000500302
11 *537:27 *751:18 0.000135702
12 *18:8 *537:27 0
13 *77:8 *537:27 0.000341206
14 *475:20 *537:27 0
*RES
1 *1067:Q *537:8 20.7832 
2 *537:8 *1065:A 20.2728 
3 *537:8 *537:27 48.5888 
4 *537:27 *1214:A 20 
*END

*D_NET *540 0.00494504
*CONN
*I *1212:A I *D sg13g2_buf_1
*I *818:A I *D sg13g2_inv_1
*I *1081:Q O *D sg13g2_dfrbpq_1
*CAP
1 *1212:A 0.00120446
2 *818:A 0.000122957
3 *1081:Q 0.00167328
4 *540:10 0.000591777
5 *1212:A *729:10 0
6 *1212:A *751:18 0
7 *540:10 tl_o[55] 0.000178206
8 *540:10 *751:18 0.000629492
9 *819:B *1212:A 0
10 *826:A *1212:A 0
11 *1293:A *1212:A 0.000112558
12 *288:8 *540:10 4.74145e-05
13 *332:13 *1212:A 0
14 *334:13 *1212:A 0
15 *347:10 *1212:A 0
16 *372:8 *540:10 0
17 *377:10 *1212:A 8.00954e-05
18 *379:10 *1212:A 4.7526e-05
19 *475:14 *818:A 0
20 *475:14 *540:10 8.01118e-05
21 *477:12 *540:10 0
22 *479:12 *1212:A 0
23 *479:18 *1212:A 0
24 *532:16 *818:A 0.000177164
*RES
1 *1081:Q *540:10 44.3208 
2 *540:10 *818:A 41.012 
3 *1081:Q *1212:A 49.504 
*END

*D_NET *682 0.00975037
*CONN
*I *907:A I *D sg13g2_nand2_1
*I *905:A I *D sg13g2_nand2_1
*I *897:A I *D sg13g2_nand2_1
*I *901:A I *D sg13g2_nand2_1
*I *903:A I *D sg13g2_nand2_1
*I *895:A I *D sg13g2_nand2_1
*I *893:A I *D sg13g2_nand2_1
*I *899:A I *D sg13g2_nand2_1
*I *1352:X O *D sg13g2_buf_1
*CAP
1 *907:A 0
2 *905:A 0.0003575
3 *897:A 0.000420308
4 *901:A 0.000444006
5 *903:A 3.10612e-05
6 *895:A 0
7 *893:A 5.44503e-05
8 *899:A 0
9 *1352:X 0.000237092
10 *682:63 0.000751494
11 *682:59 0.000961467
12 *682:50 0.000150926
13 *682:42 0.000764726
14 *682:33 0.000634513
15 *682:20 0.000563504
16 *682:14 0.000921187
17 *682:10 0.000468269
18 *897:A *896:A2 7.98619e-05
19 *897:A *683:47 0.000145173
20 *901:A *1101:CLK 0
21 *682:42 *894:A2 4.77425e-05
22 *682:42 *690:29 0
23 *682:50 *894:A2 7.48842e-05
24 *682:59 *683:47 0
25 *682:63 *896:A2 0
26 *682:63 *1101:CLK 0.000873927
27 *682:63 *683:30 0
28 *894:B2 *682:59 0
29 *895:B *682:50 4.7687e-05
30 *896:B2 *897:A 0.000224942
31 *896:B2 *682:59 0.000240299
32 *897:B *897:A 0
33 *898:B1 *897:A 0
34 *898:B1 *682:42 0
35 *898:A1 *682:20 0
36 *898:A1 *682:42 0
37 *899:B *682:20 1.54008e-05
38 *899:B *682:33 6.46834e-05
39 *901:B *901:A 0
40 *902:B1 *901:A 0
41 *903:B *903:A 1.54008e-05
42 *1095:RESET_B *905:A 0
43 *1101:D *893:A 4.75265e-05
44 *36:10 *682:42 0
45 *127:45 *903:A 4.77425e-05
46 *272:14 *682:10 0
47 *272:14 *682:33 0
48 *319:16 *682:63 0
49 *319:40 *682:20 8.0216e-05
50 *319:40 *682:33 8.00842e-05
51 *351:42 *905:A 4.78028e-05
52 *351:54 *682:14 0.000393268
53 *352:28 *901:A 0
54 *504:8 *682:20 0
55 *506:10 *682:33 0
56 *506:10 *682:59 0
57 *506:36 *682:42 0
58 *506:36 *682:50 0.000286322
59 *506:36 *682:59 4.77425e-05
60 *507:10 *905:A 0
61 *630:22 *682:10 0
62 *679:22 *682:10 0.000129163
63 *680:204 *901:A 0
64 *680:204 *682:10 0
65 *680:204 *682:14 0
66 *680:216 *905:A 0
67 *680:310 *682:14 0
68 *680:310 *682:20 0
69 *680:310 *682:33 0
*RES
1 *1352:X *682:10 42.024 
2 *682:10 *682:14 2.4464 
3 *682:14 *682:20 22.6576 
4 *682:20 *899:A 20 
5 *682:20 *682:33 41.8128 
6 *682:33 *893:A 20.4576 
7 *682:33 *682:42 2.86 
8 *682:42 *682:50 41.8392 
9 *682:50 *895:A 20 
10 *682:42 *682:59 2.2352 
11 *682:59 *682:63 23.6784 
12 *682:63 *903:A 40.2728 
13 *682:63 *901:A 43.1944 
14 *682:59 *897:A 23.916 
15 *682:14 *905:A 43.0448 
16 *682:10 *907:A 40 
*END

*D_NET *681 0.0103972
*CONN
*I *888:B1 I *D sg13g2_o21ai_1
*I *878:B1 I *D sg13g2_o21ai_1
*I *880:B1 I *D sg13g2_o21ai_1
*I *884:B1 I *D sg13g2_o21ai_1
*I *882:B1 I *D sg13g2_o21ai_1
*I *874:B1 I *D sg13g2_o21ai_1
*I *876:B1 I *D sg13g2_o21ai_1
*I *886:B1 I *D sg13g2_o21ai_1
*I *1351:X O *D sg13g2_buf_1
*CAP
1 *888:B1 0.000122133
2 *878:B1 2.60565e-05
3 *880:B1 3.04198e-05
4 *884:B1 0
5 *882:B1 0.000234773
6 *874:B1 0
7 *876:B1 0
8 *886:B1 0.000256556
9 *1351:X 0
10 *681:55 0.000885128
11 *681:45 0.000735601
12 *681:43 0.00043452
13 *681:41 0.000501272
14 *681:16 0.000400078
15 *681:10 0.000725899
16 *681:4 0.000607879
17 *882:B1 *1106:CLK 0
18 *886:B1 *1104:CLK 0
19 *681:10 *697:24 0
20 *681:10 *697:32 0
21 *681:16 *697:32 0.000237686
22 *681:55 *691:18 0.000382322
23 *681:55 *691:27 0
24 tl_o[35] *681:55 0
25 *874:A1 *681:10 0
26 *874:A2 *681:10 1.54556e-05
27 *878:A2 *878:B1 4.77425e-05
28 *880:A2 *880:B1 4.77425e-05
29 *882:A2 *882:B1 0.000160531
30 *886:A2 *886:B1 8.01612e-05
31 *888:A2 *888:B1 4.77425e-05
32 *1438:A *886:B1 0
33 *1438:A *888:B1 1.54008e-05
34 *1438:A *681:10 0
35 *26:10 *681:10 4.77425e-05
36 *26:10 *681:16 7.62389e-05
37 *28:10 *878:B1 4.77425e-05
38 *30:10 *882:B1 1.54008e-05
39 *31:10 *882:B1 1.54556e-05
40 *31:10 *681:55 0.000339475
41 *33:12 *681:43 0
42 *132:8 *681:43 0.000235141
43 *132:8 *681:45 0.000287672
44 *132:8 *681:55 0.00012816
45 *136:8 *888:B1 0.00012816
46 *267:14 *681:16 0
47 *267:34 *681:10 0
48 *286:10 *888:B1 7.51285e-05
49 *286:12 *888:B1 0.000212127
50 *286:12 *681:43 0.00117044
51 *286:12 *681:45 7.51285e-05
52 *286:14 *681:45 0.000212871
53 *286:14 *681:55 7.52158e-05
54 *286:24 *882:B1 1.54556e-05
55 *286:24 *681:55 0.000553047
56 *286:73 *886:B1 1.54008e-05
57 *286:79 *886:B1 0.00014391
58 *517:14 *681:10 0.000209746
59 *665:12 *681:10 0.000274693
60 *665:12 *681:41 4.77425e-05
*RES
1 *1351:X *681:4 20 
2 *681:4 *681:10 5.4912 
3 *681:10 *681:16 41.3552 
4 *681:16 *886:B1 22.376 
5 *681:16 *876:B1 20 
6 *681:10 *874:B1 20 
7 *681:4 *681:41 20.2728 
8 *681:41 *681:43 4.7344 
9 *681:43 *681:45 1.144 
10 *681:45 *681:55 26.6088 
11 *681:55 *882:B1 22.1648 
12 *681:55 *884:B1 20 
13 *681:45 *880:B1 40.2728 
14 *681:43 *878:B1 40.2728 
15 *681:41 *888:B1 41.4168 
*END

*D_NET *679 0.0124278
*CONN
*I *890:B1 I *D sg13g2_o21ai_1
*I *1351:A I *D sg13g2_buf_1
*I *872:B1 I *D sg13g2_o21ai_1
*I *870:B1 I *D sg13g2_o21ai_1
*I *1057:B1 I *D sg13g2_o21ai_1
*I *915:A I *D sg13g2_nand2_1
*I *911:A I *D sg13g2_nand2_1
*I *1352:A I *D sg13g2_buf_1
*I *1349:X O *D sg13g2_buf_1
*CAP
1 *890:B1 0
2 *1351:A 0
3 *872:B1 0
4 *870:B1 0.000236521
5 *1057:B1 5.86637e-05
6 *915:A 0
7 *911:A 6.14985e-05
8 *1352:A 0
9 *1349:X 0.000732773
10 *679:104 0.000535326
11 *679:91 0.000238888
12 *679:72 0.00113811
13 *679:62 0.00135377
14 *679:60 0.000336902
15 *679:51 0.00104222
16 *679:38 0.00090558
17 *679:22 0.000580342
18 *679:14 0.000761561
19 *679:10 0.000955669
20 *679:10 *704:50 0
21 *679:22 *1095:CLK 0
22 *679:22 *682:10 0.000129163
23 *679:22 *701:10 0
24 *679:51 *1090:CLK 0
25 *679:51 *1113:CLK 0
26 tl_o[26] *679:51 0
27 tl_o[36] *870:B1 0
28 tl_o[36] *679:62 0
29 tl_o[36] *679:72 0
30 *869:A *679:22 0
31 *911:B *911:A 0
32 *1057:A2 *1057:B1 0
33 *1057:A2 *679:60 0.000259134
34 *1057:A2 *679:62 1.54008e-05
35 *1090:D *679:38 0.000144295
36 *1102:D *679:51 1.54008e-05
37 *1102:D *679:60 0.000339306
38 *1102:D *679:62 1.54008e-05
39 *1112:RESET_B *870:B1 0
40 *1112:RESET_B *679:72 0
41 *1112:D *870:B1 0
42 *1228:A *679:72 1.54008e-05
43 *1238:A *679:72 0
44 *1248:A *679:10 0
45 *1249:A *911:A 9.26662e-06
46 *1249:A *679:22 0.00020977
47 *1341:A *679:72 4.78685e-05
48 *33:12 *679:104 0
49 *43:10 *679:10 0
50 *69:10 *679:51 1.54008e-05
51 *126:18 *679:10 0
52 *127:18 *911:A 0.000112436
53 *127:18 *679:22 0.000209115
54 *127:18 *679:38 0
55 *127:18 *679:51 0
56 *128:10 *679:91 0.000130055
57 *136:8 *679:104 0.000340375
58 *150:10 *679:14 0
59 *150:10 *679:38 0
60 *150:10 *679:51 1.54008e-05
61 *267:34 *679:104 0
62 *286:8 *679:104 0
63 *308:56 *870:B1 8.00842e-05
64 *308:56 *679:72 0
65 *308:56 *679:91 3.96571e-05
66 *308:82 *679:62 0.000177032
67 *308:82 *679:104 0.00023464
68 *308:89 *679:62 4.77425e-05
69 *495:26 *679:10 0
70 *498:8 *679:10 0
71 *509:23 *679:104 0
72 *665:12 *679:104 0
73 *671:12 *679:72 0.00020973
74 *674:8 *679:51 0.000566108
75 *674:25 *679:51 0
76 *675:57 *679:51 0
77 *675:67 *679:38 0.000111838
78 *675:67 *679:51 0
*RES
1 *1349:X *679:10 46.6968 
2 *679:10 *679:14 21.144 
3 *679:14 *679:22 45.9312 
4 *679:22 *1352:A 20 
5 *679:14 *911:A 20.6424 
6 *679:10 *679:38 21.012 
7 *679:38 *915:A 20 
8 *679:38 *679:51 7.4272 
9 *679:51 *1057:B1 20.5104 
10 *679:51 *679:60 1.936 
11 *679:60 *679:62 1.3816 
12 *679:62 *679:72 46.7056 
13 *679:72 *870:B1 21.98 
14 *679:72 *679:91 42.0042 
15 *679:91 *872:B1 20 
16 *679:62 *679:104 44.5584 
17 *679:104 *1351:A 20 
18 *679:60 *890:B1 20 
*END

*D_NET *684 0.0114903
*CONN
*I *839:S I *D sg13g2_mux2_1
*I *840:S I *D sg13g2_mux2_1
*I *838:S I *D sg13g2_mux2_1
*I *841:S I *D sg13g2_mux2_1
*I *846:S I *D sg13g2_mux2_1
*I *845:S I *D sg13g2_mux2_1
*I *1061:S I *D sg13g2_mux2_1
*I *844:S I *D sg13g2_mux2_1
*I *1354:X O *D sg13g2_buf_1
*CAP
1 *839:S 0
2 *840:S 0.000390291
3 *838:S 0.000220837
4 *841:S 0.000403426
5 *846:S 0
6 *845:S 0
7 *1061:S 0
8 *844:S 0.00026506
9 *1354:X 0
10 *684:75 0.000662528
11 *684:71 0.00073673
12 *684:51 0.000273809
13 *684:24 0.000546465
14 *684:20 0.00145159
15 *684:12 0.00210085
16 *684:10 0.00127844
17 *684:4 0.000903479
18 *684:12 *1099:CLK 0
19 *684:12 *707:10 0
20 *684:71 *707:10 0
21 *684:71 *707:41 0.000566278
22 *788:A1 *684:24 0
23 *840:A1 *840:S 0
24 *845:A1 *684:24 0
25 *898:B1 *841:S 0
26 *1042:S *684:20 0.000306096
27 *1069:D *684:20 0
28 *1128:RESET_B *684:51 0
29 *1131:D *684:24 0
30 *1134:D *684:10 4.77866e-05
31 *1134:D *684:71 0.000501293
32 *1138:D *684:71 0
33 *1354:A *841:S 0
34 *1354:A *684:10 1.54008e-05
35 *157:10 *684:20 0
36 *270:12 *684:51 7.99455e-05
37 *271:10 *844:S 0
38 *271:10 *684:20 0
39 *271:10 *684:24 0.000242072
40 *271:12 *684:10 0
41 *271:12 *684:12 0
42 *271:12 *684:20 0
43 *345:8 *841:S 0.00024122
44 *345:8 *684:10 0
45 *345:8 *684:71 0
46 *345:18 *684:10 0
47 *345:18 *684:12 0
48 *351:26 *840:S 0
49 *351:26 *684:71 0.0001127
50 *353:43 *684:71 0
51 *355:36 *684:12 0
52 *406:14 *841:S 0
53 *410:10 *840:S 0
54 *413:14 *684:20 0
55 *413:14 *684:51 0.000144014
56 *415:12 *844:S 0
57 *505:10 *841:S 0
58 *550:39 *684:20 0
59 *566:10 *684:20 0
60 *584:36 *844:S 0
61 *666:27 *841:S 0
*RES
1 *1354:X *684:4 20 
2 *684:4 *684:10 21.8392 
3 *684:10 *684:12 5.1568 
4 *684:12 *684:20 30.1112 
5 *684:20 *684:24 2.8688 
6 *684:24 *844:S 22.288 
7 *684:24 *1061:S 20 
8 *684:20 *845:S 20 
9 *684:12 *684:51 42.2616 
10 *684:51 *846:S 40 
11 *684:10 *841:S 43.5992 
12 *684:4 *684:71 6.6704 
13 *684:71 *684:75 20.5104 
14 *684:75 *838:S 41.7776 
15 *684:75 *840:S 43.4144 
16 *684:71 *839:S 20 
*END

*D_NET *685 0.013585
*CONN
*I *837:S I *D sg13g2_mux2_1
*I *847:S I *D sg13g2_mux2_1
*I *848:S I *D sg13g2_mux2_1
*I *836:S I *D sg13g2_mux2_1
*I *849:S I *D sg13g2_mux2_1
*I *834:B I *D sg13g2_nor2_1
*I *835:A2 I *D sg13g2_a21oi_1
*I *1060:S I *D sg13g2_mux2_1
*I *1355:X O *D sg13g2_buf_1
*CAP
1 *837:S 0
2 *847:S 0.000123619
3 *848:S 0.00027243
4 *836:S 0
5 *849:S 0
6 *834:B 2.36489e-05
7 *835:A2 2.69787e-05
8 *1060:S 0
9 *1355:X 0.00018197
10 *685:89 0.00094445
11 *685:81 0.00128595
12 *685:77 0.000784831
13 *685:68 0.000661768
14 *685:55 0.000673236
15 *685:49 0.00164207
16 *685:40 0.00104925
17 *685:27 0.000815625
18 *685:14 0.00046852
19 *685:10 0.000285853
20 *685:89 *1140:CLK 0
21 *797:A1 *685:49 0
22 *798:B_N *685:49 0.000501293
23 *798:B_N *685:55 0
24 *802:A2 *685:81 0
25 *834:A *685:40 0
26 *834:A *685:49 0
27 *834:A *685:68 0
28 *835:A1 *685:27 0.000286322
29 *835:B1 *835:A2 0
30 *835:B1 *685:40 0
31 *947:A *685:10 0
32 *947:A *685:27 0.000819945
33 *954:B *685:89 0
34 *959:A *848:S 4.77425e-05
35 *960:B *685:89 0
36 *1036:B1 *685:14 0
37 *1060:A1 *685:10 7.94055e-05
38 *1060:A1 *685:14 0
39 *1074:RESET_B *685:89 0.000112046
40 *1074:D *685:89 0
41 *1140:RESET_B *685:77 8.01938e-05
42 *1142:D *685:40 0
43 *1148:D *685:40 0
44 *1148:D *685:49 0
45 *1275:A *848:S 0
46 *114:40 *685:55 0
47 *114:40 *685:68 0
48 *182:16 *848:S 0
49 *182:16 *685:89 0
50 *187:14 *685:89 0
51 *282:12 *685:77 0
52 *346:16 *685:89 0
53 *348:8 *685:89 0.000209714
54 *348:25 *685:81 0
55 *359:42 *685:68 0.000181279
56 *360:8 *685:27 0
57 *362:20 *685:55 0
58 *362:20 *685:68 0
59 *367:52 *685:40 0
60 *395:30 *685:81 0.000181279
61 *402:6 *848:S 0
62 *650:12 *685:49 4.77299e-05
63 *652:8 *685:10 0
64 *657:44 *685:89 0.000592037
65 *677:20 *835:A2 4.77425e-05
66 *677:20 *685:40 0.000369759
67 *678:61 *685:55 0.00050063
68 *678:67 *685:55 0.000287672
69 *680:87 *685:81 0
*RES
1 *1355:X *685:10 41.3904 
2 *685:10 *685:14 20.8272 
3 *685:14 *1060:S 20 
4 *685:14 *685:27 44.5848 
5 *685:27 *835:A2 20.2728 
6 *685:27 *685:40 3.828 
7 *685:40 *834:B 20.2992 
8 *685:40 *685:49 5.2624 
9 *685:49 *685:55 46.2128 
10 *685:55 *849:S 20 
11 *685:49 *685:68 43.1328 
12 *685:68 *836:S 20 
13 *685:68 *685:77 2.2352 
14 *685:77 *685:81 24.5232 
15 *685:81 *685:89 46.6704 
16 *685:89 *848:S 41.936 
17 *685:81 *847:S 41.144 
18 *685:77 *837:S 20 
*END

*D_NET *346 0.00670774
*CONN
*I *967:A2 I *D sg13g2_o21ai_1
*I *966:A I *D sg13g2_nand2_1
*I *973:A2 I *D sg13g2_o21ai_1
*I *972:A I *D sg13g2_nand2_1
*I *974:A I *D sg13g2_nand2_1
*I *975:A2 I *D sg13g2_o21ai_1
*I *976:A I *D sg13g2_nand2_1
*I *977:A2 I *D sg13g2_o21ai_1
*I *1210:X O *D sg13g2_buf_1
*CAP
1 *967:A2 0.000204841
2 *966:A 0.000170169
3 *973:A2 7.99471e-05
4 *972:A 0
5 *974:A 0
6 *975:A2 0.000191578
7 *976:A 0
8 *977:A2 0.00021613
9 *1210:X 0.000164875
10 *346:38 0.000624333
11 *346:28 0.000691068
12 *346:26 0.000255695
13 *346:22 0.000363015
14 *346:16 0.000739767
15 *346:10 0.00077241
16 *346:8 0.000510744
17 *966:A *848:A1 7.99485e-05
18 *966:A *402:6 0
19 *966:A *402:18 0
20 *967:A2 *849:A0 0
21 *973:A2 *718:19 0
22 *975:A2 *974:B 1.54008e-05
23 *975:A2 *1073:RESET_B 0
24 *975:A2 *397:12 0
25 *977:A2 *836:A0 0
26 *977:A2 *1073:RESET_B 0
27 *977:A2 *395:20 0
28 *977:A2 *395:30 0
29 *346:8 *848:A1 0
30 *346:16 *657:44 0
31 *346:16 *685:89 0
32 *346:22 *834:A 0
33 *346:22 *972:B 0
34 *346:22 *718:19 0.00011226
35 *346:26 *1398:A 0
36 *346:28 *396:10 0
37 *346:38 *1073:RESET_B 0
38 *346:38 *1398:A 1.54556e-05
39 *346:38 *396:10 0
40 *967:B1 *967:A2 4.77425e-05
41 *973:B1 *973:A2 1.54008e-05
42 *975:B1 *975:A2 0.000209637
43 *1072:D *977:A2 0
44 *1074:D *973:A2 0
45 *1125:D *967:A2 0
46 *178:14 *346:8 0.00029161
47 *178:37 *967:A2 4.77425e-05
48 *182:16 *346:16 0.000181192
49 *196:8 *346:22 0
50 *196:8 *346:26 7.48842e-05
51 *198:16 *977:A2 0.000186415
52 *265:14 *966:A 0.000273562
53 *282:20 *346:38 0.000171916
*RES
1 *1210:X *346:8 41.5664 
2 *346:8 *346:10 0.9328 
3 *346:10 *346:16 4.0392 
4 *346:16 *346:22 21.7864 
5 *346:22 *346:26 21.3552 
6 *346:26 *346:28 0.7216 
7 *346:28 *346:38 23.256 
8 *346:38 *977:A2 21.9404 
9 *346:38 *976:A 20 
10 *346:28 *975:A2 41.5664 
11 *346:26 *974:A 40 
12 *346:22 *972:A 20 
13 *346:16 *973:A2 40.6424 
14 *346:10 *966:A 41.5664 
15 *346:8 *967:A2 41.5664 
*END

*D_NET *341 0.0113884
*CONN
*I *1050:A2 I *D sg13g2_o21ai_1
*I *969:A2 I *D sg13g2_o21ai_1
*I *971:A2 I *D sg13g2_o21ai_1
*I *968:A I *D sg13g2_nand2_1
*I *1210:A I *D sg13g2_buf_1
*I *970:A I *D sg13g2_nand2_1
*I *1052:A2 I *D sg13g2_o21ai_1
*I *1206:X O *D sg13g2_buf_1
*CAP
1 *1050:A2 0
2 *969:A2 0.000203469
3 *971:A2 3.27226e-05
4 *968:A 0.00016271
5 *1210:A 0.000172637
6 *970:A 0
7 *1052:A2 0
8 *1206:X 0
9 *341:94 0.000145117
10 *341:68 0.000311667
11 *341:44 0.000514394
12 *341:42 0.000277548
13 *341:33 0.000979801
14 *341:27 0.00146209
15 *341:8 0.000710822
16 *341:4 0.000350623
17 *968:A *968:B 0
18 *969:A2 *969:B1 1.54008e-05
19 *969:A2 *971:B1 4.78195e-05
20 *971:A2 *971:B1 4.77425e-05
21 *1210:A *848:A0 0.000346048
22 *1210:A *849:A0 4.77425e-05
23 *1210:A *968:B 0.000162445
24 *1210:A *399:10 4.78359e-05
25 *1210:A *399:31 0.000616607
26 *341:8 *1052:B1 1.54556e-05
27 *341:27 *1052:B1 0.000112485
28 *341:27 *363:39 0.00021099
29 *341:27 *678:24 7.33256e-05
30 *341:33 *363:29 0.00147216
31 *341:33 *664:94 0
32 *341:33 *688:10 0.000242088
33 *341:44 *399:31 0.000432479
34 *919:A1 *341:8 0.000242313
35 *919:A1 *341:94 0
36 *931:A1 *969:A2 8.02595e-05
37 *931:A1 *971:A2 0
38 *931:A1 *341:33 0.000922111
39 *931:A1 *341:42 4.78192e-05
40 *971:A1 *341:68 7.62389e-05
41 *1277:A *968:A 0.00024211
42 *1427:A *341:42 1.54008e-05
43 *1443:A *341:8 0
44 *1443:A *341:94 0.000112651
45 *1451:A *341:27 0
46 *105:71 *341:27 0.000339573
47 *105:99 *341:33 0
48 *152:14 *341:8 1.54556e-05
49 *152:14 *341:27 3.23636e-05
50 *159:8 *341:33 0
51 *161:12 *341:33 0
52 *164:14 *341:27 0
53 *173:20 *341:27 0
54 *191:40 *341:8 0
55 *191:40 *341:94 4.79124e-05
*RES
1 *1206:X *341:4 20 
2 *341:4 *341:8 1.892 
3 *341:8 *1052:A2 20 
4 *341:8 *341:27 44.928 
5 *341:27 *341:33 49.328 
6 *341:33 *970:A 20 
7 *341:33 *341:42 20.2728 
8 *341:42 *341:44 2.2 
9 *341:44 *1210:A 42.8688 
10 *341:44 *968:A 41.3816 
11 *341:42 *341:68 20.7216 
12 *341:68 *971:A2 20.2728 
13 *341:68 *969:A2 21.7688 
14 *341:4 *341:94 41.364 
15 *341:94 *1050:A2 20 
*END

*D_NET *319 0.0115695
*CONN
*I *900:B2 I *D sg13g2_a22oi_1
*I *902:B2 I *D sg13g2_a22oi_1
*I *898:B2 I *D sg13g2_a22oi_1
*I *906:B2 I *D sg13g2_a22oi_1
*I *904:B2 I *D sg13g2_a22oi_1
*I *892:B2 I *D sg13g2_a22oi_1
*I *896:B2 I *D sg13g2_a22oi_1
*I *894:B2 I *D sg13g2_a22oi_1
*I *1202:X O *D sg13g2_buf_1
*CAP
1 *900:B2 0.000394642
2 *902:B2 0.000171362
3 *898:B2 0
4 *906:B2 0.000306446
5 *904:B2 3.30458e-05
6 *892:B2 0.000152725
7 *896:B2 0.000330091
8 *894:B2 0.000128668
9 *1202:X 0.00021024
10 *319:57 0.00109005
11 *319:40 0.00152917
12 *319:36 0.000874176
13 *319:16 0.000661258
14 *319:12 0.000810492
15 *319:10 0.000817215
16 *319:8 0.000891034
17 *892:B2 *1098:CLK 0.00023386
18 *892:B2 *1243:A 0
19 *892:B2 *507:12 0
20 *892:B2 *683:115 0.00036734
21 *894:B2 *894:B1 2.19969e-05
22 *894:B2 *894:A2 4.77425e-05
23 *894:B2 *682:59 0
24 *896:B2 *897:A 0.000224942
25 *896:B2 *682:59 0.000240299
26 *900:B2 *1244:A 0
27 *900:B2 *630:22 0.000144691
28 *900:B2 *680:204 0
29 *900:B2 *695:14 0
30 *902:B2 *902:A2 8.01938e-05
31 *902:B2 *904:B1 0
32 *902:B2 *352:28 0
33 *904:B2 *904:B1 0
34 *906:B2 *904:A2 4.77425e-05
35 *906:B2 *906:A2 0.000144822
36 *906:B2 *500:12 4.78524e-05
37 *906:B2 *630:22 0
38 *319:16 *506:36 0
39 *319:16 *682:63 0
40 *319:36 *898:B1 0
41 *319:36 *507:10 0
42 *319:36 *683:64 0.000241973
43 *319:40 *898:A1 0
44 *319:40 *1098:CLK 0
45 *319:40 *682:20 8.0216e-05
46 *319:40 *682:33 8.00842e-05
47 *319:40 *683:64 4.79124e-05
48 *319:40 *683:73 0
49 *319:57 *904:B1 0
50 *319:57 *500:12 0
51 *319:57 *504:8 0
52 *319:57 *507:12 0
53 *319:57 *631:14 0.000274154
54 *319:57 *683:115 0.00012816
55 *897:B *896:B2 4.75265e-05
56 *899:B *319:36 3.24129e-05
57 *899:B *319:40 0.000135974
58 *127:45 *902:B2 0
59 *139:10 *892:B2 0.000112253
60 *145:10 *904:B2 1.54556e-05
61 *145:10 *319:57 0.000258523
62 *146:10 *906:B2 0.000112716
63 *267:34 *900:B2 0
64 *272:14 *319:8 0
65 *272:14 *319:10 0
66 *272:14 *319:12 0
*RES
1 *1202:X *319:8 41.7776 
2 *319:8 *319:10 2.6224 
3 *319:10 *319:12 3.4672 
4 *319:12 *319:16 21.5664 
5 *319:16 *894:B2 21.1528 
6 *319:16 *896:B2 22.86 
7 *319:12 *319:36 22.1208 
8 *319:36 *319:40 24.708 
9 *319:40 *892:B2 41.9976 
10 *319:40 *319:57 26.4592 
11 *319:57 *904:B2 20.2728 
12 *319:57 *906:B2 23.0184 
13 *319:36 *898:B2 20 
14 *319:10 *902:B2 41.3816 
15 *319:8 *900:B2 43.2472 
*END

*D_NET *286 0.00990761
*CONN
*I *876:A2 I *D sg13g2_o21ai_1
*I *886:A2 I *D sg13g2_o21ai_1
*I *874:A2 I *D sg13g2_o21ai_1
*I *888:A2 I *D sg13g2_o21ai_1
*I *878:A2 I *D sg13g2_o21ai_1
*I *880:A2 I *D sg13g2_o21ai_1
*I *884:A2 I *D sg13g2_o21ai_1
*I *882:A2 I *D sg13g2_o21ai_1
*I *1196:X O *D sg13g2_buf_1
*CAP
1 *876:A2 0
2 *886:A2 0.000100468
3 *874:A2 0.000186588
4 *888:A2 6.11049e-05
5 *878:A2 4.87124e-05
6 *880:A2 5.81e-05
7 *884:A2 0
8 *882:A2 0.000225749
9 *1196:X 0.000184139
10 *286:79 0.000484141
11 *286:73 0.00070718
12 *286:24 0.000959371
13 *286:14 0.00087566
14 *286:12 0.00056335
15 *286:10 0.000571893
16 *286:8 0.000774322
17 *874:A2 *1438:A 4.68848e-05
18 *874:A2 *681:10 1.54556e-05
19 *878:A2 *878:B1 4.77425e-05
20 *880:A2 *880:B1 4.77425e-05
21 *880:A2 *691:18 0
22 *882:A2 *882:B1 0.000160531
23 *882:A2 *1106:RESET_B 0
24 *886:A2 *886:B1 8.01612e-05
25 *886:A2 *1438:A 0
26 *888:A2 *888:B1 4.77425e-05
27 *286:8 *679:104 0
28 *286:10 *888:B1 7.51285e-05
29 *286:12 *888:B1 0.000212127
30 *286:12 *681:43 0.00117044
31 *286:12 *681:45 7.51285e-05
32 *286:14 *681:45 0.000212871
33 *286:14 *681:55 7.52158e-05
34 *286:24 tl_o[35] 0
35 *286:24 *882:B1 1.54556e-05
36 *286:24 *1106:RESET_B 1.54008e-05
37 *286:24 *681:55 0.000553047
38 *286:73 tl_o[26] 0
39 *286:73 *886:B1 1.54008e-05
40 *286:73 *1438:A 0.000533952
41 *286:79 *886:B1 0.00014391
42 *874:A1 *874:A2 0.000144836
43 *876:A1 *286:73 0.000226578
44 *876:A1 *286:79 1.54008e-05
45 *878:A1 *878:A2 8.00842e-05
46 *884:A1 *882:A2 4.78524e-05
47 *886:A1 *886:A2 4.77425e-05
48 *32:8 *874:A2 0
49 *135:10 *286:79 0
50 *136:8 *286:8 0
51 *136:8 *286:10 0
52 *267:14 *874:A2 0
53 *267:14 *286:79 0
*RES
1 *1196:X *286:8 41.5664 
2 *286:8 *286:10 0.7216 
3 *286:10 *286:12 5.7904 
4 *286:12 *286:14 1.144 
5 *286:14 *286:24 26.424 
6 *286:24 *882:A2 22.1648 
7 *286:24 *884:A2 20 
8 *286:14 *880:A2 40.4576 
9 *286:12 *878:A2 40.4576 
10 *286:10 *888:A2 40.4576 
11 *286:8 *286:73 24.9808 
12 *286:73 *286:79 21.5488 
13 *286:79 *874:A2 41.5488 
14 *286:79 *886:A2 40.9152 
15 *286:73 *876:A2 20 
*END

*D_NET *308 0.0178627
*CONN
*I *1066:A2 I *D sg13g2_o21ai_1
*I *921:B I *D sg13g2_and3_1
*I *868:B I *D sg13g2_nand2_1
*I *1057:A2 I *D sg13g2_o21ai_1
*I *890:A2 I *D sg13g2_o21ai_1
*I *1196:A I *D sg13g2_buf_1
*I *872:A2 I *D sg13g2_o21ai_1
*I *870:A2 I *D sg13g2_o21ai_1
*I *1200:X O *D sg13g2_buf_1
*CAP
1 *1066:A2 0.000567949
2 *921:B 0.000135569
3 *868:B 0
4 *1057:A2 0.000270487
5 *890:A2 0
6 *1196:A 0
7 *872:A2 0
8 *870:A2 0
9 *1200:X 0.000114542
10 *308:89 0.000296263
11 *308:82 0.000252297
12 *308:72 0.000826563
13 *308:56 0.000497119
14 *308:42 0.000919402
15 *308:32 0.00230175
16 *308:26 0.00205146
17 *308:18 0.00116925
18 *308:12 0.00069079
19 *308:10 0.000788938
20 *1057:A2 tl_o[26] 0
21 *1057:A2 *1057:B1 0
22 *1057:A2 *1341:A 0
23 *1057:A2 *679:60 0.000259134
24 *1057:A2 *679:62 1.54008e-05
25 *1066:A2 *1066:B1 0.0001863
26 *1066:A2 *1080:CLK 0.000103517
27 *308:10 *1066:B1 7.96579e-05
28 *308:10 *1250:A 0.00018387
29 *308:12 *1250:A 0.000345666
30 *308:18 *868:A 0
31 *308:18 *1250:A 0.000885893
32 *308:18 *496:8 0
33 *308:26 *868:A 0
34 *308:32 *1251:A 0
35 *308:32 *1356:A 0
36 *308:32 *1374:A 0
37 *308:32 *680:244 0
38 *308:32 *680:256 0
39 *308:32 *680:294 0
40 *308:32 *704:8 0.000404597
41 *308:32 *704:23 0.000615703
42 *308:32 *704:37 0.000242236
43 *308:32 *704:50 0.00053358
44 *308:42 tl_o[24] 0
45 *308:42 *1111:RESET_B 0
46 *308:42 *1112:CLK 0
47 *308:42 *704:23 7.94972e-05
48 *308:56 tl_o[24] 0.000111596
49 *308:56 tl_o[36] 0
50 *308:56 *870:B1 8.00842e-05
51 *308:56 *1111:RESET_B 0
52 *308:56 *679:72 0
53 *308:56 *679:91 3.96571e-05
54 *308:72 *889:A 0
55 *308:72 *1368:A 0.000446438
56 *308:72 *508:10 0
57 *308:72 *665:12 0.00114508
58 *308:82 tl_o[26] 0.000112552
59 *308:82 *1238:A 0.000112552
60 *308:82 *1341:A 0
61 *308:82 *509:23 7.51285e-05
62 *308:82 *679:62 0.000177032
63 *308:82 *679:104 0.00023464
64 *308:89 *1341:A 0
65 *308:89 *679:62 4.77425e-05
66 *867:B *921:B 0
67 *867:C *921:B 0.000143724
68 *867:A *1066:A2 0
69 *872:A1 *308:42 3.04771e-05
70 *1066:A1 *1066:A2 0
71 *1091:RESET_B *308:32 0
72 *1431:A *308:10 0
73 *25:14 *308:42 0
74 *25:14 *308:56 0
75 *67:10 *1066:A2 0
76 *117:8 *308:56 0
77 *125:10 *1066:A2 0
78 *126:18 *308:26 0
79 *126:18 *308:32 0
80 *137:8 *308:72 0.000288588
*RES
1 *1200:X *308:10 41.1792 
2 *308:10 *308:12 1.3552 
3 *308:12 *308:18 24.2944 
4 *308:18 *308:26 46.248 
5 *308:26 *308:32 12.9624 
6 *308:32 *308:42 3.7928 
7 *308:42 *308:56 44.0304 
8 *308:56 *870:A2 20 
9 *308:42 *872:A2 20 
10 *308:32 *308:72 46.2128 
11 *308:72 *308:82 42.5872 
12 *308:82 *1196:A 20 
13 *308:72 *308:89 0.2728 
14 *308:89 *890:A2 20 
15 *308:89 *1057:A2 22.5344 
16 *308:18 *868:B 20 
17 *308:12 *921:B 41.1264 
18 *308:10 *1066:A2 44.5408 
*END

*D_NET *655 0.0129663
*CONN
*I *1058:S I *D sg13g2_mux2_1
*I *858:S I *D sg13g2_mux2_1
*I *855:S I *D sg13g2_mux2_1
*I *854:S I *D sg13g2_mux2_1
*I *856:S I *D sg13g2_mux2_1
*I *851:S I *D sg13g2_mux2_1
*I *857:S I *D sg13g2_mux2_1
*I *852:S I *D sg13g2_mux2_1
*I *1192:X O *D sg13g2_buf_1
*CAP
1 *1058:S 0.000296138
2 *858:S 3.67675e-05
3 *855:S 0
4 *854:S 0.000400401
5 *856:S 0.000172306
6 *851:S 0.000180157
7 *857:S 0.000256357
8 *852:S 0.000394067
9 *1192:X 0
10 *655:90 0.000581788
11 *655:75 0.000233369
12 *655:24 0.000785935
13 *655:20 0.000553875
14 *655:18 0.000627818
15 *655:16 0.00118542
16 *655:6 0.00116221
17 *655:4 0.000610008
18 *852:S *1281:A 0
19 *852:S *1320:A 0.00020973
20 *856:S *750:10 0.000273562
21 *1058:S *700:21 0.000242193
22 *655:16 *699:10 0
23 *655:75 *667:73 0.000339877
24 tl_o[51] *856:S 0
25 *852:A0 *852:S 8.0216e-05
26 *856:A1 *856:S 0
27 *857:A0 *851:S 0.000339267
28 *858:A0 *1058:S 0.000181594
29 *1059:S *655:6 0
30 *1059:S *655:90 0
31 *1118:D *854:S 0
32 *1121:RESET_B *655:16 0
33 *1221:A *858:S 0
34 *1411:A *854:S 0
35 *1413:A *852:S 1.54556e-05
36 *1413:A *857:S 0
37 *21:10 *854:S 0
38 *21:10 *655:18 0.00037247
39 *21:10 *655:20 0.000394151
40 *23:14 *1058:S 4.77425e-05
41 *71:12 *858:S 0
42 *267:14 *655:16 0
43 *267:14 *655:18 0
44 *371:10 *852:S 8.03692e-05
45 *372:22 *655:75 0.000393653
46 *474:10 *854:S 0
47 *524:18 *851:S 0.000339267
48 *524:18 *852:S 0
49 *524:18 *857:S 0
50 *525:8 *655:16 0.00029279
51 *525:8 *655:18 0.000507313
52 *530:27 *1058:S 0
53 *531:10 *655:6 0.000226764
54 *531:10 *655:16 0.000242056
55 *531:30 *1058:S 0.000340172
56 *531:30 *655:6 0.000144942
57 *531:30 *655:90 0.00042611
58 *611:10 *854:S 0
*RES
1 *1192:X *655:4 20 
2 *655:4 *655:6 3.0448 
3 *655:6 *655:16 25.368 
4 *655:16 *655:18 2.8336 
5 *655:18 *655:20 2.4112 
6 *655:20 *655:24 20.9328 
7 *655:24 *852:S 23.7136 
8 *655:24 *857:S 21.8656 
9 *655:20 *851:S 41.936 
10 *655:18 *856:S 41.5664 
11 *655:16 *854:S 43.4144 
12 *655:6 *655:75 42.6224 
13 *655:75 *855:S 20 
14 *655:4 *655:90 22.596 
15 *655:90 *858:S 40.2728 
16 *655:90 *1058:S 43.4056 
*END

*D_NET *609 0.0109232
*CONN
*I *933:A2 I *D sg13g2_a22oi_1
*I *928:A2 I *D sg13g2_a22oi_1
*I *938:A2 I *D sg13g2_a22oi_1
*I *957:A2 I *D sg13g2_a22oi_1
*I *963:A2 I *D sg13g2_a22oi_1
*I *951:A2 I *D sg13g2_a22oi_1
*I *923:A2 I *D sg13g2_a22oi_1
*I *945:A2 I *D sg13g2_a22oi_1
*I *1191:X O *D sg13g2_buf_1
*CAP
1 *933:A2 0
2 *928:A2 0
3 *938:A2 0
4 *957:A2 0
5 *963:A2 0
6 *951:A2 0
7 *923:A2 0
8 *945:A2 0
9 *1191:X 0.000211768
10 *609:119 0.000593943
11 *609:100 0.000858207
12 *609:91 0.000839913
13 *609:76 0.00075678
14 *609:69 0.000236029
15 *609:63 0.000668483
16 *609:44 0.000671211
17 *609:31 0.000109727
18 *609:23 0.000671286
19 *609:16 0.000561467
20 *609:10 0.000631564
21 *609:10 *778:8 0.000234727
22 *609:16 *660:58 0
23 *609:23 *660:58 0
24 *609:44 *1085:RESET_B 4.28304e-05
25 *609:44 *660:39 0
26 *609:63 *1082:RESET_B 1.54008e-05
27 *609:63 *660:29 0
28 *609:69 *660:25 0
29 *609:76 *1082:RESET_B 6.46834e-05
30 *609:76 *660:72 0
31 *609:91 *660:87 0
32 *609:100 *1386:A 0
33 *609:119 *1079:CLK 0
34 *609:119 *720:47 0.00044924
35 *916:A *609:16 0.000209769
36 *924:A *609:91 7.98619e-05
37 *933:B2 *609:119 0.000287889
38 *938:B2 *609:100 0.000111868
39 *1083:D *609:91 8.00842e-05
40 *1086:D *609:91 0
41 *1089:D *609:31 0
42 *1431:A *609:16 0
43 *1457:A *609:10 0.000177164
44 *111:10 *609:10 0.000177306
45 *151:10 *609:23 0
46 *151:10 *609:31 0.000234224
47 *156:22 *609:16 0.000598428
48 *156:29 *609:16 0
49 *156:29 *609:23 0.00024211
50 *156:29 *609:44 0
51 *156:42 *609:44 0.000555821
52 *156:42 *609:63 3.23417e-05
53 *156:49 *609:63 0.000150407
54 *156:72 *609:63 0.000112706
55 *156:72 *609:76 4.77699e-05
56 *156:81 *609:91 0
57 *156:83 *609:100 0
58 *158:12 *609:100 0.000208168
59 *170:8 *609:31 0
60 *173:16 *609:119 0
61 *284:16 *609:10 0
62 *403:10 *609:69 0
*RES
1 *1191:X *609:10 42.3672 
2 *609:10 *609:16 24.0832 
3 *609:16 *945:A2 20 
4 *609:16 *609:23 1.3816 
5 *609:23 *609:31 41.2056 
6 *609:31 *923:A2 20 
7 *609:23 *609:44 4.2856 
8 *609:44 *951:A2 20 
9 *609:44 *609:63 2.6884 
10 *609:63 *609:69 41.5664 
11 *609:69 *963:A2 20 
12 *609:63 *609:76 1.5664 
13 *609:76 *957:A2 20 
14 *609:76 *609:91 5.0336 
15 *609:91 *938:A2 20 
16 *609:91 *609:100 2.4464 
17 *609:100 *928:A2 20 
18 *609:100 *609:119 45.6672 
19 *609:119 *933:A2 20 
*END

*D_NET *683 0.0134165
*CONN
*I *900:A2 I *D sg13g2_a22oi_1
*I *892:A2 I *D sg13g2_a22oi_1
*I *906:A2 I *D sg13g2_a22oi_1
*I *904:A2 I *D sg13g2_a22oi_1
*I *898:A2 I *D sg13g2_a22oi_1
*I *894:A2 I *D sg13g2_a22oi_1
*I *896:A2 I *D sg13g2_a22oi_1
*I *902:A2 I *D sg13g2_a22oi_1
*I *1353:X O *D sg13g2_buf_1
*CAP
1 *900:A2 6.08294e-05
2 *892:A2 0
3 *906:A2 0.000206143
4 *904:A2 3.34444e-05
5 *898:A2 0
6 *894:A2 0.000160109
7 *896:A2 0.000122803
8 *902:A2 4.32164e-05
9 *1353:X 0.000684244
10 *683:115 0.000225156
11 *683:83 0.000940304
12 *683:73 0.00150676
13 *683:64 0.000877878
14 *683:47 0.00103323
15 *683:30 0.0014843
16 *683:28 0.00095951
17 *683:10 0.000614138
18 *683:30 *695:24 0.00018128
19 tl_o[35] *683:83 0.000242269
20 *892:B2 *683:115 0.00036734
21 *894:B2 *894:A2 4.77425e-05
22 *895:B *894:A2 0
23 *897:A *896:A2 7.98619e-05
24 *897:A *683:47 0.000145173
25 *898:B1 *683:47 0
26 *902:B2 *902:A2 8.01938e-05
27 *902:A1 *683:10 0.00012816
28 *906:B2 *904:A2 4.77425e-05
29 *906:B2 *906:A2 0.000144822
30 *906:A1 *906:A2 0.00012816
31 *906:A1 *683:83 0.000126358
32 *1095:D *683:83 0
33 *1243:A *683:83 0
34 *1353:A *683:10 0
35 *1361:A *683:83 0.00023547
36 *127:39 *683:28 0
37 *127:39 *683:30 0
38 *138:14 *683:10 8.00842e-05
39 *143:8 *683:30 0
40 *145:10 *683:83 0
41 *146:10 *683:83 0.00012526
42 *272:14 *894:A2 0
43 *272:14 *683:10 0
44 *272:14 *683:64 0
45 *319:36 *683:64 0.000241973
46 *319:40 *683:64 4.79124e-05
47 *319:40 *683:73 0
48 *319:57 *683:115 0.00012816
49 *352:28 *902:A2 8.00842e-05
50 *353:24 *683:30 0
51 *500:20 *683:83 7.48178e-05
52 *502:10 *683:10 0.000690245
53 *503:10 *683:28 0.00037214
54 *503:10 *683:30 0.00023464
55 *505:12 *896:A2 0
56 *505:12 *683:30 0
57 *506:36 *894:A2 0
58 *506:36 *683:47 8.00842e-05
59 *507:10 *683:64 0
60 *507:10 *683:73 0
61 *507:10 *683:83 0
62 *507:12 *683:83 0
63 *630:22 *906:A2 0.000231856
64 *682:42 *894:A2 4.77425e-05
65 *682:50 *894:A2 7.48842e-05
66 *682:59 *683:47 0
67 *682:63 *896:A2 0
68 *682:63 *683:30 0
*RES
1 *1353:X *683:10 45.6408 
2 *683:10 *902:A2 40.4576 
3 *1353:X *683:28 41.5664 
4 *683:28 *683:30 6.8464 
5 *683:30 *896:A2 40.968 
6 *683:30 *683:47 44.1536 
7 *683:47 *894:A2 41.3904 
8 *683:47 *683:64 22.7104 
9 *683:64 *898:A2 20 
10 *683:64 *683:73 4.6376 
11 *683:73 *683:83 27.1632 
12 *683:83 *904:A2 40.2728 
13 *683:83 *906:A2 42.2792 
14 *683:73 *683:115 42.2088 
15 *683:115 *892:A2 20 
16 *683:28 *900:A2 40.4576 
*END

*D_NET *668 0.0108437
*CONN
*I *1191:A I *D sg13g2_buf_1
*I *1053:A I *D sg13g2_nand2_1
*I *912:A2 I *D sg13g2_a22oi_1
*I *908:A2 I *D sg13g2_a22oi_1
*I *914:A2 I *D sg13g2_a22oi_1
*I *910:A2 I *D sg13g2_a22oi_1
*I *1353:A I *D sg13g2_buf_1
*I *1338:X O *D sg13g2_buf_1
*CAP
1 *1191:A 0
2 *1053:A 5.14171e-05
3 *912:A2 0.00017907
4 *908:A2 0
5 *914:A2 0
6 *910:A2 0
7 *1353:A 0.000678228
8 *1338:X 0
9 *668:80 0.000738881
10 *668:61 0.000930149
11 *668:16 0.000815879
12 *668:14 0.00047252
13 *668:12 0.000561801
14 *668:8 0.00108138
15 *668:6 0.000815232
16 *912:A2 *1091:D 0
17 *912:A2 *783:22 1.54008e-05
18 *1353:A *910:B2 7.6248e-05
19 *1353:A *683:10 0
20 *668:14 *783:22 7.67102e-05
21 *668:14 *783:24 0.00113213
22 *668:16 *910:B2 0.000377
23 *668:16 *783:24 7.67102e-05
24 *668:80 *778:27 0
25 *830:B1 *668:80 0.000208274
26 *867:C *668:80 0
27 *891:B *668:80 0
28 *913:A *912:A2 0
29 *1054:B *668:80 8.02598e-05
30 *1054:C *1053:A 4.77425e-05
31 *1054:C *668:80 0
32 *67:10 *668:80 0
33 *111:10 *668:80 0.000208274
34 *111:18 *668:80 0
35 *126:8 *668:8 0.00137487
36 *138:14 *1353:A 0.000274233
37 *138:14 *668:14 0
38 *267:34 *1353:A 0
39 *272:14 *1353:A 0
40 *437:10 *668:80 0.000213056
41 *437:12 *668:80 0.000181192
42 *438:14 *668:80 0
43 *438:23 *668:80 0
44 *497:8 *1353:A 0
45 *497:8 *668:14 0
46 *502:10 *1353:A 0.000177032
*RES
1 *1338:X *668:6 40 
2 *668:6 *668:8 7.0576 
3 *668:8 *668:12 2.024 
4 *668:12 *668:14 4.7344 
5 *668:14 *668:16 1.7776 
6 *668:16 *1353:A 46.0632 
7 *668:16 *910:A2 40 
8 *668:14 *914:A2 40 
9 *668:12 *908:A2 40 
10 *668:8 *912:A2 41.1968 
11 *668:6 *668:61 20.9328 
12 *668:61 *1053:A 20.4576 
13 *668:61 *668:80 46.6616 
14 *668:80 *1191:A 20 
*END

*D_NET *604 0.0107684
*CONN
*I *1180:RESET_B I *D sg13g2_dfrbpq_1
*I *1178:RESET_B I *D sg13g2_dfrbpq_1
*I *1179:RESET_B I *D sg13g2_dfrbpq_1
*I *1182:RESET_B I *D sg13g2_dfrbpq_1
*I *1181:RESET_B I *D sg13g2_dfrbpq_1
*I *1176:RESET_B I *D sg13g2_dfrbpq_1
*I *1177:RESET_B I *D sg13g2_dfrbpq_1
*I *1068:RESET_B I *D sg13g2_dfrbpq_1
*I *1190:X O *D sg13g2_buf_1
*CAP
1 *1180:RESET_B 0.000558901
2 *1178:RESET_B 0.000195298
3 *1179:RESET_B 0.000552154
4 *1182:RESET_B 2.77263e-05
5 *1181:RESET_B 0
6 *1176:RESET_B 0
7 *1177:RESET_B 0.000488696
8 *1068:RESET_B 0
9 *1190:X 0.000108682
10 *604:64 0.000743243
11 *604:57 0.000421518
12 *604:48 0.000466211
13 *604:33 0.0010457
14 *604:31 0.00108636
15 *604:27 0.00158
16 *604:12 0.000560822
17 *604:8 0.000190513
18 *1177:RESET_B *1177:CLK 0
19 *1177:RESET_B *676:8 0.000609685
20 *1178:RESET_B *712:26 0
21 *1179:RESET_B *1176:CLK 0
22 *1179:RESET_B *710:14 0
23 *1180:RESET_B *1381:A 0
24 *1180:RESET_B *712:26 0
25 *604:12 *680:47 0
26 *604:27 *680:47 0
27 *604:33 *676:8 0.000962044
28 *604:57 *1176:CLK 0
29 *604:64 *1176:CLK 0
30 *604:64 *710:23 0
31 *790:S *604:12 0
32 *790:S *604:27 0
33 *1039:A1 *604:31 0.000447287
34 *1176:D *604:48 0
35 *1178:D *1178:RESET_B 0
36 *1179:D *1179:RESET_B 0
37 *1181:D *604:48 4.77866e-05
38 *1181:D *604:57 0
39 *61:10 *1180:RESET_B 0
40 *216:16 *604:27 7.90859e-05
41 *216:16 *604:31 7.51285e-05
42 *242:12 *1180:RESET_B 0
43 *298:8 *604:8 0
44 *368:8 *604:8 0.000341724
45 *553:8 *1177:RESET_B 0
46 *553:8 *604:33 0
47 *559:16 *604:31 0.000179811
48 *560:23 *604:31 0
49 *560:25 *1180:RESET_B 0
50 *560:49 *1180:RESET_B 0
*RES
1 *1190:X *604:8 41.3552 
2 *604:8 *604:12 20.6424 
3 *604:12 *1068:RESET_B 20 
4 *604:12 *604:27 44.488 
5 *604:27 *604:31 25.5792 
6 *604:31 *604:33 4.7344 
7 *604:33 *1177:RESET_B 45.8256 
8 *604:33 *604:48 21.936 
9 *604:48 *1176:RESET_B 20 
10 *604:48 *604:57 2.6576 
11 *604:57 *1181:RESET_B 20 
12 *604:57 *604:64 1.5664 
13 *604:64 *1182:RESET_B 20.2992 
14 *604:64 *1179:RESET_B 24.7696 
15 *604:31 *1178:RESET_B 41.5664 
16 *604:27 *1180:RESET_B 24.928 
*END

*D_NET *285 0.00982314
*CONN
*I *1175:RESET_B I *D sg13g2_dfrbpq_1
*I *1172:RESET_B I *D sg13g2_dfrbpq_1
*I *1173:RESET_B I *D sg13g2_dfrbpq_1
*I *1171:RESET_B I *D sg13g2_dfrbpq_1
*I *1168:RESET_B I *D sg13g2_dfrbpq_1
*I *1167:RESET_B I *D sg13g2_dfrbpq_1
*I *1166:RESET_B I *D sg13g2_dfrbpq_1
*I *1165:RESET_B I *D sg13g2_dfrbpq_1
*I *1194:X O *D sg13g2_buf_1
*CAP
1 *1175:RESET_B 0.000175513
2 *1172:RESET_B 0
3 *1173:RESET_B 0
4 *1171:RESET_B 0
5 *1168:RESET_B 0
6 *1167:RESET_B 0
7 *1166:RESET_B 0.000227349
8 *1165:RESET_B 0
9 *1194:X 0.000812285
10 *285:83 0.000428396
11 *285:74 0.00087277
12 *285:65 0.000831932
13 *285:46 0.000740775
14 *285:36 0.00116718
15 *285:18 0.0012227
16 *285:10 0.00142176
17 *285:8 0.000600239
18 *1166:RESET_B *1166:D 0
19 *1166:RESET_B *1166:CLK 0
20 *1166:RESET_B *705:18 0
21 *1175:RESET_B *1175:CLK 0
22 *1175:RESET_B *566:18 0
23 *285:8 *1045:A1 0
24 *285:8 *582:12 0
25 *285:8 *582:27 0.000503551
26 *285:8 *760:10 0
27 *285:18 *1019:B 0
28 *285:18 *1022:A2 8.00842e-05
29 *285:18 *1165:D 0
30 *285:18 *1166:D 0
31 *285:18 *576:14 0.000112535
32 *285:18 *582:44 4.78359e-05
33 *285:18 *705:18 0
34 *285:36 *1014:A 0
35 *285:36 *1168:CLK 0
36 *285:36 *581:26 0
37 *285:46 *1167:D 0
38 *285:46 *1168:CLK 0
39 *285:46 *1170:D 8.03692e-05
40 *285:46 *1170:CLK 0
41 *285:46 *415:12 0
42 *285:46 *577:10 0.000112519
43 *285:65 *1297:A 0
44 *285:74 *1171:CLK 0
45 *285:74 *1173:CLK 0
46 *285:74 *1375:A 0
47 *285:74 *406:8 0
48 *285:74 *564:10 0
49 *285:74 *566:18 0
50 *285:74 *705:8 0
51 *285:83 *1173:CLK 0
52 *285:83 *566:18 0
53 *285:83 *706:18 0
54 *1016:A2 *285:36 0
55 *1022:B1 *285:18 0
56 *1170:RESET_B *285:46 0
57 *1194:A *285:65 0
58 *1401:A *285:46 0
59 *223:10 *285:8 0
60 *227:8 *285:8 0
61 *228:12 *285:36 8.00842e-05
62 *228:27 *285:36 4.77425e-05
63 *229:14 *285:46 0
64 *231:6 *285:18 0
65 *231:8 *285:18 0
66 *233:8 *285:36 0
67 *233:8 *285:46 0.000209769
68 *233:15 *285:18 0
69 *233:15 *285:36 0
70 *233:23 *285:18 4.77425e-05
*RES
1 *1194:X *285:8 45.7904 
2 *285:8 *285:10 20 
3 *285:10 *285:18 8.2192 
4 *285:18 *1165:RESET_B 20 
5 *285:18 *1166:RESET_B 22.2352 
6 *285:10 *285:36 3.5552 
7 *285:36 *285:46 46.9696 
8 *285:46 *1167:RESET_B 20 
9 *285:36 *1168:RESET_B 20 
10 *1194:X *285:65 21.892 
11 *285:65 *1171:RESET_B 20 
12 *285:65 *285:74 5.4032 
13 *285:74 *1173:RESET_B 20 
14 *285:74 *285:83 2.2352 
15 *285:83 *1172:RESET_B 20 
16 *285:83 *1175:RESET_B 21.5664 
*END

*D_NET *192 0.00754683
*CONN
*I *1157:RESET_B I *D sg13g2_dfrbpq_1
*I *1169:RESET_B I *D sg13g2_dfrbpq_1
*I *1162:RESET_B I *D sg13g2_dfrbpq_1
*I *1155:RESET_B I *D sg13g2_dfrbpq_1
*I *1170:RESET_B I *D sg13g2_dfrbpq_1
*I *1164:RESET_B I *D sg13g2_dfrbpq_1
*I *1163:RESET_B I *D sg13g2_dfrbpq_1
*I *1156:RESET_B I *D sg13g2_dfrbpq_1
*I *965:X O *D sg13g2_buf_1
*CAP
1 *1157:RESET_B 0.000410998
2 *1169:RESET_B 0.000402738
3 *1162:RESET_B 0
4 *1155:RESET_B 0
5 *1170:RESET_B 0.000415504
6 *1164:RESET_B 0
7 *1163:RESET_B 0
8 *1156:RESET_B 0.000246988
9 *965:X 0.000668356
10 *192:65 0.000737676
11 *192:38 0.000775128
12 *192:22 0.000410174
13 *192:20 0.000942095
14 *192:16 0.000589755
15 *192:10 0.000762766
16 *1156:RESET_B *1156:CLK 0
17 *1156:RESET_B *1163:D 0
18 *1156:RESET_B *1403:A 0
19 *1156:RESET_B *1405:A 0
20 *1157:RESET_B *1162:CLK 0.000339376
21 *1157:RESET_B *596:8 0
22 *1169:RESET_B *1157:D 0
23 *1169:RESET_B *1169:D 0
24 *1169:RESET_B *1364:A 0
25 *1169:RESET_B *693:39 0.000144999
26 *1170:RESET_B *1164:CLK 0
27 *1170:RESET_B *1167:CLK 0
28 *1170:RESET_B *1170:D 0
29 *1170:RESET_B *1170:CLK 0
30 *1170:RESET_B *285:46 0
31 *192:10 *596:8 0
32 *192:10 *690:14 0.000289418
33 *192:16 *689:8 0
34 *192:20 *689:8 0
35 *192:22 *1163:D 0
36 *192:22 *1163:CLK 0
37 *192:22 *1403:A 0
38 *192:38 *1323:A 0
39 *192:65 *1162:D 0
40 *157:20 *1157:RESET_B 2.43395e-05
41 *157:20 *1169:RESET_B 0
42 *157:20 *192:65 0
43 *157:24 *1157:RESET_B 0.000111838
44 *157:24 *192:65 0
45 *157:28 *192:10 0
46 *157:28 *192:65 0.000274677
*RES
1 *965:X *192:10 42.7632 
2 *192:10 *192:16 1.9272 
3 *192:16 *192:20 24.5232 
4 *192:20 *192:22 1.5664 
5 *192:22 *1156:RESET_B 22.4464 
6 *192:22 *1163:RESET_B 20 
7 *192:20 *192:38 3.4144 
8 *192:38 *1164:RESET_B 20 
9 *192:38 *1170:RESET_B 24.0128 
10 *192:16 *1155:RESET_B 40 
11 *192:10 *192:65 23.2296 
12 *192:65 *1162:RESET_B 20 
13 *192:65 *1169:RESET_B 23.7136 
14 *965:X *1157:RESET_B 43.432 
*END

*D_NET *157 0.0137219
*CONN
*I *1194:A I *D sg13g2_buf_1
*I *1070:RESET_B I *D sg13g2_dfrbpq_1
*I *1158:RESET_B I *D sg13g2_dfrbpq_1
*I *1159:RESET_B I *D sg13g2_dfrbpq_1
*I *1071:RESET_B I *D sg13g2_dfrbpq_1
*I *965:A I *D sg13g2_buf_1
*I *1161:RESET_B I *D sg13g2_dfrbpq_1
*I *1160:RESET_B I *D sg13g2_dfrbpq_1
*I *922:X O *D sg13g2_buf_1
*CAP
1 *1194:A 0.000143043
2 *1070:RESET_B 2.77263e-05
3 *1158:RESET_B 0
4 *1159:RESET_B 0.000365261
5 *1071:RESET_B 0.000327069
6 *965:A 0
7 *1161:RESET_B 0.00040622
8 *1160:RESET_B 0
9 *922:X 0.00075025
10 *157:70 0.00113113
11 *157:51 0.00183327
12 *157:28 0.00103357
13 *157:24 0.000772341
14 *157:20 0.00207109
15 *157:14 0.00137153
16 *157:12 0.000301078
17 *157:10 0.00075025
18 *1071:RESET_B *659:10 0.000436017
19 *1159:RESET_B *981:A 0
20 *1159:RESET_B *981:B 4.77863e-05
21 *1159:RESET_B *1047:B 0
22 *1159:RESET_B *1159:D 0
23 *1159:RESET_B *1159:CLK 0
24 *1159:RESET_B *203:6 0
25 *1159:RESET_B *587:12 0
26 *1159:RESET_B *591:12 0.000193599
27 *1159:RESET_B *591:24 8.0216e-05
28 *1161:RESET_B *1161:D 0
29 *1161:RESET_B *1161:CLK 0
30 *1194:A *285:65 0
31 *157:10 *789:A0 0
32 *157:10 *789:S 0
33 *157:10 *1045:A1 0
34 *157:10 *1171:D 0
35 *157:10 *411:18 0
36 *157:10 *414:10 0
37 *157:10 *550:52 0
38 *157:10 *572:19 0
39 *157:10 *572:28 0
40 *157:10 *586:10 0
41 *157:10 *684:20 0
42 *157:14 *414:10 0
43 *157:20 *1070:CLK 0
44 *157:20 *1157:RESET_B 2.43395e-05
45 *157:20 *1157:D 0
46 *157:20 *1162:CLK 0
47 *157:20 *1169:RESET_B 0
48 *157:20 *1169:CLK 0.000131027
49 *157:20 *1364:A 0
50 *157:20 *192:65 0
51 *157:20 *416:10 0
52 *157:20 *505:18 0
53 *157:20 *628:8 0
54 *157:24 *1157:RESET_B 0.000111838
55 *157:24 *192:65 0
56 *157:24 *596:8 0
57 *157:28 *1155:D 0
58 *157:28 *1162:D 0
59 *157:28 *1359:A 0.000209713
60 *157:28 *192:10 0
61 *157:28 *192:65 0.000274677
62 *157:28 *689:35 0
63 *157:51 *584:10 0
64 *157:51 *596:21 0
65 *157:51 *596:32 0
66 *157:51 *598:22 0.000181192
67 *157:70 *1047:A 0
68 *157:70 *1047:B 0
69 *157:70 *1048:S 0
70 *157:70 *1360:A 0.000565586
71 *157:70 *598:22 0.000182121
72 *157:70 *659:10 0
73 *157:70 *692:16 0
74 *1070:D *1194:A 0
75 *1071:D *1071:RESET_B 0
76 *1071:D *157:70 0
*RES
1 *922:X *157:10 47.5416 
2 *157:10 *157:12 20 
3 *157:12 *157:14 1.3816 
4 *157:14 *157:20 9.5304 
5 *157:20 *157:24 1.496 
6 *157:24 *157:28 6.0104 
7 *157:28 *1160:RESET_B 20 
8 *157:28 *1161:RESET_B 23.9248 
9 *157:24 *965:A 20 
10 *157:20 *157:51 26.424 
11 *157:51 *1071:RESET_B 42.7896 
12 *157:51 *157:70 27.4184 
13 *157:70 *1159:RESET_B 23.4144 
14 *157:70 *1158:RESET_B 20 
15 *157:14 *1070:RESET_B 20.2992 
16 *157:12 *1194:A 21.3904 
*END

*D_NET *657 0.0125393
*CONN
*I *1072:RESET_B I *D sg13g2_dfrbpq_1
*I *1075:RESET_B I *D sg13g2_dfrbpq_1
*I *1079:RESET_B I *D sg13g2_dfrbpq_1
*I *1077:RESET_B I *D sg13g2_dfrbpq_1
*I *1076:RESET_B I *D sg13g2_dfrbpq_1
*I *1078:RESET_B I *D sg13g2_dfrbpq_1
*I *1074:RESET_B I *D sg13g2_dfrbpq_1
*I *1073:RESET_B I *D sg13g2_dfrbpq_1
*I *1189:X O *D sg13g2_buf_1
*CAP
1 *1072:RESET_B 4.67438e-05
2 *1075:RESET_B 0.000156114
3 *1079:RESET_B 0.000166067
4 *1077:RESET_B 0.000236444
5 *1076:RESET_B 0
6 *1078:RESET_B 3.77166e-05
7 *1074:RESET_B 6.5611e-05
8 *1073:RESET_B 0.000772336
9 *1189:X 0.00066333
10 *657:75 0.000392981
11 *657:59 0.000671284
12 *657:55 0.00104923
13 *657:44 0.00114295
14 *657:31 0.00103843
15 *657:25 0.000526689
16 *657:12 0.00150444
17 *1073:RESET_B *1398:A 0
18 *1074:RESET_B *685:89 0.000112046
19 *1075:RESET_B *1390:A 0
20 *1075:RESET_B *720:29 0
21 *1077:RESET_B *971:B1 0
22 *1077:RESET_B *739:14 0.00033953
23 *1079:RESET_B *1075:D 0.000242154
24 *1079:RESET_B *1079:D 0
25 *657:12 *1314:A 0.00037198
26 *657:44 *685:89 0.000592037
27 *657:44 *717:12 0
28 *657:55 *717:12 0
29 *657:55 *749:8 0
30 *657:55 *765:24 0
31 *657:59 *1076:D 0
32 *657:59 *1390:A 0
33 *657:59 *739:14 0
34 *657:75 *749:8 0
35 *657:75 *765:24 0
36 intr_gpio_o[1] *1073:RESET_B 0
37 *801:A *657:12 0
38 *836:A0 *1072:RESET_B 0.000144573
39 *836:A0 *1073:RESET_B 0
40 *848:A1 *657:55 0
41 *917:A *1075:RESET_B 0
42 *936:A2 *1079:RESET_B 0
43 *936:A2 *657:59 0
44 *971:A1 *657:55 0
45 *974:B *1073:RESET_B 0
46 *975:A2 *1073:RESET_B 0
47 *977:A2 *1073:RESET_B 0
48 *1072:D *1073:RESET_B 0.000112116
49 *1074:D *1074:RESET_B 7.97045e-05
50 *1074:D *657:44 0.00012941
51 *1422:A *657:12 0
52 *59:10 *1073:RESET_B 0
53 *86:8 *657:12 0
54 *159:21 *657:44 0.000554906
55 *159:21 *657:55 0.000448842
56 *187:31 *657:12 0
57 *187:31 *657:25 0
58 *187:31 *657:31 0
59 *187:31 *657:44 0
60 *193:8 *657:44 0
61 *257:12 *657:55 0
62 *282:12 *657:12 0.000760389
63 *282:20 *1073:RESET_B 0
64 *346:16 *657:44 0
65 *346:38 *1073:RESET_B 0
66 *395:20 *1073:RESET_B 0
67 *396:10 *657:25 0
68 *402:18 *657:44 0.000181192
*RES
1 *1189:X *657:12 46.5736 
2 *657:12 *1073:RESET_B 46.512 
3 *657:12 *657:25 0.7216 
4 *657:25 *657:31 23.74 
5 *657:31 *1074:RESET_B 20.6424 
6 *657:31 *657:44 26.6176 
7 *657:44 *1078:RESET_B 40.2728 
8 *657:44 *657:55 6.0016 
9 *657:55 *657:59 23.5992 
10 *657:59 *1076:RESET_B 20 
11 *657:59 *1077:RESET_B 22.4464 
12 *657:55 *657:75 0.7216 
13 *657:75 *1079:RESET_B 41.6808 
14 *657:75 *1075:RESET_B 41.4168 
15 *657:25 *1072:RESET_B 40.8272 
*END

*D_NET *660 0.0123615
*CONN
*I *1086:RESET_B I *D sg13g2_dfrbpq_1
*I *1087:RESET_B I *D sg13g2_dfrbpq_1
*I *1088:RESET_B I *D sg13g2_dfrbpq_1
*I *1083:RESET_B I *D sg13g2_dfrbpq_1
*I *1084:RESET_B I *D sg13g2_dfrbpq_1
*I *1089:RESET_B I *D sg13g2_dfrbpq_1
*I *1085:RESET_B I *D sg13g2_dfrbpq_1
*I *1082:RESET_B I *D sg13g2_dfrbpq_1
*I *1330:X O *D sg13g2_buf_1
*CAP
1 *1086:RESET_B 0
2 *1087:RESET_B 0.000649365
3 *1088:RESET_B 0
4 *1083:RESET_B 0
5 *1084:RESET_B 0
6 *1089:RESET_B 0
7 *1085:RESET_B 7.17604e-05
8 *1082:RESET_B 4.37077e-05
9 *1330:X 0.00080832
10 *660:121 0.000126436
11 *660:97 0.00107832
12 *660:87 0.00095582
13 *660:72 0.000537267
14 *660:58 0.000476753
15 *660:39 0.00104099
16 *660:29 0.00076706
17 *660:25 0.000576358
18 *660:12 0.00101696
19 *1087:RESET_B *1087:CLK 0
20 *1087:RESET_B *1088:CLK 0
21 *1087:RESET_B *716:6 0
22 *1087:RESET_B *716:40 0.000337026
23 *660:12 *1347:A 0
24 *660:12 *664:71 0.000436637
25 *660:12 *680:121 0
26 *660:12 *771:14 0.000129225
27 *660:29 *1385:A 0
28 *660:39 *1089:CLK 6.96421e-05
29 *660:39 *715:10 0
30 *660:58 *1089:CLK 0
31 *660:72 *1385:A 0
32 *660:87 *1083:CLK 0
33 *660:87 *1385:A 0
34 *660:97 *1385:A 0.000328119
35 *660:97 *1386:A 0.000304509
36 *660:97 *716:40 0.000561931
37 *660:97 *719:8 0
38 *660:121 *1385:A 0
39 *916:A *660:58 0
40 *939:A *660:58 7.98201e-05
41 *963:B1 *660:12 0.000825685
42 *151:10 *1085:RESET_B 0.000117802
43 *151:10 *660:58 0.000209763
44 *156:72 *1082:RESET_B 8.00842e-05
45 *166:8 *660:97 0
46 *170:8 *1085:RESET_B 0
47 *181:8 *660:25 0
48 *185:8 *660:12 0
49 *284:16 *660:58 0.000288713
50 *403:10 *660:29 0.000112426
51 *403:10 *660:39 0.000208083
52 *407:12 *660:58 0
53 *609:16 *660:58 0
54 *609:23 *660:58 0
55 *609:44 *1085:RESET_B 4.28304e-05
56 *609:44 *660:39 0
57 *609:63 *1082:RESET_B 1.54008e-05
58 *609:63 *660:29 0
59 *609:69 *660:25 0
60 *609:76 *1082:RESET_B 6.46834e-05
61 *609:76 *660:72 0
62 *609:91 *660:87 0
*RES
1 *1330:X *660:12 48.1576 
2 *660:12 *1082:RESET_B 40.4576 
3 *660:12 *660:25 21.5664 
4 *660:25 *660:29 2.6048 
5 *660:29 *660:39 24.708 
6 *660:39 *1085:RESET_B 40.7546 
7 *660:39 *660:58 44.3736 
8 *660:58 *1089:RESET_B 40 
9 *660:29 *1084:RESET_B 20 
10 *660:25 *660:72 1.1968 
11 *660:72 *1083:RESET_B 20 
12 *660:72 *660:87 43.4584 
13 *660:87 *660:97 44.356 
14 *660:97 *1088:RESET_B 20 
15 *660:97 *1087:RESET_B 26.0368 
16 *660:87 *660:121 41.4168 
17 *660:121 *1086:RESET_B 20 
*END

*D_NET *116 0.0133686
*CONN
*I *1330:A I *D sg13g2_buf_1
*I *1127:RESET_B I *D sg13g2_dfrbpq_1
*I *1142:RESET_B I *D sg13g2_dfrbpq_1
*I *1148:RESET_B I *D sg13g2_dfrbpq_1
*I *1149:RESET_B I *D sg13g2_dfrbpq_1
*I *1150:RESET_B I *D sg13g2_dfrbpq_1
*I *1135:RESET_B I *D sg13g2_dfrbpq_1
*I *1143:RESET_B I *D sg13g2_dfrbpq_1
*I *850:X O *D sg13g2_buf_1
*CAP
1 *1330:A 0.000153765
2 *1127:RESET_B 0
3 *1142:RESET_B 0
4 *1148:RESET_B 0
5 *1149:RESET_B 0
6 *1150:RESET_B 0
7 *1135:RESET_B 0.000382471
8 *1143:RESET_B 2.82028e-05
9 *850:X 0.000235898
10 *116:94 8.24855e-05
11 *116:88 0.000286927
12 *116:80 0.000661062
13 *116:63 0.000652965
14 *116:56 0.000224585
15 *116:50 0.000751745
16 *116:35 0.00124588
17 *116:22 0.00115135
18 *116:18 0.00149406
19 *116:10 0.00129317
20 *1135:RESET_B *1133:RESET_B 0
21 *1135:RESET_B *350:16 0
22 *1135:RESET_B *354:38 0
23 *1135:RESET_B *677:20 4.76456e-05
24 *116:10 *949:B1 0.00020907
25 *116:10 *949:A2 0
26 *116:10 *680:121 0
27 *116:18 *949:B1 0
28 *116:18 *950:B2 0
29 *116:18 *950:A1 0.00011236
30 *116:18 *680:121 0
31 *116:22 *950:B1 0
32 *116:22 *950:A1 0
33 *116:22 *365:22 0
34 *116:22 *407:12 0
35 *116:22 *664:18 0.000306794
36 *116:35 *1035:C 0
37 *116:35 *272:18 0
38 *116:35 *272:28 0.000661386
39 *116:35 *284:16 0
40 *116:35 *354:38 0
41 *116:35 *713:14 0.000980408
42 *116:35 *713:29 0
43 *116:50 *1132:CLK 0
44 *116:50 *1186:CLK 0
45 *116:50 *677:20 0.000561806
46 *116:56 *238:8 0
47 *116:56 *367:38 0.000128247
48 *116:63 *677:20 0.000337137
49 *116:80 *360:12 0
50 *116:80 *360:24 0.000180682
51 *116:80 *367:52 0
52 *116:80 *677:20 0.000578004
53 *116:88 *364:33 0.000127744
54 *116:88 *677:10 0
55 *116:94 *677:10 0
56 *1064:S *116:22 0
57 *1355:A *116:22 0
58 *74:10 *1143:RESET_B 4.77425e-05
59 *74:10 *116:22 0.0002095
60 *76:10 *116:35 0.00023547
61 *83:8 *116:94 0
62 *106:27 *116:18 0
63 *113:64 *1143:RESET_B 0
64 *113:64 *116:22 0
*RES
1 *850:X *116:10 42.3144 
2 *116:10 *116:18 27.788 
3 *116:18 *116:22 5.588 
4 *116:22 *1143:RESET_B 20.2728 
5 *116:22 *116:35 46.8464 
6 *116:35 *1135:RESET_B 23.8104 
7 *116:35 *116:50 3.2296 
8 *116:50 *116:56 42.2 
9 *116:56 *1150:RESET_B 20 
10 *116:50 *116:63 1.936 
11 *116:63 *1149:RESET_B 20 
12 *116:63 *116:80 44.312 
13 *116:80 *116:88 42.0768 
14 *116:88 *116:94 40.7216 
15 *116:94 *1148:RESET_B 20 
16 *116:80 *1142:RESET_B 20 
17 *116:18 *1127:RESET_B 20 
18 *116:10 *1330:A 41.5664 
*END

*D_NET *114 0.0123568
*CONN
*I *1141:RESET_B I *D sg13g2_dfrbpq_1
*I *850:A I *D sg13g2_buf_1
*I *1126:RESET_B I *D sg13g2_dfrbpq_1
*I *1124:RESET_B I *D sg13g2_dfrbpq_1
*I *1125:RESET_B I *D sg13g2_dfrbpq_1
*I *1140:RESET_B I *D sg13g2_dfrbpq_1
*I *1147:RESET_B I *D sg13g2_dfrbpq_1
*I *833:X O *D sg13g2_buf_1
*CAP
1 *1141:RESET_B 0
2 *850:A 0.000485187
3 *1126:RESET_B 5.68911e-05
4 *1124:RESET_B 0.000186173
5 *1125:RESET_B 0.000442433
6 *1140:RESET_B 0.000590133
7 *1147:RESET_B 5.70478e-05
8 *833:X 0.000637555
9 *114:54 0.000777019
10 *114:48 0.00034514
11 *114:44 0.00101781
12 *114:40 0.000805959
13 *114:19 0.00129665
14 *114:8 0.000987942
15 *850:A *849:A0 0
16 *850:A *849:A1 7.98567e-05
17 *850:A *949:A2 0.000176629
18 *850:A *670:12 0
19 *1124:RESET_B *949:A2 0
20 *1124:RESET_B *1126:CLK 0.000209856
21 *1124:RESET_B *680:121 0
22 *1125:RESET_B *926:A1 0
23 *1125:RESET_B *949:A2 0.000695788
24 *1125:RESET_B *1126:CLK 0
25 *1125:RESET_B *680:97 0
26 *1125:RESET_B *680:106 0
27 *1125:RESET_B *680:115 0
28 *1126:RESET_B *847:A1 0
29 *1126:RESET_B *849:A0 0.000112733
30 *1140:RESET_B *834:A 0
31 *1140:RESET_B *836:A0 0.000273979
32 *1140:RESET_B *837:A1 0
33 *1140:RESET_B *282:12 0
34 *1140:RESET_B *395:30 4.77425e-05
35 *1140:RESET_B *685:77 8.01938e-05
36 *114:8 *1147:D 0
37 *114:8 *280:16 0
38 *114:8 *280:29 0
39 *114:8 *362:20 0.000182023
40 *114:8 *711:28 0
41 *114:19 *1147:CLK 0
42 *114:19 *362:20 0.000820482
43 *114:19 *711:28 0
44 *114:40 *348:16 0
45 *114:40 *362:20 0.000716033
46 *114:40 *685:55 0
47 *114:40 *685:68 0
48 *114:44 *348:25 0
49 *114:44 *359:42 0.00103344
50 *114:44 *364:19 0
51 *114:48 *847:A1 0
52 *114:48 *849:A0 0.00024211
53 *114:54 *364:19 0
54 *1124:D *850:A 0
55 *1126:D *1126:RESET_B 0
*RES
1 *833:X *114:8 45.1568 
2 *114:8 *1147:RESET_B 40.4576 
3 *114:8 *114:19 3.256 
4 *114:19 *1140:RESET_B 45.2096 
5 *114:19 *114:40 24.0304 
6 *114:40 *114:44 24.9456 
7 *114:44 *114:48 21.3816 
8 *114:48 *114:54 41.5664 
9 *114:54 *1125:RESET_B 24.268 
10 *114:54 *1124:RESET_B 21.6808 
11 *114:48 *1126:RESET_B 20.6424 
12 *114:44 *850:A 43.9512 
13 *114:40 *1141:RESET_B 20 
*END

*D_NET *658 0.0107814
*CONN
*I *1128:RESET_B I *D sg13g2_dfrbpq_1
*I *1099:RESET_B I *D sg13g2_dfrbpq_1
*I *1101:RESET_B I *D sg13g2_dfrbpq_1
*I *1098:RESET_B I *D sg13g2_dfrbpq_1
*I *1100:RESET_B I *D sg13g2_dfrbpq_1
*I *1129:RESET_B I *D sg13g2_dfrbpq_1
*I *1131:RESET_B I *D sg13g2_dfrbpq_1
*I *1130:RESET_B I *D sg13g2_dfrbpq_1
*I *1328:X O *D sg13g2_buf_1
*CAP
1 *1128:RESET_B 0.000550631
2 *1099:RESET_B 0
3 *1101:RESET_B 0
4 *1098:RESET_B 0
5 *1100:RESET_B 0.000131762
6 *1129:RESET_B 0
7 *1131:RESET_B 0
8 *1130:RESET_B 0.000241008
9 *1328:X 0
10 *658:100 0.000919028
11 *658:80 0.000512504
12 *658:59 0.000644266
13 *658:57 0.00064629
14 *658:47 0.00135379
15 *658:22 0.000516219
16 *658:18 0.000614449
17 *658:10 0.00155216
18 *658:4 0.000873824
19 *1100:RESET_B *690:8 0
20 *1100:RESET_B *690:29 0.000238326
21 *1128:RESET_B *680:27 0
22 *1128:RESET_B *684:51 0
23 *1130:RESET_B *1130:CLK 0
24 *658:18 *666:27 0
25 *658:47 *1131:CLK 0
26 *658:47 *696:29 0
27 *658:57 *690:6 0
28 *658:57 *690:8 0
29 *658:80 *1339:A 0
30 *658:80 *1391:A 0
31 *658:80 *690:29 0.000159737
32 *658:100 *680:27 0
33 *789:S *658:18 8.03692e-05
34 *789:S *658:22 0
35 *845:A1 *658:22 0
36 *893:B *658:80 0
37 *894:B1 *658:47 0
38 *894:B1 *658:57 0
39 *896:B1 *658:47 0
40 *896:A1 *658:47 0
41 *898:B1 *658:10 0
42 *898:B1 *658:100 0
43 *1098:D *658:80 0
44 *1099:D *658:10 0
45 *1099:D *658:47 0.000336667
46 *1099:D *658:100 0
47 *1101:D *658:57 0
48 *1101:D *658:80 0.000143273
49 *1128:D *1128:RESET_B 0
50 *1129:D *1130:RESET_B 0
51 *1129:D *658:22 8.02379e-05
52 *1130:D *1130:RESET_B 0
53 *1131:D *1130:RESET_B 0
54 *1131:D *658:22 0
55 *36:10 *1100:RESET_B 0
56 *36:10 *658:80 0
57 *270:12 *658:100 0
58 *272:14 *658:57 0
59 *356:8 *658:47 0
60 *357:6 *658:47 0
61 *358:25 *658:47 0
62 *358:25 *658:57 0
63 *358:37 *658:57 0
64 *358:37 *658:80 0.00094988
65 *411:18 *658:18 0
66 *413:14 *1128:RESET_B 0
67 *574:10 *658:10 0
68 *574:10 *658:100 0.000236962
*RES
1 *1328:X *658:4 20 
2 *658:4 *658:10 24.5056 
3 *658:10 *658:18 23.3528 
4 *658:18 *658:22 2.6576 
5 *658:22 *1130:RESET_B 22.0768 
6 *658:22 *1131:RESET_B 20 
7 *658:18 *1129:RESET_B 20 
8 *658:10 *658:47 26.3272 
9 *658:47 *658:57 45.6496 
10 *658:57 *658:59 20 
11 *658:59 *1100:RESET_B 41.3904 
12 *658:59 *658:80 45.544 
13 *658:80 *1098:RESET_B 40 
14 *658:47 *1101:RESET_B 20 
15 *658:4 *658:100 43.476 
16 *658:100 *1099:RESET_B 20 
17 *658:100 *1128:RESET_B 24.4352 
*END

*D_NET *127 0.0151565
*CONN
*I *1133:RESET_B I *D sg13g2_dfrbpq_1
*I *1132:RESET_B I *D sg13g2_dfrbpq_1
*I *1139:RESET_B I *D sg13g2_dfrbpq_1
*I *1097:RESET_B I *D sg13g2_dfrbpq_1
*I *1094:RESET_B I *D sg13g2_dfrbpq_1
*I *1095:RESET_B I *D sg13g2_dfrbpq_1
*I *1096:RESET_B I *D sg13g2_dfrbpq_1
*I *1092:RESET_B I *D sg13g2_dfrbpq_1
*I *869:X O *D sg13g2_buf_1
*CAP
1 *1133:RESET_B 0.000516578
2 *1132:RESET_B 0.000458295
3 *1139:RESET_B 0
4 *1097:RESET_B 0
5 *1094:RESET_B 0
6 *1095:RESET_B 0.000541661
7 *1096:RESET_B 2.77263e-05
8 *1092:RESET_B 0
9 *869:X 0.00104204
10 *127:69 0.000134985
11 *127:56 0.000951307
12 *127:45 0.00104945
13 *127:39 0.00139102
14 *127:33 0.00097791
15 *127:29 0.000856082
16 *127:27 0.00107292
17 *127:18 0.00153456
18 *1095:RESET_B *904:B1 0
19 *1095:RESET_B *905:A 0
20 *1095:RESET_B *907:B 0.000598526
21 *1095:RESET_B *351:42 0
22 *1095:RESET_B *680:216 0
23 *1132:RESET_B *910:B1 0.000274452
24 *1132:RESET_B *349:29 0.000598658
25 *1132:RESET_B *675:57 0
26 *1133:RESET_B *1139:CLK 0
27 *1133:RESET_B *354:12 0
28 *1133:RESET_B *354:38 0
29 *1133:RESET_B *675:57 0
30 *127:18 tl_o[26] 1.54008e-05
31 *127:18 *911:A 0.000112436
32 *127:18 *911:B 0
33 *127:18 *1249:A 0
34 *127:18 *499:14 0
35 *127:18 *675:57 0
36 *127:18 *675:67 0
37 *127:18 *679:22 0.000209115
38 *127:18 *679:38 0
39 *127:18 *679:51 0
40 *127:27 *910:B1 0
41 *127:27 *675:57 0.000922617
42 *127:33 *354:12 0
43 *127:39 *267:34 0
44 *127:39 *272:14 0
45 *127:39 *353:24 0
46 *127:39 *411:18 0
47 *127:39 *683:28 0
48 *127:39 *683:30 0
49 *127:45 *902:B1 0
50 *127:45 *902:B2 0
51 *127:45 *902:A1 4.77425e-05
52 *127:45 *903:A 4.77425e-05
53 *127:45 *903:B 0
54 *127:45 *904:B1 0
55 *127:45 *351:42 0
56 *127:45 *353:24 0
57 *127:45 *411:18 0
58 *127:45 *505:10 0.000144573
59 *127:56 *904:B1 0
60 *127:56 *351:42 0
61 *127:69 *272:14 0
62 *1090:D *127:18 7.09197e-05
63 *1092:D *127:18 0
64 *1094:D *1095:RESET_B 7.10607e-05
65 *1097:D *127:45 0
66 *1135:RESET_B *1133:RESET_B 0
67 *9:10 *1132:RESET_B 0.000825422
68 *9:10 *127:27 0.000663275
*RES
1 *869:X *127:18 29.1168 
2 *127:18 *1092:RESET_B 20 
3 *127:18 *127:27 25.2624 
4 *127:27 *127:29 0.5104 
5 *127:29 *127:33 22.6224 
6 *127:33 *127:39 25.6144 
7 *127:39 *127:45 26.0368 
8 *127:45 *1096:RESET_B 20.2992 
9 *127:45 *127:56 2.6576 
10 *127:56 *1095:RESET_B 24.8928 
11 *127:56 *127:69 41.144 
12 *127:69 *1094:RESET_B 20 
13 *127:39 *1097:RESET_B 40 
14 *127:33 *1139:RESET_B 20 
15 *127:29 *1132:RESET_B 44.8928 
16 *127:27 *1133:RESET_B 44.3472 
*END

*D_NET *297 0.0142333
*CONN
*I *1080:RESET_B I *D sg13g2_dfrbpq_1
*I *1081:RESET_B I *D sg13g2_dfrbpq_1
*I *1123:RESET_B I *D sg13g2_dfrbpq_1
*I *1121:RESET_B I *D sg13g2_dfrbpq_1
*I *1119:RESET_B I *D sg13g2_dfrbpq_1
*I *1067:RESET_B I *D sg13g2_dfrbpq_1
*I *1091:RESET_B I *D sg13g2_dfrbpq_1
*I *1093:RESET_B I *D sg13g2_dfrbpq_1
*I *1198:X O *D sg13g2_buf_1
*CAP
1 *1080:RESET_B 0.00013861
2 *1081:RESET_B 0
3 *1123:RESET_B 0
4 *1121:RESET_B 0.00109721
5 *1119:RESET_B 0.000111804
6 *1067:RESET_B 3.4601e-05
7 *1091:RESET_B 0.000349491
8 *1093:RESET_B 0
9 *1198:X 0.000316551
10 *297:102 0.000211344
11 *297:80 0.001343
12 *297:72 0.000589386
13 *297:59 0.000580211
14 *297:57 0.000867542
15 *297:47 0.000879108
16 *297:34 0.000558306
17 *297:23 0.00100667
18 *297:10 0.000659136
19 *1080:RESET_B *868:A 0
20 *1080:RESET_B *1080:D 0
21 *1091:RESET_B *308:32 0
22 *1119:RESET_B *703:10 1.54556e-05
23 *1121:RESET_B *1118:RESET_B 0
24 *1121:RESET_B *1221:A 0.000884297
25 *1121:RESET_B *655:16 0
26 *1121:RESET_B *667:73 0
27 *297:10 *1248:A 0
28 *297:10 *1372:A 0
29 *297:23 *498:8 0.000182023
30 *297:34 *498:8 0.000395897
31 *297:47 *1067:CLK 0.000394566
32 *297:57 *1080:D 0
33 *297:57 *1081:D 0
34 *297:57 *746:10 0
35 *297:57 *786:8 0
36 *297:59 *746:10 0
37 *297:72 *703:10 0
38 *297:72 *746:10 0
39 *297:80 *1123:D 0
40 *297:80 *531:30 0
41 *297:80 *680:282 0
42 *297:80 *703:10 0
43 *297:102 *703:10 0
44 *297:102 *703:25 0.000127744
45 *297:102 *703:38 1.54008e-05
46 *1059:S *1121:RESET_B 0.000626567
47 *1425:A *297:57 0
48 *18:8 *297:57 0
49 *18:8 *297:102 0
50 *43:10 *297:10 0.000235902
51 *43:10 *297:23 0.000128334
52 *67:10 *1080:RESET_B 0.000242055
53 *67:10 *297:57 0.000306925
54 *71:12 *297:80 0.000234166
55 *77:8 *297:34 0.000235556
56 *77:8 *297:47 0.000851833
57 *77:8 *297:57 0
58 *100:56 *1121:RESET_B 0
59 *100:56 *297:57 0
60 *100:56 *297:72 0
61 *100:56 *297:80 0.000306805
62 *125:10 *1119:RESET_B 0
63 *125:10 *297:57 0
64 *125:10 *297:59 0
65 *126:18 *1091:RESET_B 0.000306794
*RES
1 *1198:X *297:10 42.948 
2 *297:10 *1093:RESET_B 40 
3 *297:10 *297:23 3.4056 
4 *297:23 *1091:RESET_B 43.2296 
5 *297:23 *297:34 4.1008 
6 *297:34 *1067:RESET_B 40.2728 
7 *297:34 *297:47 23.4672 
8 *297:47 *297:57 45.2272 
9 *297:57 *297:59 1.012 
10 *297:59 *1119:RESET_B 21.1792 
11 *297:59 *297:72 3.0272 
12 *297:72 *297:80 42.684 
13 *297:80 *1121:RESET_B 30.1816 
14 *297:72 *1123:RESET_B 20 
15 *297:57 *297:102 42.0504 
16 *297:102 *1081:RESET_B 20 
17 *297:47 *1080:RESET_B 21.3816 
*END

*D_NET *671 0.0135046
*CONN
*I *1110:RESET_B I *D sg13g2_dfrbpq_1
*I *1106:RESET_B I *D sg13g2_dfrbpq_1
*I *1107:RESET_B I *D sg13g2_dfrbpq_1
*I *1108:RESET_B I *D sg13g2_dfrbpq_1
*I *1105:RESET_B I *D sg13g2_dfrbpq_1
*I *1104:RESET_B I *D sg13g2_dfrbpq_1
*I *1103:RESET_B I *D sg13g2_dfrbpq_1
*I *1109:RESET_B I *D sg13g2_dfrbpq_1
*I *1341:X O *D sg13g2_buf_1
*CAP
1 *1110:RESET_B 0
2 *1106:RESET_B 0.000385956
3 *1107:RESET_B 0.000459122
4 *1108:RESET_B 0
5 *1105:RESET_B 0
6 *1104:RESET_B 0.000618828
7 *1103:RESET_B 0.00051952
8 *1109:RESET_B 0.000179489
9 *1341:X 0.000392663
10 *671:70 0.000636787
11 *671:61 0.000416382
12 *671:55 0.0012789
13 *671:40 0.00145429
14 *671:38 0.000181241
15 *671:25 0.00109425
16 *671:12 0.00114688
17 *671:12 *679:72 0.00020973
18 tl_o[26] *671:12 0
19 tl_o[29] *1103:RESET_B 0.000857807
20 tl_o[32] *1107:RESET_B 0
21 tl_o[32] *671:61 0.000274583
22 tl_o[32] *671:70 0.000274583
23 tl_o[34] *1107:RESET_B 0
24 tl_o[35] *1106:RESET_B 0.000663659
25 tl_o[36] *671:12 0
26 tl_o[37] *1109:RESET_B 0.000291377
27 tl_o[37] *671:12 0.000119228
28 tl_o[44] *1109:RESET_B 0
29 *882:A2 *1106:RESET_B 0
30 *884:A1 *1106:RESET_B 0
31 *885:A *671:12 0
32 *1104:D *1104:RESET_B 0
33 *1110:D *1103:RESET_B 1.54556e-05
34 *1231:A *1109:RESET_B 0
35 *1231:A *671:12 0
36 *1438:A *1104:RESET_B 0
37 *26:10 *671:55 0.000237686
38 *30:10 *1106:RESET_B 0
39 *133:8 *671:55 0
40 *134:8 *671:55 0
41 *267:34 *1104:RESET_B 0
42 *267:34 *671:40 0
43 *286:24 *1106:RESET_B 1.54008e-05
44 *517:14 *1104:RESET_B 0
45 *630:22 *1103:RESET_B 0.000793003
46 *633:8 *1104:RESET_B 0.000728616
47 *633:8 *671:40 0.000259183
*RES
1 *1341:X *671:12 23.9468 
2 *671:12 *1109:RESET_B 21.7512 
3 *671:12 *671:25 24.5848 
4 *671:25 *1103:RESET_B 45.6144 
5 *671:25 *671:38 20 
6 *671:38 *671:40 1.5664 
7 *671:40 *1104:RESET_B 26.1776 
8 *671:40 *671:55 26.0016 
9 *671:55 *671:61 22.288 
10 *671:61 *1105:RESET_B 20 
11 *671:61 *671:70 1.8656 
12 *671:70 *1108:RESET_B 20 
13 *671:70 *1107:RESET_B 23.7136 
14 *671:55 *1106:RESET_B 43.784 
15 *671:38 *1110:RESET_B 20 
*END

*D_NET *667 0.0102961
*CONN
*I *1117:RESET_B I *D sg13g2_dfrbpq_1
*I *1118:RESET_B I *D sg13g2_dfrbpq_1
*I *1114:RESET_B I *D sg13g2_dfrbpq_1
*I *1122:RESET_B I *D sg13g2_dfrbpq_1
*I *1120:RESET_B I *D sg13g2_dfrbpq_1
*I *1116:RESET_B I *D sg13g2_dfrbpq_1
*I *1115:RESET_B I *D sg13g2_dfrbpq_1
*I *1111:RESET_B I *D sg13g2_dfrbpq_1
*I *1337:X O *D sg13g2_buf_1
*CAP
1 *1117:RESET_B 0.000114232
2 *1118:RESET_B 0.000501245
3 *1114:RESET_B 4.23263e-05
4 *1122:RESET_B 6.7003e-05
5 *1120:RESET_B 0
6 *1116:RESET_B 0.000393622
7 *1115:RESET_B 0.000490222
8 *1111:RESET_B 0.000466915
9 *1337:X 9.97181e-05
10 *667:73 0.00123915
11 *667:61 0.00133174
12 *667:50 0.0006415
13 *667:36 0.000543145
14 *667:32 0.000702611
15 *667:21 0.00123681
16 *667:8 0.000812706
17 *1111:RESET_B *1112:CLK 0
18 *1115:RESET_B *1115:CLK 0
19 *1115:RESET_B *698:8 0
20 *1115:RESET_B *698:39 0
21 *1116:RESET_B *1285:A 0
22 *1116:RESET_B *750:10 0
23 *1118:RESET_B *1118:CLK 0
24 *1118:RESET_B *1121:CLK 0
25 *1122:RESET_B *1122:CLK 0
26 *667:8 *704:23 0
27 *667:32 *750:10 0
28 *667:73 *1121:CLK 0
29 *857:A0 *1116:RESET_B 0
30 *1115:D *1115:RESET_B 0
31 *1118:D *1118:RESET_B 0
32 *1121:RESET_B *1118:RESET_B 0
33 *1121:RESET_B *667:73 0
34 *1122:D *1116:RESET_B 0.000339212
35 *1122:D *1122:RESET_B 0
36 *1122:D *667:36 0.000226446
37 *1221:A *1117:RESET_B 0.00011226
38 *1221:A *667:61 0
39 *1221:A *667:73 0
40 *1368:A *1115:RESET_B 8.02598e-05
41 *1368:A *667:21 0
42 *1368:A *667:32 0
43 *1414:A *1116:RESET_B 0.000339399
44 *25:14 *1111:RESET_B 0
45 *71:12 *1117:RESET_B 0
46 *308:42 *1111:RESET_B 0
47 *308:56 *1111:RESET_B 0
48 *522:16 *667:73 0.0001757
49 *655:75 *667:73 0.000339877
*RES
1 *1337:X *667:8 40.9328 
2 *667:8 *1111:RESET_B 43.5816 
3 *667:8 *667:21 2.4112 
4 *667:21 *1115:RESET_B 43.9688 
5 *667:21 *667:32 4.9456 
6 *667:32 *667:36 21.3816 
7 *667:36 *1116:RESET_B 23.4144 
8 *667:36 *1120:RESET_B 20 
9 *667:32 *667:50 0.5104 
10 *667:50 *1122:RESET_B 40.6424 
11 *667:50 *667:61 5.368 
12 *667:61 *667:73 26.5384 
13 *667:73 *1114:RESET_B 20.5104 
14 *667:73 *1118:RESET_B 24.5584 
15 *667:61 *1117:RESET_B 41.1528 
*END

*D_NET *674 0.00879325
*CONN
*I *1102:RESET_B I *D sg13g2_dfrbpq_1
*I *1337:A I *D sg13g2_buf_1
*I *1112:RESET_B I *D sg13g2_dfrbpq_1
*I *1341:A I *D sg13g2_buf_1
*I *1113:RESET_B I *D sg13g2_dfrbpq_1
*I *1344:X O *D sg13g2_buf_1
*CAP
1 *1102:RESET_B 0
2 *1337:A 4.9953e-05
3 *1112:RESET_B 0.000812202
4 *1341:A 0.000524739
5 *1113:RESET_B 8.91047e-05
6 *1344:X 0.000328101
7 *674:50 0.00137998
8 *674:29 0.00121565
9 *674:25 0.000452778
10 *674:8 0.000696898
11 *1112:RESET_B *870:B1 0
12 *1112:RESET_B *679:72 0
13 *1341:A *679:72 4.78685e-05
14 *674:8 *679:51 0.000566108
15 *674:8 *701:8 0
16 *674:25 *679:51 0
17 *674:25 *680:238 0
18 *674:25 *686:12 0
19 *674:29 *698:47 0
20 *674:50 *698:47 0
21 tl_o[24] *1112:RESET_B 0
22 tl_o[24] *1337:A 0
23 tl_o[24] *674:50 0
24 tl_o[26] *1113:RESET_B 0
25 tl_o[26] *1341:A 0
26 tl_o[26] *674:8 0
27 tl_o[27] *1112:RESET_B 0.000501233
28 tl_o[47] *1112:RESET_B 0
29 *859:A *1112:RESET_B 0
30 *889:A *1341:A 0.000128663
31 *889:A *674:50 5.34469e-05
32 *1057:A2 *1341:A 0
33 *1102:D *674:29 0
34 *1111:D *1112:RESET_B 0.000112826
35 *1228:A *1112:RESET_B 0
36 *1238:A *1341:A 0.000112437
37 *69:10 *1113:RESET_B 0
38 *253:10 *1341:A 0
39 *253:10 *674:50 0
40 *308:82 *1341:A 0
41 *308:89 *1341:A 0
42 *508:10 *674:50 0.000931789
43 *509:6 *1341:A 0.000112349
44 *614:12 *1112:RESET_B 0.000111121
45 *634:12 *1112:RESET_B 0.000209856
46 *634:12 *674:50 0.000356147
*RES
1 *1344:X *674:8 43.2296 
2 *674:8 *1113:RESET_B 40.7832 
3 *674:8 *674:25 22.5256 
4 *674:25 *674:29 21.5664 
5 *674:29 *1341:A 44.4968 
6 *674:29 *674:50 26.0104 
7 *674:50 *1112:RESET_B 26.8552 
8 *674:50 *1337:A 20.5104 
9 *674:25 *1102:RESET_B 20 
*END

*D_NET *675 0.0151658
*CONN
*I *1138:RESET_B I *D sg13g2_dfrbpq_1
*I *1090:RESET_B I *D sg13g2_dfrbpq_1
*I *1198:A I *D sg13g2_buf_1
*I *1344:A I *D sg13g2_buf_1
*I *869:A I *D sg13g2_buf_1
*I *1137:RESET_B I *D sg13g2_dfrbpq_1
*I *1134:RESET_B I *D sg13g2_dfrbpq_1
*I *1328:A I *D sg13g2_buf_1
*I *1345:X O *D sg13g2_buf_1
*CAP
1 *1138:RESET_B 0
2 *1090:RESET_B 0
3 *1198:A 0.000252404
4 *1344:A 0
5 *869:A 0.000231879
6 *1137:RESET_B 0.000397431
7 *1134:RESET_B 0
8 *1328:A 0.00106154
9 *1345:X 0.000142867
10 *675:71 0.00034942
11 *675:69 0.000369945
12 *675:67 0.000433652
13 *675:57 0.00298129
14 *675:40 0.00310907
15 *675:31 0.000614961
16 *675:25 0.00064938
17 *675:8 0.00140282
18 *869:A *679:22 0
19 *869:A *701:10 0
20 *869:A *701:32 0
21 *1137:RESET_B *1134:CLK 0
22 *1198:A *1090:CLK 0
23 *1198:A *701:32 0
24 *1328:A *1099:CLK 0
25 *1328:A *680:27 0
26 *675:31 *1128:CLK 0
27 *675:31 *1134:CLK 0
28 *675:31 *707:41 0
29 *675:40 *1134:CLK 0
30 *675:57 *1092:CLK 0
31 *675:57 *1132:CLK 0
32 *675:57 *1186:CLK 0
33 *675:57 *679:51 0
34 *675:67 *1090:CLK 0
35 *675:67 *679:38 0.000111838
36 *675:67 *679:51 0
37 *675:71 *701:32 0
38 *790:S *1328:A 0.000404624
39 *790:S *675:8 0
40 *794:A *675:57 0
41 *898:B1 *1328:A 0
42 *914:A1 *675:57 0.000242137
43 *1090:D *675:67 0
44 *1132:RESET_B *675:57 0
45 *1133:RESET_B *675:57 0
46 *1138:D *675:8 0
47 *9:10 *675:57 0
48 *80:8 *675:57 0.000501044
49 *127:18 *675:57 0
50 *127:18 *675:67 0
51 *127:27 *675:57 0.000922617
52 *150:10 *869:A 0
53 *150:10 *675:57 0
54 *150:10 *675:67 0.000289116
55 *150:10 *675:71 0
56 *271:31 *675:57 0
57 *283:14 *1137:RESET_B 0
58 *345:18 *675:31 0
59 *349:29 *675:57 0
60 *353:10 *675:57 0
61 *353:24 *1137:RESET_B 0.000242281
62 *353:43 *1137:RESET_B 0.000274321
63 *355:8 *675:31 0
64 *355:23 *1328:A 0
65 *360:24 *675:57 0.000181192
66 *366:26 *675:57 0
67 *366:44 *675:57 0
68 *569:10 *1328:A 0
69 *603:14 *1137:RESET_B 0
*RES
1 *1345:X *675:8 41.1968 
2 *675:8 *1328:A 48.58 
3 *675:8 *675:25 21.9888 
4 *675:25 *675:31 24.136 
5 *675:31 *1134:RESET_B 40 
6 *675:31 *675:40 1.5664 
7 *675:40 *1137:RESET_B 43.4144 
8 *675:40 *675:57 42.3872 
9 *675:57 *675:67 43.828 
10 *675:67 *675:69 20 
11 *675:69 *675:71 1.144 
12 *675:71 *869:A 41.9888 
13 *675:71 *1344:A 40 
14 *675:69 *1198:A 42.4112 
15 *675:57 *1090:RESET_B 20 
16 *675:25 *1138:RESET_B 20 
*END

*D_NET *664 0.0137673
*CONN
*I *936:A1 I *D sg13g2_o21ai_1
*I *931:A2 I *D sg13g2_o21ai_1
*I *926:A2 I *D sg13g2_o21ai_1
*I *943:A1 I *D sg13g2_o21ai_1
*I *919:A2 I *D sg13g2_o21ai_1
*I *941:B I *D sg13g2_nand2b_1
*I *949:A1 I *D sg13g2_o21ai_1
*I *947:B I *D sg13g2_nand2_1
*I *1334:X O *D sg13g2_buf_1
*CAP
1 *936:A1 0.000213381
2 *931:A2 0
3 *926:A2 0
4 *943:A1 0
5 *919:A2 0
6 *941:B 2.67103e-05
7 *949:A1 0.0002592
8 *947:B 0
9 *1334:X 0.000134473
10 *664:94 0.000980422
11 *664:79 0.000108548
12 *664:71 0.00155081
13 *664:62 0.00119459
14 *664:49 0.000752969
15 *664:18 0.00103867
16 *664:10 0.00111556
17 *664:6 0.000677455
18 *664:71 *678:20 0.000435979
19 *664:71 *680:121 0
20 *664:79 *678:59 0
21 *664:79 *680:121 0
22 *664:94 *1124:CLK 0
23 *664:94 *1126:CLK 0
24 *664:94 *680:133 0
25 *664:94 *688:10 1.54008e-05
26 *919:B1 *664:49 1.54118e-05
27 *919:B1 *664:62 0.00040383
28 *919:A1 *664:49 1.54118e-05
29 *919:A1 *664:62 0.000582561
30 *920:B1 *664:49 0
31 *920:A1 *664:49 0
32 *926:B1 *664:79 1.54556e-05
33 *926:B1 *664:94 0
34 *926:A1 *664:79 1.54556e-05
35 *926:A1 *664:94 0
36 *927:A1 *664:94 0.000167533
37 *931:A1 *936:A1 0.000129827
38 *931:A1 *664:94 1.54556e-05
39 *936:A2 *936:A1 0.000145009
40 *941:A_N *941:B 1.54556e-05
41 *949:A2 *949:A1 1.54008e-05
42 *950:B1 *949:A1 0
43 *950:B1 *664:18 0
44 *950:B2 *949:A1 0
45 *950:A1 *664:18 0
46 *956:B2 *949:A1 0
47 *963:B1 *664:62 0.000394686
48 *1051:B *664:62 0
49 *1060:A1 *664:18 0
50 *1127:D *949:A1 8.0216e-05
51 *1127:D *664:18 0
52 *105:99 *936:A1 1.54556e-05
53 *105:99 *664:94 0.000371784
54 *106:27 *941:B 4.78521e-05
55 *116:22 *664:18 0.000306794
56 *160:8 *664:79 7.52149e-05
57 *165:12 *936:A1 4.77425e-05
58 *171:10 *664:6 0.000209648
59 *171:10 *664:10 0.00028427
60 *173:39 *664:71 0.000663604
61 *185:8 *664:62 0
62 *250:16 *664:6 0.000241989
63 *250:16 *664:49 0.000226655
64 *341:33 *664:94 0
65 *363:12 *936:A1 0
66 *363:39 *664:79 0
67 *364:6 *664:94 0.000323761
68 *365:10 *664:10 0
69 *365:10 *664:18 0
70 *365:22 *664:18 0
71 *398:22 *664:10 0
72 *653:12 *664:10 0
73 *653:12 *664:18 0
74 *660:12 *664:71 0.000436637
*RES
1 *1334:X *664:6 21.3816 
2 *664:6 *664:10 22.8336 
3 *664:10 *664:18 26.3624 
4 *664:18 *947:B 20 
5 *664:18 *949:A1 22.5344 
6 *664:10 *941:B 40.2728 
7 *664:6 *664:49 2.1384 
8 *664:49 *919:A2 20 
9 *664:49 *664:62 44.9808 
10 *664:62 *943:A1 20 
11 *664:62 *664:71 6.8552 
12 *664:71 *664:79 40.9944 
13 *664:79 *926:A2 20 
14 *664:71 *664:94 46.732 
15 *664:94 *931:A2 20 
16 *664:94 *936:A1 22.5872 
*END

*D_NET *670 0.00632172
*CONN
*I *961:A1 I *D sg13g2_a21o_1
*I *955:A1 I *D sg13g2_a21o_1
*I *949:B1 I *D sg13g2_o21ai_1
*I *954:A I *D sg13g2_nand3_1
*I *960:A I *D sg13g2_nand3_1
*I *1340:X O *D sg13g2_buf_1
*CAP
1 *961:A1 0.000271327
2 *955:A1 0
3 *949:B1 0.000539107
4 *954:A 0.00014214
5 *960:A 0.000150203
6 *1340:X 0.000170711
7 *670:18 0.00057746
8 *670:16 0.000906132
9 *670:12 0.000231595
10 *670:8 0.000591725
11 *949:B1 *677:36 0
12 *960:A *954:C 0
13 *961:A1 *961:B1 4.77425e-05
14 *961:A1 *678:59 0
15 *961:A1 *678:61 0.00050063
16 *670:8 *678:59 0
17 *670:12 *955:B1 0.000225951
18 *670:16 *955:B1 1.54008e-05
19 *670:18 *677:36 0
20 *798:B_N *961:A1 0.000128247
21 *850:A *670:12 0
22 *949:A2 *949:B1 0.000759979
23 *949:A2 *670:12 0
24 *949:A2 *670:16 0
25 *954:B *954:A 0
26 *954:B *960:A 0.000112332
27 *954:B *961:A1 0
28 *955:A2 *670:16 2.51854e-05
29 *956:B2 *670:16 0
30 *961:A2 *961:A1 8.00842e-05
31 *106:35 *670:18 0
32 *116:10 *949:B1 0.00020907
33 *116:18 *949:B1 0
34 *183:8 *960:A 0
35 *183:8 *670:18 0
36 *189:10 *670:18 0
37 *190:22 *954:A 8.03692e-05
38 *359:29 *960:A 0
39 *363:39 *949:B1 0
40 *363:39 *961:A1 0
41 *363:39 *670:8 0.000556324
*RES
1 *1340:X *670:8 42.2 
2 *670:8 *670:12 21.3816 
3 *670:12 *670:16 20.6424 
4 *670:16 *670:18 2.2 
5 *670:18 *960:A 41.364 
6 *670:18 *954:A 41.012 
7 *670:16 *949:B1 45.2712 
8 *670:12 *955:A1 20 
9 *670:8 *961:A1 42.9304 
*END

*D_NET *678 0.011981
*CONN
*I *940:B I *D sg13g2_nor2_1
*I *955:B1 I *D sg13g2_a21o_1
*I *961:B1 I *D sg13g2_a21o_1
*I *960:C I *D sg13g2_nand3_1
*I *954:C I *D sg13g2_nand3_1
*I *927:A2 I *D sg13g2_o21ai_1
*I *937:A2 I *D sg13g2_o21ai_1
*I *932:A2 I *D sg13g2_o21ai_1
*I *1348:X O *D sg13g2_buf_1
*CAP
1 *940:B 0.000309776
2 *955:B1 0.000190983
3 *961:B1 2.60565e-05
4 *960:C 0
5 *954:C 0.000239836
6 *927:A2 0
7 *937:A2 0.000135731
8 *932:A2 2.92173e-05
9 *1348:X 0
10 *678:67 0.00051941
11 *678:61 0.000420335
12 *678:59 0.000853142
13 *678:46 0.000577544
14 *678:24 0.000305232
15 *678:20 0.000817465
16 *678:12 0.00141246
17 *678:6 0.00107515
18 *678:61 *685:55 0.00050063
19 *678:67 *685:55 0.000287672
20 *797:A1 *954:C 0
21 *798:B_N *678:61 0
22 *798:B_N *678:67 0
23 *927:A1 *678:46 7.31538e-06
24 *927:A1 *678:59 3.23417e-05
25 *932:A1 *932:A2 7.34141e-06
26 *937:B1 *937:A2 1.54556e-05
27 *940:A *940:B 1.54556e-05
28 *954:B *954:C 0
29 *954:B *961:B1 4.77425e-05
30 *956:B2 *955:B1 8.02927e-05
31 *960:B *954:C 1.54008e-05
32 *960:B *678:67 0.000306167
33 *960:A *954:C 0
34 *961:A1 *961:B1 4.77425e-05
35 *961:A1 *678:59 0
36 *961:A1 *678:61 0.00050063
37 *1089:D *940:B 0
38 *1334:A *940:B 0
39 *1340:A *678:59 0.000554076
40 *1451:A *937:A2 0
41 *105:71 *932:A2 0
42 *105:71 *678:20 0.000446185
43 *105:73 *678:59 0.000212127
44 *105:99 *937:A2 0
45 *105:99 *678:24 0
46 *160:8 *678:24 7.50805e-05
47 *160:8 *678:59 0.000181192
48 *171:10 *940:B 0.000144691
49 *173:39 *678:20 0.000534205
50 *175:10 *940:B 0
51 *191:14 *678:12 0
52 *341:27 *678:24 7.33256e-05
53 *348:16 *954:C 1.54008e-05
54 *348:16 *678:67 0.000290859
55 *359:14 *955:B1 0
56 *362:12 *937:A2 0
57 *362:20 *678:59 0
58 *362:42 *937:A2 0
59 *363:39 *678:24 0
60 *363:39 *678:59 0
61 *407:12 *940:B 0
62 *664:71 *678:20 0.000435979
63 *664:79 *678:59 0
64 *670:8 *678:59 0
65 *670:12 *955:B1 0.000225951
66 *670:16 *955:B1 1.54008e-05
67 *672:8 *937:A2 0
68 *672:8 *678:24 0
*RES
1 *1348:X *678:6 40 
2 *678:6 *678:12 48.0344 
3 *678:12 *678:20 26.204 
4 *678:20 *678:24 21.144 
5 *678:24 *932:A2 40.2728 
6 *678:24 *937:A2 41.4168 
7 *678:20 *678:46 0.2728 
8 *678:46 *927:A2 20 
9 *678:46 *678:59 25.676 
10 *678:59 *678:61 2.2 
11 *678:61 *678:67 22.8952 
12 *678:67 *954:C 22.288 
13 *678:67 *960:C 20 
14 *678:61 *961:B1 40.2728 
15 *678:59 *955:B1 41.7512 
16 *678:6 *940:B 42.6136 
*END

*D_NET *721 0.000972425
*CONN
*I *1325:A I *D sg13g2_buf_1
*I *1400:X O *D sg13g2_dlygate4sd3_1
*CAP
1 *1325:A 0.00036889
2 *1400:X 0.000117323
3 *721:8 0.000486213
4 tl_o[33] *721:8 0
5 *1167:D *1325:A 0
6 *1401:A *1325:A 0
7 *1432:A *1325:A 0
*RES
1 *1400:X *721:8 41.144 
2 *721:8 *1325:A 42.86 
*END

*D_NET *722 0.00221448
*CONN
*I *1170:D I *D sg13g2_dfrbpq_1
*I *1401:X O *D sg13g2_dlygate4sd3_1
*CAP
1 *1170:D 0.000841807
2 *1401:X 0.000841807
3 *1170:D *754:10 0
4 *1170:RESET_B *1170:D 0
5 *1170:CLK *1170:D 0
6 *228:27 *1170:D 0
7 *233:8 *1170:D 0
8 *233:15 *1170:D 0.000209043
9 *285:46 *1170:D 8.03692e-05
10 *577:10 *1170:D 0
11 *578:10 *1170:D 0.000241456
*RES
1 *1401:X *1170:D 47.6032 
*END

*D_NET *723 0.0014376
*CONN
*I *1324:A I *D sg13g2_buf_1
*I *1402:X O *D sg13g2_dlygate4sd3_1
*CAP
1 *1324:A 0.000349181
2 *1402:X 0.000135032
3 *723:8 0.000484213
4 *1324:A *1323:A 0
5 *342:11 *1324:A 0.00046917
*RES
1 *1402:X *723:8 41.3552 
2 *723:8 *1324:A 43.344 
*END

*D_NET *724 0.0003606
*CONN
*I *1163:D I *D sg13g2_dfrbpq_1
*I *1403:X O *D sg13g2_dlygate4sd3_1
*CAP
1 *1163:D 0.0001803
2 *1403:X 0.0001803
3 *1156:RESET_B *1163:D 0
4 *1403:A *1163:D 0
5 *192:22 *1163:D 0
*RES
1 *1403:X *1163:D 41.7336 
*END

*D_NET *725 0.00146419
*CONN
*I *1323:A I *D sg13g2_buf_1
*I *1404:X O *D sg13g2_dlygate4sd3_1
*CAP
1 *1323:A 0.000578483
2 *1404:X 0.000578483
3 *1324:A *1323:A 0
4 *1403:A *1323:A 0.000307226
5 *192:38 *1323:A 0
6 *340:13 *1323:A 0
7 *342:11 *1323:A 0
*RES
1 *1404:X *1323:A 45.5176 
*END

*D_NET *726 0.000524755
*CONN
*I *1156:D I *D sg13g2_dfrbpq_1
*I *1405:X O *D sg13g2_dlygate4sd3_1
*CAP
1 *1156:D 0.000262378
2 *1405:X 0.000262378
3 *1405:A *1156:D 0
*RES
1 *1405:X *1156:D 42.6664 
*END

*D_NET *727 0.00101499
*CONN
*I *1326:A I *D sg13g2_buf_1
*I *1406:X O *D sg13g2_dlygate4sd3_1
*CAP
1 *1326:A 0
2 *1406:X 0.000507497
3 *727:10 0.000507497
4 *1406:A *727:10 0
*RES
1 *1406:X *727:10 45.2712 
2 *727:10 *1326:A 40 
*END

*D_NET *728 0.000404538
*CONN
*I *1177:D I *D sg13g2_dfrbpq_1
*I *1407:X O *D sg13g2_dlygate4sd3_1
*CAP
1 *1177:D 0.000202269
2 *1407:X 0.000202269
*RES
1 *1407:X *1177:D 41.9448 
*END

*D_NET *729 0.00336805
*CONN
*I *1321:A I *D sg13g2_buf_1
*I *1408:X O *D sg13g2_dlygate4sd3_1
*CAP
1 *1321:A 0.000163989
2 *1408:X 0.000679969
3 *729:10 0.000843958
4 *819:B *729:10 0.000468086
5 *1212:A *729:10 0
6 *1293:A *729:10 0
7 *1409:A *1321:A 0
8 *68:12 *1321:A 0
9 *321:11 *729:10 0.00050048
10 *338:23 *1321:A 0.000208901
11 *338:23 *729:10 0
12 *641:16 *729:10 0.000181192
13 *641:22 *729:10 0.000209693
14 *645:8 *729:10 0.000111787
*RES
1 *1408:X *729:10 46.6176 
2 *729:10 *1321:A 41.496 
*END

*D_NET *730 0.00327063
*CONN
*I *1055:A2 I *D sg13g2_o21ai_1
*I *1409:X O *D sg13g2_dlygate4sd3_1
*CAP
1 *1055:A2 0.000769611
2 *1409:X 0.000297318
3 *730:8 0.00106693
4 *730:8 *773:8 0
5 *822:A *1055:A2 0
6 *862:A *1055:A2 0.000112563
7 *1055:A1 *1055:A2 9.56658e-05
8 *1250:A *1055:A2 0
9 *1409:A *1055:A2 0
10 *68:12 *1055:A2 0.000144691
11 *100:14 *1055:A2 0.000112437
12 *100:24 *1055:A2 8.00842e-05
13 *304:19 *1055:A2 1.54008e-05
14 *333:33 *1055:A2 0
15 *338:23 *1055:A2 0
16 *379:10 *730:8 7.56308e-05
17 *475:20 *730:8 0
18 *537:27 *730:8 0.000500302
19 *636:24 *1055:A2 0
20 *636:24 *730:8 0
*RES
1 *1409:X *730:8 42.8336 
2 *730:8 *1055:A2 46.6176 
*END

*D_NET *731 0.00208262
*CONN
*I *1081:D I *D sg13g2_dfrbpq_1
*I *1410:X O *D sg13g2_dlygate4sd3_1
*CAP
1 *1081:D 0.000320378
2 *1410:X 0.000444834
3 *731:8 0.000765212
4 *1081:D *1066:B1 0
5 *1257:A *731:8 0
6 *1425:A *1081:D 0
7 *68:12 *731:8 0
8 *100:50 *1081:D 0.000193101
9 *100:56 *1081:D 0.00033683
10 *297:57 *1081:D 0
11 *333:33 *731:8 2.22695e-05
12 *636:24 *731:8 0
*RES
1 *1410:X *731:8 43.4672 
2 *731:8 *1081:D 43.0448 
*END

*D_NET *732 0.000825133
*CONN
*I *1283:A I *D sg13g2_buf_1
*I *1411:X O *D sg13g2_dlygate4sd3_1
*CAP
1 *1283:A 0.000127584
2 *1411:X 0.000180134
3 *732:8 0.000307718
4 tl_o[51] *1283:A 0
5 *1411:A *1283:A 0.000209697
6 *267:14 *732:8 0
7 *474:10 *732:8 0
*RES
1 *1411:X *732:8 41.7776 
2 *732:8 *1283:A 41.1968 
*END

*D_NET *733 0.00193208
*CONN
*I *1281:A I *D sg13g2_buf_1
*I *1412:X O *D sg13g2_dlygate4sd3_1
*CAP
1 *1281:A 0.000731183
2 *1412:X 0.000210902
3 *733:10 0.000942085
4 *1281:A *1320:A 0
5 tl_o[46] *1281:A 0
6 *852:S *1281:A 0
7 *1115:D *1281:A 0
8 *1413:A *1281:A 0
9 *1413:A *733:10 0
10 *519:10 *1281:A 0
11 *524:26 *733:10 0
12 *698:8 *1281:A 4.79124e-05
*RES
1 *1412:X *733:10 42.0504 
2 *733:10 *1281:A 46.3712 
*END

*D_NET *734 0.00110205
*CONN
*I *1320:A I *D sg13g2_buf_1
*I *1413:X O *D sg13g2_dlygate4sd3_1
*CAP
1 *1320:A 0.000123234
2 *1413:X 0.000123327
3 *734:8 0.000246561
4 *852:S *1320:A 0.00020973
5 *1281:A *1320:A 0
6 *22:12 *734:8 0.000399197
*RES
1 *1413:X *734:8 41.5664 
2 *734:8 *1320:A 41.1968 
*END

*D_NET *735 0.00146873
*CONN
*I *1285:A I *D sg13g2_buf_1
*I *1414:X O *D sg13g2_dlygate4sd3_1
*CAP
1 *1285:A 0.000379493
2 *1414:X 0.000266228
3 *735:8 0.000645721
4 *857:A0 *1285:A 0
5 *1116:RESET_B *1285:A 0
6 *1414:A *1285:A 0.000177285
7 *22:12 *1285:A 0
*RES
1 *1414:X *735:8 42.2 
2 *735:8 *1285:A 43.0448 
*END

*D_NET *736 0.000623867
*CONN
*I *1308:A I *D sg13g2_buf_1
*I *1415:X O *D sg13g2_dlygate4sd3_1
*CAP
1 *1308:A 0.000139436
2 *1415:X 0.000172497
3 *736:8 0.000311934
4 cio_gpio_o[2] *1308:A 0
5 *953:A *1308:A 0
6 *1271:A *1308:A 0
*RES
1 *1415:X *736:8 41.7776 
2 *736:8 *1308:A 41.1968 
*END

*D_NET *737 0.000466388
*CONN
*I *1309:A I *D sg13g2_buf_1
*I *1416:X O *D sg13g2_dlygate4sd3_1
*CAP
1 *1309:A 0.000233194
2 *1416:X 0.000233194
3 *968:B *1309:A 0
4 *257:16 *1309:A 0
5 *399:10 *1309:A 0
*RES
1 *1416:X *1309:A 42.1032 
*END

*D_NET *738 0.000300443
*CONN
*I *969:B1 I *D sg13g2_o21ai_1
*I *1417:X O *D sg13g2_dlygate4sd3_1
*CAP
1 *969:B1 0.000142521
2 *1417:X 0.000142521
3 *969:B1 *971:B1 0
4 *969:A2 *969:B1 1.54008e-05
5 *1427:A *969:B1 0
*RES
1 *1417:X *969:B1 41.3904 
*END

*D_NET *739 0.00170241
*CONN
*I *1077:D I *D sg13g2_dfrbpq_1
*I *1418:X O *D sg13g2_dlygate4sd3_1
*CAP
1 *1077:D 0
2 *1418:X 0.000681439
3 *739:14 0.000681439
4 *1077:RESET_B *739:14 0.00033953
5 *1077:CLK *739:14 0
6 *1390:A *739:14 0
7 *163:8 *739:14 0
8 *657:59 *739:14 0
9 *720:6 *739:14 0
*RES
1 *1418:X *739:14 46.2392 
2 *739:14 *1077:D 40 
*END

*D_NET *740 0.00117687
*CONN
*I *1280:A I *D sg13g2_buf_1
*I *1419:X O *D sg13g2_dlygate4sd3_1
*CAP
1 *1280:A 0
2 *1419:X 0.000399122
3 *740:10 0.000399122
4 tl_o[57] *740:10 0.000144872
5 *477:12 *740:10 0.000233757
6 *479:8 *740:10 0
7 *479:12 *740:10 0
*RES
1 *1419:X *740:10 43.3704 
2 *740:10 *1280:A 40 
*END

*D_NET *741 0.00232955
*CONN
*I *1284:A I *D sg13g2_buf_1
*I *1420:X O *D sg13g2_dlygate4sd3_1
*CAP
1 *1284:A 0.000297982
2 *1420:X 0.000464246
3 *741:10 0.000762227
4 *741:10 *1287:A 0
5 *1223:A *1284:A 0
6 *1227:A *741:10 0
7 *70:8 *1284:A 0
8 *279:13 *1284:A 0.00011279
9 *470:8 *741:10 7.93378e-05
10 *473:10 *1284:A 0
11 *530:12 *1284:A 0
12 *608:8 *1284:A 0.000242121
13 *613:10 *741:10 0.000370846
*RES
1 *1420:X *741:10 43.8984 
2 *741:10 *1284:A 42.6752 
*END

*D_NET *742 0.000718536
*CONN
*I *1287:A I *D sg13g2_buf_1
*I *1421:X O *D sg13g2_dlygate4sd3_1
*CAP
1 *1287:A 0.000147456
2 *1421:X 9.99126e-05
3 *742:8 0.000247368
4 *1227:A *1287:A 1.54008e-05
5 *276:13 *1287:A 0.000208398
6 *470:8 *1287:A 0
7 *741:10 *1287:A 0
*RES
1 *1421:X *742:8 40.7216 
2 *742:8 *1287:A 41.1968 
*END

*D_NET *743 0.00291381
*CONN
*I *1314:A I *D sg13g2_buf_1
*I *1422:X O *D sg13g2_dlygate4sd3_1
*CAP
1 *1314:A 0.0010223
2 *1422:X 0.000124873
3 *743:8 0.00114717
4 *1314:A *1312:A 0
5 *1314:A *1313:A 0.000247487
6 intr_gpio_o[1] *1314:A 0
7 *1422:A *1314:A 0
8 *198:16 *743:8 0
9 *282:12 *1314:A 0
10 *329:13 *1314:A 0
11 *395:20 *1314:A 0
12 *657:12 *1314:A 0.00037198
13 *680:87 *743:8 0
*RES
1 *1422:X *743:8 40.9328 
2 *743:8 *1314:A 48.536 
*END

*D_NET *744 0.000815256
*CONN
*I *1313:A I *D sg13g2_buf_1
*I *1423:X O *D sg13g2_dlygate4sd3_1
*CAP
1 *1313:A 0.000157453
2 *1423:X 0.000157453
3 *1314:A *1313:A 0.000247487
4 *395:20 *1313:A 0.000252863
*RES
1 *1423:X *1313:A 41.7688 
*END

*D_NET *745 0.00253719
*CONN
*I *1282:A I *D sg13g2_buf_1
*I *1424:X O *D sg13g2_dlygate4sd3_1
*CAP
1 *1282:A 0
2 *1424:X 0.000438749
3 *745:10 0.000438749
4 tl_o[52] *745:10 0.000128247
5 tl_o[53] *745:10 0
6 *855:A1 *745:10 0.000234311
7 *1224:A *745:10 0.000212543
8 *276:13 *745:10 0.000238084
9 *470:8 *745:10 0.000501238
10 *473:10 *745:10 0.000345274
*RES
1 *1424:X *745:10 45.4824 
2 *745:10 *1282:A 40 
*END

*D_NET *746 0.000890666
*CONN
*I *1119:D I *D sg13g2_dfrbpq_1
*I *1425:X O *D sg13g2_dlygate4sd3_1
*CAP
1 *1119:D 0
2 *1425:X 0.00032797
3 *746:10 0.00032797
4 *100:56 *746:10 0
5 *297:57 *746:10 0
6 *297:59 *746:10 0
7 *297:72 *746:10 0
8 *703:10 *746:10 0.000234726
*RES
1 *1425:X *746:10 43.0008 
2 *746:10 *1119:D 40 
*END

*D_NET *747 0.000448151
*CONN
*I *1310:A I *D sg13g2_buf_1
*I *1426:X O *D sg13g2_dlygate4sd3_1
*CAP
1 *1310:A 0
2 *1426:X 0.000224075
3 *747:8 0.000224075
*RES
1 *1426:X *747:8 42.4112 
2 *747:8 *1310:A 40 
*END

*D_NET *748 0.000912
*CONN
*I *971:B1 I *D sg13g2_o21ai_1
*I *1427:X O *D sg13g2_dlygate4sd3_1
*CAP
1 *971:B1 0.000373395
2 *1427:X 0.000373395
3 *971:B1 *1076:D 0
4 *969:B1 *971:B1 0
5 *969:A2 *971:B1 4.78195e-05
6 *971:A2 *971:B1 4.77425e-05
7 *1077:RESET_B *971:B1 0
8 *1427:A *971:B1 0
9 *1428:A *971:B1 6.96474e-05
*RES
1 *1427:X *971:B1 43.2472 
*END

*D_NET *749 0.000939164
*CONN
*I *1076:D I *D sg13g2_dfrbpq_1
*I *1428:X O *D sg13g2_dlygate4sd3_1
*CAP
1 *1076:D 0.000255842
2 *1428:X 0.000165865
3 *749:8 0.000421708
4 *931:A1 *1076:D 0
5 *936:A2 *1076:D 4.79124e-05
6 *971:B1 *1076:D 0
7 *1428:A *1076:D 4.78359e-05
8 *657:55 *749:8 0
9 *657:59 *1076:D 0
10 *657:75 *749:8 0
*RES
1 *1428:X *749:8 41.3552 
2 *749:8 *1076:D 42.2352 
*END

*D_NET *750 0.00357167
*CONN
*I *1286:A I *D sg13g2_buf_1
*I *1429:X O *D sg13g2_dlygate4sd3_1
*CAP
1 *1286:A 0.000130092
2 *1429:X 0.00107531
3 *750:10 0.0012054
4 tl_o[51] *750:10 0
5 *856:A1 *750:10 0
6 *856:S *750:10 0.000273562
7 *857:A0 *1286:A 0.000177164
8 *1116:RESET_B *750:10 0
9 *1122:CLK *750:10 0
10 *1225:A *750:10 0
11 *1414:A *750:10 0.000467965
12 *330:12 *1286:A 0
13 *472:10 *750:10 0
14 *524:18 *1286:A 0.000242181
15 *667:32 *750:10 0
*RES
1 *1429:X *750:10 48.9408 
2 *750:10 *1286:A 41.3816 
*END

*D_NET *751 0.00469516
*CONN
*I *1316:A I *D sg13g2_buf_1
*I *1430:X O *D sg13g2_dlygate4sd3_1
*CAP
1 *1316:A 0
2 *1430:X 0.00155151
3 *751:18 0.00155151
4 *751:18 *1291:A 0
5 *819:B *751:18 8.78328e-05
6 *1212:A *751:18 0
7 *269:11 *751:18 0.000144878
8 *274:9 *751:18 0
9 *274:23 *751:18 0.000112426
10 *336:11 *751:18 0.000273065
11 *475:14 *751:18 0
12 *477:12 *751:18 0
13 *479:12 *751:18 0
14 *537:27 *751:18 0.000135702
15 *540:10 *751:18 0.000629492
16 *605:14 *751:18 0
17 *641:16 *751:18 0.000208747
*RES
1 *1430:X *751:18 33.4992 
2 *751:18 *1316:A 20 
*END

*D_NET *752 0.00419582
*CONN
*I *865:A2 I *D sg13g2_a21oi_1
*I *1066:B1 I *D sg13g2_o21ai_1
*I *1431:X O *D sg13g2_dlygate4sd3_1
*CAP
1 *865:A2 0
2 *1066:B1 0.000651576
3 *1431:X 0.000279619
4 *752:18 0.00121327
5 *752:10 0.00084131
6 *752:10 *778:8 7.53228e-05
7 *752:18 *1288:A 4.78743e-05
8 *865:A1 *1066:B1 1.54118e-05
9 *865:A1 *752:18 3.23417e-05
10 *866:A *1066:B1 0
11 *1066:A2 *1066:B1 0.0001863
12 *1081:D *1066:B1 0
13 *1431:A *1066:B1 0
14 *1431:A *752:18 0.000434945
15 *100:50 *1066:B1 0
16 *109:8 *752:10 0
17 *156:22 *752:18 0.000338195
18 *284:16 *752:10 0
19 *308:10 *1066:B1 7.96579e-05
*RES
1 *1431:X *752:10 42.684 
2 *752:10 *752:18 24.9104 
3 *752:18 *1066:B1 25.28 
4 *752:18 *865:A2 20 
*END

*D_NET *753 9.45957e-05
*CONN
*I *1296:A I *D sg13g2_buf_1
*I *1432:X O *D sg13g2_dlygate4sd3_1
*CAP
1 *1296:A 4.72978e-05
2 *1432:X 4.72978e-05
3 *1401:A *1296:A 0
*RES
1 *1432:X *1296:A 40.5104 
*END

*D_NET *754 0.0023826
*CONN
*I *1295:A I *D sg13g2_buf_1
*I *1433:X O *D sg13g2_dlygate4sd3_1
*CAP
1 *1295:A 0
2 *1433:X 0.000878295
3 *754:10 0.000878295
4 tl_o[33] *754:10 0
5 *1170:D *754:10 0
6 *415:12 *754:10 0
7 *505:18 *754:10 0
8 *577:10 *754:10 0.000209174
9 *578:10 *754:10 0.000128247
10 *581:26 *754:10 0.000288583
11 *584:51 *754:10 0
*RES
1 *1433:X *754:10 48.4656 
2 *754:10 *1295:A 40 
*END

*D_NET *755 0.000883421
*CONN
*I *1319:A I *D sg13g2_buf_1
*I *1434:X O *D sg13g2_dlygate4sd3_1
*CAP
1 *1319:A 0
2 *1434:X 0.0002709
3 *755:8 0.0002709
4 tl_o[54] *755:8 0
5 *274:9 *755:8 0.000341621
6 *305:15 *755:8 0
*RES
1 *1434:X *755:8 42.8336 
2 *755:8 *1319:A 40 
*END

*D_NET *756 0.000834349
*CONN
*I *1123:D I *D sg13g2_dfrbpq_1
*I *1435:X O *D sg13g2_dlygate4sd3_1
*CAP
1 *1123:D 0.000105296
2 *1435:X 0.000223179
3 *756:8 0.000328475
4 *71:12 *756:8 0
5 *297:80 *1123:D 0
6 *703:10 *1123:D 0.000177399
*RES
1 *1435:X *756:8 41.7776 
2 *756:8 *1123:D 41.012 
*END

*D_NET *757 0.00220592
*CONN
*I *1312:A I *D sg13g2_buf_1
*I *1436:X O *D sg13g2_dlygate4sd3_1
*CAP
1 *1312:A 0.000472935
2 *1436:X 7.98186e-05
3 *757:8 0.000552754
4 *1314:A *1312:A 0
5 *1422:A *1312:A 0.000793266
6 *329:13 *1312:A 0.00030715
*RES
1 *1436:X *757:8 40.7216 
2 *757:8 *1312:A 44.5232 
*END

*D_NET *758 0.00214189
*CONN
*I *1305:A I *D sg13g2_buf_1
*I *1437:X O *D sg13g2_dlygate4sd3_1
*CAP
1 *1305:A 0.000371634
2 *1437:X 0.00057109
3 *758:8 0.000942724
4 *758:8 *780:8 0
5 tl_o[16] *758:8 0
6 *303:13 *1305:A 0
7 *304:19 *1305:A 0.000176781
8 *306:15 *758:8 0
9 *338:23 *1305:A 0
10 *437:10 *1305:A 7.96596e-05
*RES
1 *1437:X *758:8 44.312 
2 *758:8 *1305:A 43.0448 
*END

*D_NET *759 0.00293021
*CONN
*I *1306:A I *D sg13g2_buf_1
*I *1438:X O *D sg13g2_dlygate4sd3_1
*CAP
1 *1306:A 0.00103381
2 *1438:X 0.000270209
3 *759:12 0.00130402
4 tl_o[26] *759:12 0
5 *1113:D *759:12 0.000112525
6 *1249:A *1306:A 0
7 *267:34 *1306:A 0
8 *272:14 *1306:A 0.000209637
9 *499:14 *1306:A 0
10 *499:14 *759:12 0
11 *680:238 *759:12 0
*RES
1 *1438:X *759:12 42.4552 
2 *759:12 *1306:A 48.5888 
*END

*D_NET *760 0.00215145
*CONN
*I *1297:A I *D sg13g2_buf_1
*I *1439:X O *D sg13g2_dlygate4sd3_1
*CAP
1 *1297:A 0.000170661
2 *1439:X 0.000787875
3 *760:10 0.000958536
4 *1017:A1 *760:10 0
5 *1044:B *1297:A 0
6 *1446:A *760:10 0
7 *223:10 *760:10 0
8 *227:8 *760:10 0
9 *230:33 *760:10 0
10 *231:14 *760:10 0
11 *233:15 *760:10 0
12 *233:23 *760:10 0
13 *246:8 *760:10 0.000234375
14 *285:8 *760:10 0
15 *285:65 *1297:A 0
16 *312:11 *760:10 0
17 *579:41 *760:10 0
18 *582:44 *760:10 0
*RES
1 *1439:X *760:10 47.8056 
2 *760:10 *1297:A 41.5664 
*END

*D_NET *761 0.00112496
*CONN
*I *1303:A I *D sg13g2_buf_1
*I *1440:X O *D sg13g2_dlygate4sd3_1
*CAP
1 *1303:A 0
2 *1440:X 0.00036511
3 *761:8 0.00036511
4 *1252:A *761:8 0
5 *1440:A *761:8 0.000394738
6 *284:16 *761:8 0
7 *407:12 *761:8 0
8 *432:10 *761:8 0
9 *642:12 *761:8 0
*RES
1 *1440:X *761:8 43.256 
2 *761:8 *1303:A 40 
*END

*D_NET *762 0.000710119
*CONN
*I *1301:A I *D sg13g2_buf_1
*I *1441:X O *D sg13g2_dlygate4sd3_1
*CAP
1 *1301:A 0
2 *1441:X 0.000355059
3 *762:10 0.000355059
4 *762:10 *766:10 0
5 *283:14 *762:10 0
*RES
1 *1441:X *762:10 43.3704 
2 *762:10 *1301:A 40 
*END

*D_NET *763 0.00154435
*CONN
*I *1307:A I *D sg13g2_buf_1
*I *1442:X O *D sg13g2_dlygate4sd3_1
*CAP
1 *1307:A 0
2 *1442:X 0.000772176
3 *763:8 0.000772176
4 *763:8 *770:8 0
5 tl_o[18] *763:8 0
6 *176:8 *763:8 0
7 *323:9 *763:8 0
8 *398:10 *763:8 0
9 *715:36 *763:8 0
*RES
1 *1442:X *763:8 46.6352 
2 *763:8 *1307:A 40 
*END

*D_NET *764 0.00131949
*CONN
*I *1052:B1 I *D sg13g2_o21ai_1
*I *1443:X O *D sg13g2_dlygate4sd3_1
*CAP
1 *1052:B1 7.48674e-05
2 *1443:X 0.000363438
3 *764:10 0.000438305
4 *764:10 *765:16 0
5 *1050:A1 *1052:B1 0
6 *1443:A *1052:B1 0
7 *152:8 *764:10 7.9885e-05
8 *152:14 *764:10 0
9 *156:81 *764:10 0
10 *173:39 *764:10 0.000235055
11 *341:8 *1052:B1 1.54556e-05
12 *341:27 *1052:B1 0.000112485
13 *672:8 *764:10 0
*RES
1 *1443:X *764:10 43.0272 
2 *764:10 *1052:B1 40.6424 
*END

*D_NET *765 0.00494056
*CONN
*I *1079:D I *D sg13g2_dfrbpq_1
*I *1444:X O *D sg13g2_dlygate4sd3_1
*CAP
1 *1079:D 5.388e-05
2 *1444:X 0.000248344
3 *765:24 0.00117298
4 *765:16 0.00135408
5 *765:8 0.000483323
6 *1079:D *1075:D 0
7 *765:24 *1075:D 0
8 *917:A *765:24 0.00012816
9 *928:B1 *765:24 0
10 *936:A2 *1079:D 0
11 *936:A2 *765:24 0
12 *1079:RESET_B *1079:D 0
13 *1342:A *765:24 0
14 *1390:A *765:24 0
15 *53:8 *765:8 0
16 *66:8 *765:8 0.00028637
17 *152:8 *765:24 0.00121343
18 *156:81 *765:24 0
19 *165:12 *765:24 0
20 *166:8 *765:8 0
21 *169:16 *765:24 0
22 *657:55 *765:24 0
23 *657:75 *765:24 0
24 *672:8 *765:8 0
25 *672:8 *765:16 0
26 *764:10 *765:16 0
*RES
1 *1444:X *765:8 42.6224 
2 *765:8 *765:16 41.9184 
3 *765:16 *765:24 49.7064 
4 *765:24 *1079:D 40.4576 
*END

*D_NET *766 0.00136055
*CONN
*I *1302:A I *D sg13g2_buf_1
*I *1445:X O *D sg13g2_dlygate4sd3_1
*CAP
1 *1302:A 0
2 *1445:X 0.000680274
3 *766:10 0.000680274
4 *1343:A *766:10 0
5 *1441:A *766:10 0
6 *1445:A *766:10 0
7 *408:8 *766:10 0
8 *409:6 *766:10 0
9 *680:75 *766:10 0
10 *762:10 *766:10 0
*RES
1 *1445:X *766:10 46.2744 
2 *766:10 *1302:A 40 
*END

*D_NET *767 0.000411006
*CONN
*I *1299:A I *D sg13g2_buf_1
*I *1446:X O *D sg13g2_dlygate4sd3_1
*CAP
1 *1299:A 0.000205503
2 *1446:X 0.000205503
3 *1401:A *1299:A 0
4 *1446:A *1299:A 0
5 *577:10 *1299:A 0
*RES
1 *1446:X *1299:A 41.9184 
*END

*D_NET *768 0.00150792
*CONN
*I *1298:A I *D sg13g2_buf_1
*I *1447:X O *D sg13g2_dlygate4sd3_1
*CAP
1 *1298:A 0.000178849
2 *1447:X 0.000575112
3 *768:8 0.00075396
4 *768:8 *775:8 0
5 *576:14 *768:8 0
6 *579:10 *1298:A 0
7 *579:10 *768:8 0
8 *580:10 *768:8 0
9 *705:18 *1298:A 0
*RES
1 *1447:X *768:8 45.5792 
2 *768:8 *1298:A 41.3816 
*END

*D_NET *769 0.000856494
*CONN
*I *1300:A I *D sg13g2_buf_1
*I *1448:X O *D sg13g2_dlygate4sd3_1
*CAP
1 *1300:A 0.000150276
2 *1448:X 0.000156815
3 *769:8 0.000307091
4 *1445:A *1300:A 0
5 *1448:A *1300:A 0.000242313
6 *410:10 *1300:A 0
*RES
1 *1448:X *769:8 41.5664 
2 *769:8 *1300:A 41.3816 
*END

*D_NET *770 0.00110019
*CONN
*I *1311:A I *D sg13g2_buf_1
*I *1449:X O *D sg13g2_dlygate4sd3_1
*CAP
1 *1311:A 0
2 *1449:X 0.000153697
3 *770:8 0.000153697
4 *1449:A *770:8 0.000396398
5 *323:9 *770:8 0.000396398
6 *763:8 *770:8 0
*RES
1 *1449:X *770:8 42.4112 
2 *770:8 *1311:A 40 
*END

*D_NET *771 0.00205408
*CONN
*I *1050:B1 I *D sg13g2_o21ai_1
*I *1450:X O *D sg13g2_dlygate4sd3_1
*CAP
1 *1050:B1 0.000164556
2 *1450:X 0
3 *771:14 0.000962427
4 *771:6 0.000797871
5 *957:B1 *1050:B1 0
6 *1443:A *1050:B1 0
7 *1451:A *1050:B1 0
8 *191:14 *771:14 0
9 *191:40 *1050:B1 0
10 *660:12 *771:14 0.000129225
*RES
1 *1450:X *771:6 40 
2 *771:6 *771:14 48.36 
3 *771:14 *1050:B1 41.3992 
*END

*D_NET *772 0.00195096
*CONN
*I *1075:D I *D sg13g2_dfrbpq_1
*I *1451:X O *D sg13g2_dlygate4sd3_1
*CAP
1 *1075:D 0.000854405
2 *1451:X 0.000854405
3 *1079:RESET_B *1075:D 0.000242154
4 *1079:D *1075:D 0
5 *1390:A *1075:D 0
6 *765:24 *1075:D 0
*RES
1 *1451:X *1075:D 46.3008 
*END

*D_NET *773 0.00331827
*CONN
*I *1291:A I *D sg13g2_buf_1
*I *1452:X O *D sg13g2_dlygate4sd3_1
*CAP
1 *1291:A 0.000769453
2 *1452:X 0.000310486
3 *773:8 0.00107994
4 *773:8 *782:10 0
5 *819:B *1291:A 0
6 *1409:A *1291:A 0
7 *305:15 *773:8 0
8 *333:33 *1291:A 0
9 *338:9 *1291:A 0
10 *338:23 *1291:A 0.000273568
11 *379:10 *773:8 0
12 *475:14 *1291:A 0.00024211
13 *537:27 *1291:A 0.000208255
14 *641:16 *1291:A 0.000434457
15 *730:8 *773:8 0
16 *751:18 *1291:A 0
*RES
1 *1452:X *773:8 42.8336 
2 *773:8 *1291:A 46.6704 
*END

*D_NET *774 0.00263607
*CONN
*I *830:A2 I *D sg13g2_o21ai_1
*I *1453:X O *D sg13g2_dlygate4sd3_1
*CAP
1 *830:A2 0.000146827
2 *1453:X 0.000146307
3 *774:8 0.000293134
4 *828:A1 *774:8 0.000766552
5 *830:B1 *830:A2 0.000274561
6 *830:A1 *830:A2 0.00024222
7 *964:D *830:A2 0
8 *109:8 *774:8 0.000766466
*RES
1 *1453:X *774:8 43.0448 
2 *774:8 *830:A2 41.5664 
*END

*D_NET *775 0.0034688
*CONN
*I *1304:A I *D sg13g2_buf_1
*I *1454:X O *D sg13g2_dlygate4sd3_1
*CAP
1 *1304:A 3.76092e-05
2 *1454:X 0.000561283
3 *775:8 0.000598892
4 *231:14 *775:8 0
5 *233:23 *775:8 0
6 *564:10 *775:8 0
7 *576:14 *775:8 0.000235055
8 *579:10 *775:8 0.000980515
9 *579:41 *775:8 0
10 *580:10 *775:8 0
11 *705:18 *775:8 0.000715156
12 *705:34 *775:8 0.000340288
13 *768:8 *775:8 0
*RES
1 *1454:X *775:8 47.6912 
2 *775:8 *1304:A 40.2728 
*END

*D_NET *776 0.000251168
*CONN
*I *1322:A I *D sg13g2_buf_1
*I *1455:X O *D sg13g2_dlygate4sd3_1
*CAP
1 *1322:A 0.000125584
2 *1455:X 0.000125584
*RES
1 *1455:X *1322:A 41.3552 
*END

*D_NET *777 0.00282664
*CONN
*I *1290:A I *D sg13g2_buf_1
*I *1456:X O *D sg13g2_dlygate4sd3_1
*CAP
1 *1290:A 0.000293781
2 *1456:X 0.000469199
3 *777:10 0.00076298
4 *826:B *777:10 0
5 *828:A2 *1290:A 0.00036834
6 *1261:A *777:10 0.000208747
7 *284:16 *777:10 0
8 *304:19 *1290:A 0.000432432
9 *304:19 *777:10 0
10 *306:15 *777:10 0
11 *432:10 *777:10 0.000291165
12 *645:8 *777:10 0
*RES
1 *1456:X *777:10 44.3208 
2 *777:10 *1290:A 43.0008 
*END

*D_NET *778 0.00383979
*CONN
*I *1054:A_N I *D sg13g2_nand3b_1
*I *865:B1 I *D sg13g2_a21oi_1
*I *1457:X O *D sg13g2_dlygate4sd3_1
*CAP
1 *1054:A_N 0
2 *865:B1 4.87124e-05
3 *1457:X 8.79228e-05
4 *778:27 0.000359729
5 *778:12 0.000845247
6 *778:8 0.000524729
7 *866:A *865:B1 4.77425e-05
8 *891:B *778:27 0
9 *891:C *778:27 0
10 *1054:C *778:27 1.54556e-05
11 *1250:A *778:27 0
12 *1453:A *778:12 8.0216e-05
13 *1457:A *778:12 0.000726888
14 *109:8 *778:8 0
15 *119:16 *778:27 0.000234224
16 *122:8 *778:27 7.51285e-05
17 *156:22 *865:B1 8.00842e-05
18 *156:22 *778:12 0.000403661
19 *284:16 *778:8 0
20 *405:12 *778:27 0
21 *609:10 *778:8 0.000234727
22 *668:80 *778:27 0
23 *752:10 *778:8 7.53228e-05
*RES
1 *1457:X *778:8 41.144 
2 *778:8 *778:12 24.3384 
3 *778:12 *865:B1 20.4576 
4 *778:12 *778:27 43.5024 
5 *778:27 *1054:A_N 20 
*END

*D_NET *779 0.00200912
*CONN
*I *1080:D I *D sg13g2_dfrbpq_1
*I *1458:X O *D sg13g2_dlygate4sd3_1
*CAP
1 *1080:D 0.00067091
2 *1458:X 0.000333649
3 *779:10 0.00100456
4 *1080:D *868:A 0
5 *779:10 *786:8 0
6 *1080:RESET_B *1080:D 0
7 *1332:A *1080:D 0
8 *1373:A *779:10 0
9 *67:10 *1080:D 0
10 *125:10 *779:10 0
11 *297:57 *1080:D 0
12 *680:260 *779:10 0
13 *680:266 *1080:D 0
14 *680:282 *779:10 0
15 *703:10 *779:10 0
*RES
1 *1458:X *779:10 43.0008 
2 *779:10 *1080:D 45.8168 
*END

*D_NET *780 0.000503242
*CONN
*I *1289:A I *D sg13g2_buf_1
*I *1459:X O *D sg13g2_dlygate4sd3_1
*CAP
1 *1289:A 0
2 *1459:X 0.000251621
3 *780:8 0.000251621
4 *780:8 *785:10 0
5 tl_o[16] *780:8 0
6 *303:13 *780:8 0
7 *758:8 *780:8 0
*RES
1 *1459:X *780:8 42.4112 
2 *780:8 *1289:A 40 
*END

*D_NET *781 0.000654772
*CONN
*I *923:B1 I *D sg13g2_a22oi_1
*I *1460:X O *D sg13g2_dlygate4sd3_1
*CAP
1 *923:B1 0.000138161
2 *1460:X 0.000165269
3 *781:8 0.00030343
4 *1089:D *923:B1 4.79124e-05
5 *151:10 *781:8 0
6 *155:10 *923:B1 0
7 *156:42 *923:B1 0
8 *398:10 *781:8 0
*RES
1 *1460:X *781:8 41.3552 
2 *781:8 *923:B1 41.1968 
*END

*D_NET *782 0.00106413
*CONN
*I *1315:A I *D sg13g2_buf_1
*I *1461:X O *D sg13g2_dlygate4sd3_1
*CAP
1 *1315:A 0
2 *1461:X 0.000291421
3 *782:10 0.000291421
4 tl_o[0] *782:10 0.000240646
5 *305:9 *782:10 0.000240646
6 *379:10 *782:10 0
7 *773:8 *782:10 0
*RES
1 *1461:X *782:10 42.7368 
2 *782:10 *1315:A 40 
*END

*D_NET *783 0.00490594
*CONN
*I *912:B2 I *D sg13g2_a22oi_1
*I *908:B2 I *D sg13g2_a22oi_1
*I *914:B2 I *D sg13g2_a22oi_1
*I *910:B2 I *D sg13g2_a22oi_1
*I *1462:X O *D sg13g2_dlygate4sd3_1
*CAP
1 *912:B2 0
2 *908:B2 0
3 *914:B2 0
4 *910:B2 0.000139576
5 *1462:X 0.000627231
6 *783:24 0.000470265
7 *783:22 0.000749416
8 *783:12 0.000446753
9 *783:8 0.000655257
10 *783:22 *1091:D 0
11 *912:B1 *783:12 0
12 *912:B1 *783:22 0
13 *912:A2 *783:22 1.54008e-05
14 *912:A1 *783:22 0
15 *913:B *783:12 1.54556e-05
16 *913:B *783:22 0
17 *1353:A *910:B2 7.6248e-05
18 *126:18 *783:22 0
19 *138:8 *783:8 0
20 *138:14 *783:8 0
21 *350:16 *783:22 0
22 *405:12 *783:8 0
23 *495:26 *910:B2 0
24 *495:26 *783:24 0
25 *668:14 *783:22 7.67102e-05
26 *668:14 *783:24 0.00113213
27 *668:16 *910:B2 0.000377
28 *668:16 *783:24 7.67102e-05
29 *704:50 *783:22 4.77866e-05
*RES
1 *1462:X *783:8 44.9456 
2 *783:8 *783:12 20.2728 
3 *783:12 *783:22 23.6784 
4 *783:22 *783:24 4.7344 
5 *783:24 *910:B2 41.7776 
6 *783:24 *914:B2 40 
7 *783:22 *908:B2 40 
8 *783:12 *912:B2 20 
*END

*D_NET *784 0.00130146
*CONN
*I *1091:D I *D sg13g2_dfrbpq_1
*I *1463:X O *D sg13g2_dlygate4sd3_1
*CAP
1 *1091:D 0.00019273
2 *1463:X 0.000154616
3 *784:8 0.000347346
4 *912:A2 *1091:D 0
5 *912:A1 *784:8 0.000398157
6 *913:A *1091:D 0.000160873
7 *126:18 *1091:D 4.77425e-05
8 *138:14 *784:8 0
9 *783:22 *1091:D 0
*RES
1 *1463:X *784:8 41.5664 
2 *784:8 *1091:D 41.7072 
*END

*D_NET *785 0.00365631
*CONN
*I *1288:A I *D sg13g2_buf_1
*I *1464:X O *D sg13g2_dlygate4sd3_1
*CAP
1 *1288:A 4.6966e-05
2 *1464:X 0.00095169
3 *785:10 0.000998656
4 *826:A *785:10 0
5 *864:A1 *785:10 7.58826e-05
6 *102:8 *785:10 0.000287399
7 *156:22 *1288:A 8.0342e-05
8 *303:13 *785:10 0
9 *309:11 *785:10 0
10 *321:11 *785:10 0.000449344
11 *405:12 *785:10 0
12 *430:8 *785:10 0.000718157
13 *437:10 *785:10 0
14 *752:18 *1288:A 4.78743e-05
15 *780:8 *785:10 0
*RES
1 *1464:X *785:10 49.3368 
2 *785:10 *1288:A 40.4576 
*END

*D_NET *786 0.00216081
*CONN
*I *868:A I *D sg13g2_nand2_1
*I *1465:X O *D sg13g2_dlygate4sd3_1
*CAP
1 *868:A 0.000719535
2 *1465:X 0.000360868
3 *786:8 0.0010804
4 *1053:B *868:A 0
5 *1067:CLK *868:A 0
6 *1080:RESET_B *868:A 0
7 *1080:D *868:A 0
8 *1338:A *868:A 0
9 *1373:A *786:8 0
10 *125:10 *786:8 0
11 *297:57 *786:8 0
12 *308:18 *868:A 0
13 *308:26 *868:A 0
14 *779:10 *786:8 0
*RES
1 *1465:X *786:8 43.0448 
2 *786:8 *868:A 46.3712 
*END

*D_NET *787 0.00125455
*CONN
*I *1317:A I *D sg13g2_buf_1
*I *1466:X O *D sg13g2_dlygate4sd3_1
*CAP
1 *1317:A 0
2 *1466:X 0.000320424
3 *787:10 0.000320424
4 *305:9 *787:10 0.000241847
5 *347:10 *787:10 0.000241847
6 *377:10 *787:10 0.000130011
*RES
1 *1466:X *787:10 42.7368 
2 *787:10 *1317:A 40 
*END

*D_NET *296 0.000470508
*CONN
*I *1145:D I *D sg13g2_dfrbpq_1
*I *1274:L_HI O *D sg13g2_tiehi
*CAP
1 *1145:D 0.000235254
2 *1274:L_HI 0.000235254
*RES
1 *1274:L_HI *1145:D 42.288 
*END

*D_NET *298 0.000432266
*CONN
*I *1151:D I *D sg13g2_dfrbpq_1
*I *1146:L_HI O *D sg13g2_tiehi
*CAP
1 *1151:D 6.63151e-05
2 *1146:L_HI 0.000149818
3 *298:8 0.000216133
4 *1151:D *1190:A 0
5 *1151:D *680:47 0
6 *298:8 *368:8 0
7 *298:8 *604:8 0
8 *1151:RESET_B *298:8 0
*RES
1 *1146:L_HI *298:8 41.144 
2 *298:8 *1151:D 40.4576 
*END

*D_NET *299 0.000302973
*CONN
*I *1153:D I *D sg13g2_dfrbpq_1
*I *1152:L_HI O *D sg13g2_tiehi
*CAP
1 *1153:D 0
2 *1152:L_HI 0.000151486
3 *299:10 0.000151486
*RES
1 *1152:L_HI *299:10 41.6016 
2 *299:10 *1153:D 40 
*END

*D_NET *300 0.000422444
*CONN
*I *1188:D I *D sg13g2_dfrbpq_1
*I *1154:L_HI O *D sg13g2_tiehi
*CAP
1 *1188:D 0.000211222
2 *1154:L_HI 0.000211222
*RES
1 *1154:L_HI *1188:D 42.1384 
*END

*D_NET *259 0.000411386
*CONN
*I *1407:A I *D sg13g2_dlygate4sd3_1
*I *1326:X O *D sg13g2_buf_1
*CAP
1 *1407:A 0.000205693
2 *1326:X 0.000205693
*RES
1 *1326:X *1407:A 41.9184 
*END

*D_NET *260 0.00194654
*CONN
*I *1401:A I *D sg13g2_dlygate4sd3_1
*I *1325:X O *D sg13g2_buf_1
*CAP
1 *1401:A 0.000828187
2 *1325:X 0.000828187
3 *1401:A *1167:D 4.79124e-05
4 *1401:A *1296:A 0
5 *1401:A *1299:A 0
6 *1401:A *1325:A 0
7 *1401:A *1400:A 0
8 *1401:A *285:46 0
9 *1401:A *411:8 0.000242253
10 *1401:A *577:10 0
*RES
1 *1325:X *1401:A 47.2952 
*END

*D_NET *261 0.000900705
*CONN
*I *1403:A I *D sg13g2_dlygate4sd3_1
*I *1324:X O *D sg13g2_buf_1
*CAP
1 *1403:A 0.00029674
2 *1324:X 0.00029674
3 *1403:A *1163:D 0
4 *1403:A *1323:A 0.000307226
5 *1403:A *1405:A 0
6 *1156:RESET_B *1403:A 0
7 *192:22 *1403:A 0
*RES
1 *1324:X *1403:A 43.1416 
*END

*D_NET *262 0.000719248
*CONN
*I *1405:A I *D sg13g2_dlygate4sd3_1
*I *1323:X O *D sg13g2_buf_1
*CAP
1 *1405:A 0.000359624
2 *1323:X 0.000359624
3 *1405:A *1156:D 0
4 *1156:RESET_B *1405:A 0
5 *1403:A *1405:A 0
*RES
1 *1323:X *1405:A 43.4584 
*END

*D_NET *369 0.00292967
*CONN
*I *1144:RESET_B I *D sg13g2_dfrbpq_1
*I *1187:RESET_B I *D sg13g2_dfrbpq_1
*I *1145:RESET_B I *D sg13g2_dfrbpq_1
*I *1188:RESET_B I *D sg13g2_dfrbpq_1
*I *1322:X O *D sg13g2_buf_1
*CAP
1 *1144:RESET_B 0.000237
2 *1187:RESET_B 0
3 *1145:RESET_B 0.000231323
4 *1188:RESET_B 0
5 *1322:X 0.000458839
6 *369:30 0.000774672
7 *369:12 0.000231323
8 *369:10 0.000996512
9 *1144:RESET_B *1144:D 0
10 *1144:RESET_B *1187:CLK 0
11 *1145:RESET_B *1188:CLK 0
12 *1145:RESET_B *709:23 0
13 *369:30 *1187:CLK 0
14 *369:30 *709:12 0
*RES
1 *1322:X *369:10 44.9808 
2 *369:10 *369:12 20 
3 *369:12 *1188:RESET_B 20 
4 *369:12 *1145:RESET_B 22.2352 
5 *369:10 *369:30 25.7904 
6 *369:30 *1187:RESET_B 20 
7 *369:30 *1144:RESET_B 22.2352 
*END

*D_NET *370 0.00104378
*CONN
*I *1409:A I *D sg13g2_dlygate4sd3_1
*I *1321:X O *D sg13g2_buf_1
*CAP
1 *1409:A 0.000446434
2 *1321:X 0.000446434
3 *1409:A *1055:A2 0
4 *1409:A *1257:A 8.00842e-05
5 *1409:A *1291:A 0
6 *1409:A *1321:A 0
7 *333:33 *1409:A 7.08266e-05
8 *338:9 *1409:A 0
9 *338:23 *1409:A 0
*RES
1 *1321:X *1409:A 43.1592 
*END

*D_NET *371 0.000484161
*CONN
*I *851:A0 I *D sg13g2_mux2_1
*I *1320:X O *D sg13g2_buf_1
*CAP
1 *851:A0 0
2 *1320:X 0.000201896
3 *371:10 0.000201896
4 *371:10 *852:S 8.03692e-05
5 *371:10 *524:18 0
*RES
1 *1320:X *371:10 41.8128 
2 *371:10 *851:A0 40 
*END

*D_NET *372 0.00417817
*CONN
*I *1059:A0 I *D sg13g2_mux2_1
*I *1319:X O *D sg13g2_buf_1
*CAP
1 *1059:A0 2.821e-05
2 *1319:X 6.09109e-05
3 *372:22 0.00087617
4 *372:14 0.00118942
5 *372:8 0.000402372
6 *1059:A0 *1221:A 4.76247e-05
7 *1059:A0 *532:16 1.54008e-05
8 *372:8 *475:14 7.93444e-05
9 *372:8 *540:10 0
10 *372:22 *473:10 0.000454162
11 *372:22 *475:14 0.000630901
12 *372:22 *532:16 0
13 *372:22 *655:75 0.000393653
14 *372:22 *699:34 0
15 *274:15 *372:14 0
*RES
1 *1319:X *372:8 40.4576 
2 *372:8 *372:14 43.5992 
3 *372:14 *372:22 48.228 
4 *372:22 *1059:A0 40.2728 
*END

*D_NET *376 0.00169894
*CONN
*I *862:A I *D sg13g2_nor2_1
*I *1318:X O *D sg13g2_buf_1
*CAP
1 *862:A 6.05458e-05
2 *1318:X 0.000611381
3 *376:8 0.000671927
4 *862:A *1055:A2 0.000112563
5 *68:12 *862:A 0.00011247
6 *120:8 *376:8 0.000130055
7 *333:33 *376:8 0
*RES
1 *1318:X *376:8 44.312 
2 *376:8 *862:A 40.6424 
*END

*D_NET *377 0.00238067
*CONN
*I *862:B I *D sg13g2_nor2_1
*I *820:A I *D sg13g2_nor3_1
*I *1317:X O *D sg13g2_buf_1
*CAP
1 *862:B 0
2 *820:A 0.000166739
3 *1317:X 0.000382164
4 *377:10 0.000548903
5 *820:A *378:8 0
6 *820:A *636:24 4.77425e-05
7 *377:10 *1212:A 8.00954e-05
8 *377:10 *479:18 8.00954e-05
9 *377:10 *787:10 0.000130011
10 *100:28 *820:A 0.000180603
11 *120:8 *820:A 0.000396283
12 *334:13 *377:10 0.00018416
13 *338:23 *377:10 0.00018387
*RES
1 *1317:X *377:10 43.5024 
2 *377:10 *820:A 42.112 
3 *377:10 *862:B 40 
*END

*D_NET *378 0.00202728
*CONN
*I *820:B I *D sg13g2_nor3_1
*I *863:B I *D sg13g2_nand3_1
*I *1316:X O *D sg13g2_buf_1
*CAP
1 *820:B 0
2 *863:B 0
3 *1316:X 0.00044716
4 *378:26 0.000306002
5 *378:12 0.000346655
6 *378:8 0.000487813
7 *378:26 *636:24 1.54008e-05
8 *820:A *378:8 0
9 *863:A *378:26 4.77425e-05
10 *100:24 *378:8 0
11 *100:24 *378:12 8.00842e-05
12 *100:24 *378:26 1.54008e-05
13 *100:50 *378:26 0
14 *101:10 *378:12 4.75616e-05
15 *120:8 *378:26 0.000233463
*RES
1 *1316:X *378:8 43.256 
2 *378:8 *378:12 20.4576 
3 *378:12 *378:26 42.816 
4 *378:26 *863:B 20 
5 *378:12 *820:B 20 
*END

*D_NET *379 0.00339886
*CONN
*I *819:B I *D sg13g2_nand2_2
*I *1315:X O *D sg13g2_buf_1
*CAP
1 *819:B 0.000925472
2 *1315:X 0.000105497
3 *379:10 0.00103097
4 *819:B *819:A 0.000274491
5 *819:B *1212:A 0
6 *819:B *1291:A 0
7 *819:B *641:16 0
8 *819:B *729:10 0.000468086
9 *819:B *751:18 8.78328e-05
10 *379:10 *1212:A 4.7526e-05
11 *379:10 *479:18 4.7526e-05
12 *379:10 *636:24 0.000288087
13 *379:10 *730:8 7.56308e-05
14 *379:10 *773:8 0
15 *379:10 *782:10 0
16 *332:13 *819:B 0
17 *334:13 *819:B 0
18 *338:23 *819:B 4.77425e-05
*RES
1 *1315:X *379:10 41.4168 
2 *379:10 *819:B 47.964 
*END

*D_NET *395 0.00456734
*CONN
*I *976:B I *D sg13g2_nand2_1
*I *837:A0 I *D sg13g2_mux2_1
*I *1314:X O *D sg13g2_buf_1
*CAP
1 *976:B 0
2 *837:A0 0
3 *1314:X 0.000632204
4 *395:30 0.000657056
5 *395:20 0.00128926
6 *395:20 *1073:RESET_B 0
7 *395:20 *1313:A 0.000252863
8 *395:20 *1314:A 0
9 *395:20 *396:10 4.78985e-05
10 *395:30 *1388:A 0
11 *395:30 *680:87 0
12 *395:30 *685:81 0.000181279
13 intr_gpio_o[1] *395:20 0
14 *802:A2 *395:30 0
15 *837:A1 *395:30 1.54008e-05
16 *977:A2 *395:20 0
17 *977:A2 *395:30 0
18 *1140:RESET_B *395:30 4.77425e-05
19 *3:10 *395:30 0
20 *198:16 *395:30 0.000176718
21 *282:12 *395:20 3.23417e-05
22 *282:12 *395:30 0.000824938
23 *282:20 *395:20 0.000409644
*RES
1 *1314:X *395:20 25.9576 
2 *395:20 *395:30 46.5472 
3 *395:30 *837:A0 20 
4 *395:20 *976:B 20 
*END

*D_NET *396 0.00448023
*CONN
*I *974:B I *D sg13g2_nand2_1
*I *836:A0 I *D sg13g2_mux2_1
*I *1313:X O *D sg13g2_buf_1
*CAP
1 *974:B 0.000121529
2 *836:A0 0.000874248
3 *1313:X 0.000253267
4 *396:12 0.000995777
5 *396:10 0.000253267
6 *836:A0 *834:A 0.00108255
7 *836:A0 *1072:RESET_B 0.000144573
8 *836:A0 *1073:RESET_B 0
9 *836:A0 *1388:A 0.000242281
10 *974:B *834:A 8.00913e-05
11 *974:B *1073:RESET_B 0
12 *974:B *397:12 0
13 *396:10 *657:25 0
14 *837:A1 *836:A0 4.77425e-05
15 *975:B1 *974:B 0
16 *975:A2 *974:B 1.54008e-05
17 *977:A2 *836:A0 0
18 *1072:D *836:A0 0
19 *1140:RESET_B *836:A0 0.000273979
20 *282:20 *396:10 4.76345e-05
21 *346:28 *396:10 0
22 *346:38 *396:10 0
23 *395:20 *396:10 4.78985e-05
*RES
1 *1313:X *396:10 42.2616 
2 *396:10 *396:12 20 
3 *396:12 *836:A0 28.2368 
4 *396:12 *974:B 21.2144 
*END

*D_NET *348 0.00509602
*CONN
*I *837:A1 I *D sg13g2_mux2_1
*I *802:A2 I *D sg13g2_a21oi_1
*I *962:A1 I *D sg13g2_a22oi_1
*I *1140:Q O *D sg13g2_dfrbpq_1
*CAP
1 *837:A1 3.09555e-05
2 *802:A2 0.00047416
3 *962:A1 0
4 *1140:Q 0.00026115
5 *348:46 0.000266058
6 *348:25 0.00103603
7 *348:16 0.000710828
8 *348:8 0.00129874
9 *802:A2 *362:20 0
10 *802:A2 *395:30 0
11 *802:A2 *685:81 0
12 *837:A1 *836:A0 4.77425e-05
13 *837:A1 *395:30 1.54008e-05
14 *348:8 *685:89 0.000209714
15 *348:16 *954:C 1.54008e-05
16 *348:16 *678:67 0.000290859
17 *348:25 *359:42 0
18 *348:25 *685:81 0
19 *802:A1 *802:A2 8.03692e-05
20 *960:B *348:8 0
21 *960:B *348:16 0
22 *1140:RESET_B *837:A1 0
23 *3:10 *348:46 0.000177334
24 *86:8 *802:A2 0
25 *114:40 *348:16 0
26 *114:44 *348:25 0
27 *189:10 *348:16 0.00018128
28 *282:12 *802:A2 0
*RES
1 *1140:Q *348:8 22.2616 
2 *348:8 *348:16 46.0632 
3 *348:16 *962:A1 20 
4 *348:8 *348:25 23.0448 
5 *348:25 *802:A2 44.5144 
6 *348:25 *348:46 41.9448 
7 *348:46 *837:A1 40.2728 
*END

*D_NET *349 0.0079177
*CONN
*I *841:A1 I *D sg13g2_mux2_1
*I *910:B1 I *D sg13g2_a22oi_1
*I *792:B1 I *D sg13g2_a21oi_1
*I *1134:Q O *D sg13g2_dfrbpq_1
*CAP
1 *841:A1 0
2 *910:B1 0.00102302
3 *792:B1 0
4 *1134:Q 0.000208922
5 *349:46 0.000859492
6 *349:29 0.00255317
7 *349:16 0.000879575
8 *910:B1 *843:A0 0
9 *910:B1 *1249:A 3.15716e-05
10 *910:B1 *366:18 0.000630923
11 *910:B1 *497:12 0.000209637
12 *349:16 *791:A 0.000148785
13 *349:29 *1186:RESET_B 0.000274452
14 *349:29 *360:24 0
15 *349:29 *366:18 0
16 *349:29 *366:44 0
17 *349:29 *548:10 0
18 *349:29 *675:57 0
19 *349:46 *354:12 0
20 *349:46 *666:14 0
21 *349:46 *680:15 0
22 *349:46 *680:17 0
23 *349:46 *680:27 0
24 *792:A1 *349:29 1.54008e-05
25 *794:C *349:16 0
26 *1092:D *910:B1 0.000209637
27 *1132:RESET_B *910:B1 0.000274452
28 *1132:RESET_B *349:29 0.000598658
29 *9:10 *910:B1 0
30 *127:27 *910:B1 0
31 *272:18 *349:46 0
*RES
1 *1134:Q *349:16 22.3012 
2 *349:16 *792:B1 20 
3 *349:16 *349:29 6.16 
4 *349:29 *910:B1 28.91 
5 *349:29 *349:46 47.48 
6 *349:46 *841:A1 20 
*END

*D_NET *350 0.00458508
*CONN
*I *1062:A1 I *D sg13g2_mux2_1
*I *1033:B1 I *D sg13g2_a21oi_1
*I *908:B1 I *D sg13g2_a22oi_1
*I *1135:Q O *D sg13g2_dfrbpq_1
*CAP
1 *1062:A1 0.000132999
2 *1033:B1 9.6516e-05
3 *908:B1 0
4 *1135:Q 0.000142894
5 *350:27 0.000586627
6 *350:16 0.00121707
7 *350:10 0.00171708
8 *1033:B1 *1033:A2 7.51285e-05
9 *1033:B1 *1150:CLK 0.000128247
10 *1033:B1 *713:14 0
11 *1062:A1 *1033:A2 0.000425588
12 *1062:A1 *365:22 0
13 *350:10 *367:20 0
14 *350:16 *842:A1 0
15 *350:16 *912:B1 0
16 *350:16 *912:A1 0
17 *350:16 *354:38 0
18 *350:16 *405:12 0
19 *350:16 *702:8 0
20 *350:16 *783:22 0
21 *350:27 *1033:A2 0
22 *350:27 *367:20 0
23 *1036:A2 *350:27 0
24 *1036:B1 *350:27 0
25 *1135:RESET_B *350:16 0
26 *1355:A *350:27 1.54008e-05
27 *74:10 *350:10 0
28 *74:10 *350:16 0
29 *113:64 *350:10 4.75212e-05
30 *113:64 *350:27 0
31 *272:28 *350:16 0
32 *284:16 *350:10 0
33 *284:16 *350:16 0
*RES
1 *1135:Q *350:10 41.2056 
2 *350:10 *350:16 30.1024 
3 *350:16 *908:B1 20 
4 *350:10 *350:27 42.86 
5 *350:27 *1033:B1 41.144 
6 *350:27 *1062:A1 41.7776 
*END

*D_NET *351 0.0146506
*CONN
*I *804:A I *D sg13g2_nor3_1
*I *840:A1 I *D sg13g2_mux2_1
*I *906:B1 I *D sg13g2_a22oi_1
*I *1136:Q O *D sg13g2_dfrbpq_1
*CAP
1 *804:A 0.000532723
2 *840:A1 0.000173731
3 *906:B1 0
4 *1136:Q 0.000101115
5 *351:54 0.00098899
6 *351:42 0.00247306
7 *351:26 0.00315381
8 *351:12 0.00219619
9 *351:8 0.000986556
10 *804:A *603:14 0
11 *804:A *603:38 0
12 *804:A *603:53 0
13 *840:A1 *840:S 0
14 *840:A1 *409:18 2.4669e-05
15 *840:A1 *708:18 0.000177142
16 *351:8 *1137:CLK 0
17 *351:12 *1137:CLK 0
18 *351:12 *708:18 0
19 *351:26 *840:S 0
20 *351:26 *352:16 0
21 *351:26 *409:18 0.0003071
22 *351:26 *411:18 0
23 *351:26 *666:14 0.000341216
24 *351:26 *680:167 0
25 *351:26 *684:71 0.0001127
26 *351:42 *898:B1 0
27 *351:42 *905:A 4.78028e-05
28 *351:42 *505:10 0
29 *351:42 *507:10 0
30 *351:42 *666:6 0
31 *351:54 *904:B1 0
32 *351:54 *906:A1 0
33 *351:54 *1234:A 0
34 *351:54 *1333:A 0
35 *351:54 *500:20 4.77425e-05
36 *351:54 *504:8 0
37 *351:54 *680:216 0
38 *351:54 *680:222 0
39 *351:54 *682:14 0.000393268
40 *351:54 *691:10 0
41 *903:B *351:42 6.31981e-05
42 *907:B *351:54 0.000889974
43 *1095:RESET_B *351:42 0
44 *1096:D *351:42 0
45 *1134:D *351:26 0.000371824
46 *1354:A *351:26 0
47 *1378:A *351:26 0
48 *6:10 *351:12 0
49 *127:45 *351:42 0
50 *127:56 *351:42 0
51 *146:10 *351:54 4.79124e-05
52 *283:14 *804:A 0.000880547
53 *345:18 *351:26 0.000339278
*RES
1 *1136:Q *351:8 40.9328 
2 *351:8 *351:12 23.0448 
3 *351:12 *351:26 34.6256 
4 *351:26 *351:42 32.7072 
5 *351:42 *351:54 49.1168 
6 *351:54 *906:B1 20 
7 *351:12 *840:A1 21.5664 
8 *351:8 *804:A 45.0776 
*END

*D_NET *352 0.0121784
*CONN
*I *799:A I *D sg13g2_nor3_1
*I *839:A1 I *D sg13g2_mux2_1
*I *904:B1 I *D sg13g2_a22oi_1
*I *1137:Q O *D sg13g2_dfrbpq_1
*CAP
1 *799:A 0.000135929
2 *839:A1 0.000165599
3 *904:B1 0.00122497
4 *1137:Q 0.000638802
5 *352:28 0.00157889
6 *352:16 0.00197211
7 *352:8 0.00228666
8 *799:A *366:44 0.000242313
9 *904:B1 *1096:CLK 0.000177186
10 *904:B1 *500:20 1.54008e-05
11 *904:B1 *631:14 0
12 *352:8 *353:43 0.00018387
13 *352:16 *900:B1 0
14 *352:16 *1208:A 0
15 *352:16 *353:24 0.000954635
16 *352:16 *603:14 0.00111698
17 *352:16 *680:167 0
18 *352:16 *680:173 0
19 *352:16 *680:204 0
20 *352:16 *695:24 0.000241765
21 *352:28 *901:A 0
22 *352:28 *902:A2 8.00842e-05
23 *352:28 *1096:CLK 0
24 *352:28 *1245:A 8.01118e-05
25 *352:28 *695:30 0.000130017
26 *902:B2 *904:B1 0
27 *902:B2 *352:28 0
28 *904:B2 *904:B1 0
29 *907:B *904:B1 0
30 *1094:D *904:B1 0
31 *1095:RESET_B *904:B1 0
32 *1354:A *352:16 8.03692e-05
33 *1378:A *352:16 0
34 *113:26 *352:16 0.000598033
35 *127:45 *904:B1 0
36 *127:56 *904:B1 0
37 *143:8 *352:28 0
38 *145:10 *904:B1 0.00027466
39 *319:57 *904:B1 0
40 *345:18 *352:16 0
41 *351:26 *352:16 0
42 *351:54 *904:B1 0
*RES
1 *1137:Q *352:8 45.368 
2 *352:8 *352:16 35.6288 
3 *352:16 *352:28 43.0712 
4 *352:28 *904:B1 29.328 
5 *352:8 *839:A1 41.4168 
6 *1137:Q *799:A 41.3816 
*END

*D_NET *353 0.00806119
*CONN
*I *794:A I *D sg13g2_nor3_1
*I *838:A1 I *D sg13g2_mux2_1
*I *902:B1 I *D sg13g2_a22oi_1
*I *1138:Q O *D sg13g2_dfrbpq_1
*CAP
1 *794:A 0.000176297
2 *838:A1 0
3 *902:B1 0.000355569
4 *1138:Q 0
5 *353:43 0.000681995
6 *353:24 0.00206635
7 *353:10 0.00252696
8 *353:6 0.000310482
9 *794:A *675:57 0
10 *902:B1 *901:A 0
11 *902:B1 *680:204 0
12 *353:10 *675:57 0
13 *353:24 *900:B1 0
14 *353:24 *1137:RESET_B 0.000242281
15 *353:24 *1185:CLK 0
16 *353:24 *1208:A 0
17 *353:24 *354:12 0
18 *353:24 *411:18 8.0194e-05
19 *353:24 *603:14 0
20 *353:24 *666:14 0
21 *353:24 *683:30 0
22 *353:24 *695:14 0
23 *353:43 *1137:RESET_B 0.000274321
24 *353:43 *603:14 0
25 *353:43 *684:71 0
26 *794:B *794:A 0
27 *795:B1 *794:A 4.77866e-05
28 *901:B *902:B1 8.03692e-05
29 *1097:D *902:B1 0
30 *1138:D *353:43 0
31 *127:39 *353:24 0
32 *127:45 *902:B1 0
33 *127:45 *353:24 0
34 *144:10 *902:B1 8.00842e-05
35 *283:14 *794:A 0
36 *283:14 *353:24 0
37 *352:8 *353:43 0.00018387
38 *352:16 *353:24 0.000954635
*RES
1 *1138:Q *353:6 40 
2 *353:6 *353:10 21.144 
3 *353:10 *353:24 34.8896 
4 *353:24 *902:B1 42.6752 
5 *353:10 *353:43 45.9136 
6 *353:43 *838:A1 20 
7 *353:6 *794:A 41.5752 
*END

*D_NET *354 0.00777854
*CONN
*I *1035:A I *D sg13g2_nor3_1
*I *1063:A1 I *D sg13g2_mux2_1
*I *900:B1 I *D sg13g2_a22oi_1
*I *1139:Q O *D sg13g2_dfrbpq_1
*CAP
1 *1035:A 0
2 *1063:A1 0
3 *900:B1 0.000499923
4 *1139:Q 0
5 *354:38 0.00111915
6 *354:12 0.00131801
7 *354:6 0.00193724
8 *900:B1 *1244:A 4.77425e-05
9 *900:B1 *411:18 8.0194e-05
10 *900:B1 *503:14 4.77425e-05
11 *900:B1 *695:14 0
12 *900:B1 *695:24 0.000176824
13 *354:12 *666:14 0
14 *354:12 *695:14 0
15 *354:38 *367:38 0.000735511
16 *354:38 *367:52 0.000566239
17 *354:38 *677:20 0
18 *354:38 *714:20 0.000274594
19 *1035:B *354:38 0
20 *1035:C *354:38 0
21 *1133:RESET_B *354:12 0
22 *1133:RESET_B *354:38 0
23 *1135:RESET_B *354:38 0
24 *1150:D *354:38 0.000237998
25 *74:10 *354:38 0.000397979
26 *116:35 *354:38 0
27 *127:33 *354:12 0
28 *272:28 *354:38 0.000339398
29 *349:46 *354:12 0
30 *350:16 *354:38 0
31 *352:16 *900:B1 0
32 *353:24 *900:B1 0
33 *353:24 *354:12 0
*RES
1 *1139:Q *354:6 40 
2 *354:6 *354:12 26.6968 
3 *354:12 *900:B1 23.784 
4 *354:12 *1063:A1 20 
5 *354:6 *354:38 31.6996 
6 *354:38 *1035:A 20 
*END

*D_NET *355 0.00972937
*CONN
*I *846:A1 I *D sg13g2_mux2_1
*I *898:B1 I *D sg13g2_a22oi_1
*I *790:S I *D sg13g2_mux2_1
*I *1128:Q O *D sg13g2_dfrbpq_1
*CAP
1 *846:A1 0
2 *898:B1 0.00180908
3 *790:S 0.00137064
4 *1128:Q 0.000300104
5 *355:36 0.000313821
6 *355:23 0.00224295
7 *355:10 0.00149068
8 *355:8 0.000300104
9 *790:S *1128:CLK 0
10 *790:S *1328:A 0.000404624
11 *790:S *1345:A 0.000307226
12 *790:S *1381:A 0
13 *790:S *1382:A 0
14 *790:S *368:12 0.000518255
15 *790:S *410:10 0
16 *790:S *604:12 0
17 *790:S *604:27 0
18 *790:S *675:8 0
19 *790:S *712:26 0
20 *898:B1 *841:S 0
21 *898:B1 *897:A 0
22 *898:B1 *1099:CLK 0.000339376
23 *898:B1 *1328:A 0
24 *898:B1 *356:8 0
25 *898:B1 *506:36 0
26 *898:B1 *507:10 0
27 *898:B1 *658:10 0
28 *898:B1 *658:100 0
29 *898:B1 *666:6 0
30 *898:B1 *666:27 0
31 *898:B1 *682:42 0
32 *898:B1 *683:47 0
33 *355:8 *675:31 0
34 *355:8 *707:10 0
35 *355:23 *1099:CLK 3.23417e-05
36 *355:23 *1128:CLK 0.000177164
37 *355:23 *1328:A 0
38 *355:36 *1099:CLK 7.51285e-05
39 *355:36 *684:12 0
40 *899:B *898:B1 4.78685e-05
41 *1138:D *790:S 0
42 *319:36 *898:B1 0
43 *345:8 *898:B1 0
44 *345:18 *355:8 0
45 *351:42 *898:B1 0
*RES
1 *1128:Q *355:8 42.8336 
2 *355:8 *355:10 20 
3 *355:10 *790:S 33.0944 
4 *355:10 *355:23 1.1968 
5 *355:23 *898:B1 35.0568 
6 *355:23 *355:36 43.0448 
7 *355:36 *846:A1 20 
*END

*D_NET *356 0.00489092
*CONN
*I *789:S I *D sg13g2_mux2_1
*I *845:A1 I *D sg13g2_mux2_1
*I *896:B1 I *D sg13g2_a22oi_1
*I *1129:Q O *D sg13g2_dfrbpq_1
*CAP
1 *789:S 0.000519951
2 *845:A1 0.000369762
3 *896:B1 0.000199706
4 *1129:Q 0.00019029
5 *356:25 0.00133735
6 *356:8 0.00083763
7 *789:S *1069:RESET_B 1.54008e-05
8 *789:S *1131:CLK 0
9 *789:S *1366:A 0.000242236
10 *789:S *550:39 0.000307057
11 *789:S *658:18 8.03692e-05
12 *789:S *658:22 0
13 *789:S *696:20 0
14 *789:S *696:29 0
15 *845:A1 *1061:A1 0
16 *845:A1 *411:18 0
17 *845:A1 *658:22 0
18 *845:A1 *684:24 0
19 *896:B1 *896:A1 0.00014344
20 *896:B1 *658:47 0
21 *356:8 *658:47 0
22 *356:25 *1061:A1 0
23 *356:25 *411:18 0
24 *897:B *896:B1 0.000304188
25 *898:B1 *356:8 0
26 *1099:D *356:8 0
27 *1129:D *845:A1 0
28 *37:8 *356:25 0.000343546
29 *157:10 *789:S 0
*RES
1 *1129:Q *356:8 21.7072 
2 *356:8 *896:B1 21.936 
3 *356:8 *356:25 24.708 
4 *356:25 *845:A1 43.3968 
5 *356:25 *789:S 44.9104 
*END

*D_NET *357 0.00430022
*CONN
*I *894:B1 I *D sg13g2_a22oi_1
*I *844:A1 I *D sg13g2_mux2_1
*I *788:S I *D sg13g2_mux2_1
*I *1130:Q O *D sg13g2_dfrbpq_1
*CAP
1 *894:B1 0.000609016
2 *844:A1 0
3 *788:S 0.000345481
4 *1130:Q 3.01134e-05
5 *357:10 0.0010785
6 *357:6 0.00137215
7 *788:S *415:12 0.000554078
8 *788:S *505:18 0
9 *788:S *572:8 0.000241358
10 *788:S *584:36 0
11 *894:B1 *896:A1 4.75265e-05
12 *894:B1 *658:47 0
13 *894:B1 *658:57 0
14 *357:6 *896:A1 0
15 *357:6 *658:47 0
16 *357:10 *505:18 0
17 *894:B2 *894:B1 2.19969e-05
18 *895:B *894:B1 0
19 *1101:D *894:B1 0
*RES
1 *1130:Q *357:6 20.2728 
2 *357:6 *357:10 26.8464 
3 *357:10 *788:S 43.7928 
4 *357:10 *844:A1 40 
5 *357:6 *894:B1 25.28 
*END

*D_NET *358 0.008438
*CONN
*I *1031:S I *D sg13g2_mux2_1
*I *892:B1 I *D sg13g2_a22oi_1
*I *1061:A1 I *D sg13g2_mux2_1
*I *1131:Q O *D sg13g2_dfrbpq_1
*CAP
1 *1031:S 0
2 *892:B1 0
3 *1061:A1 0.00055565
4 *1131:Q 0.000268916
5 *358:50 0.00052805
6 *358:37 0.000824066
7 *358:25 0.00204682
8 *358:8 0.00151927
9 *1061:A1 *411:18 0
10 *1061:A1 *505:18 0
11 *358:25 *1130:CLK 0
12 *358:25 *658:47 0
13 *358:25 *658:57 0
14 *358:37 *1339:A 0
15 *358:37 *658:57 0
16 *358:37 *658:80 0.00094988
17 *358:37 *680:316 0
18 *358:37 *692:8 0
19 *358:37 *692:10 0
20 *358:50 *1031:A0 0.000181192
21 *358:50 *690:29 0
22 *845:A1 *1061:A1 0
23 *893:B *358:37 4.77425e-05
24 *1101:D *358:25 0.000529427
25 *1101:D *358:37 0
26 *36:10 *358:50 0.000607517
27 *38:8 *358:37 0
28 *139:10 *358:37 0.000379475
29 *272:14 *358:50 0
30 *356:25 *1061:A1 0
*RES
1 *1131:Q *358:8 41.9888 
2 *358:8 *1061:A1 45.0952 
3 *358:8 *358:25 26.1864 
4 *358:25 *358:37 48.272 
5 *358:37 *892:B1 20 
6 *358:25 *358:50 45.0072 
7 *358:50 *1031:S 20 
*END

*D_NET *359 0.00660266
*CONN
*I *836:A1 I *D sg13g2_mux2_1
*I *797:A2 I *D sg13g2_a21oi_1
*I *956:A1 I *D sg13g2_a22oi_1
*I *1141:Q O *D sg13g2_dfrbpq_1
*CAP
1 *836:A1 0
2 *797:A2 0
3 *956:A1 0.000236865
4 *1141:Q 9.07659e-05
5 *359:42 0.000622402
6 *359:29 0.000603815
7 *359:14 0.00161123
8 *359:8 0.00148372
9 *359:8 *849:A0 0
10 *359:14 *849:A0 0
11 *359:14 *955:B1 0
12 *359:14 *1384:A 0.000145006
13 *359:14 *364:27 0
14 *359:29 *960:A 0
15 *359:29 *367:52 0.000175659
16 *359:29 *677:10 0
17 *359:29 *714:10 0
18 *359:42 *847:A1 0
19 *359:42 *849:A0 0
20 *359:42 *362:20 0
21 *359:42 *364:19 0
22 *359:42 *685:68 0.000181279
23 *797:A1 *359:29 1.54008e-05
24 *954:B *359:14 0
25 *956:B1 *956:A1 0.00040308
26 *956:B1 *359:14 0
27 *956:B2 *359:14 0
28 *962:B1 *359:14 0
29 *1148:D *359:29 0
30 *114:44 *359:42 0.00103344
31 *183:8 *359:29 0
32 *190:22 *956:A1 0
33 *190:22 *359:14 0
34 *348:25 *359:42 0
*RES
1 *1141:Q *359:8 20.7832 
2 *359:8 *359:14 6.0456 
3 *359:14 *956:A1 22.3056 
4 *359:14 *359:29 45.5088 
5 *359:29 *797:A2 20 
6 *359:8 *359:42 46.8816 
7 *359:42 *836:A1 20 
*END

*D_NET *360 0.00369186
*CONN
*I *817:A I *D sg13g2_inv_1
*I *792:A2 I *D sg13g2_a21oi_1
*I *1142:Q O *D sg13g2_dfrbpq_1
*CAP
1 *817:A 0
2 *792:A2 0
3 *1142:Q 0.000516815
4 *360:24 0.000599846
5 *360:12 0.000794795
6 *360:8 0.000711763
7 *360:8 *364:33 0
8 *360:8 *685:27 0
9 *360:12 *367:52 0
10 *360:24 *364:33 0
11 *360:24 *366:44 0.00024211
12 *360:24 *675:57 0.000181192
13 *792:A1 *360:24 0.000177339
14 *835:A1 *360:24 0.000287318
15 *947:A *360:8 0
16 *116:80 *360:12 0
17 *116:80 *360:24 0.000180682
18 *271:31 *360:24 0
19 *349:29 *360:24 0
*RES
1 *1142:Q *360:8 44.1008 
2 *360:8 *360:12 21.3816 
3 *360:12 *360:24 46.688 
4 *360:24 *792:A2 20 
5 *360:12 *817:A 20 
*END

*D_NET *361 0.00331126
*CONN
*I *1064:A1 I *D sg13g2_mux2_1
*I *941:A_N I *D sg13g2_nand2b_1
*I *1033:A2 I *D sg13g2_a21oi_1
*I *1143:Q O *D sg13g2_dfrbpq_1
*CAP
1 *1064:A1 2.84208e-05
2 *941:A_N 0.000201537
3 *1033:A2 0.000481347
4 *1143:Q 0.000148829
5 *361:18 0.000756881
6 *361:14 0.000241014
7 *361:10 0.000287425
8 *941:A_N *941:B 1.54556e-05
9 *1033:A2 *407:12 0
10 *1033:A2 *653:12 0
11 *1033:A2 *713:14 0
12 *361:10 *398:22 0
13 *361:10 *407:12 0.000394236
14 *361:14 *437:49 0
15 *361:18 *407:12 0
16 *1033:B1 *1033:A2 7.51285e-05
17 *1036:A2 *1033:A2 0
18 *1036:B1 *1033:A2 0
19 *1062:A1 *1033:A2 0.000425588
20 *1064:S *941:A_N 4.78195e-05
21 *1334:A *361:10 4.74248e-05
22 *76:10 *361:14 0
23 *105:40 *361:10 4.74248e-05
24 *106:27 *941:A_N 0.000112733
25 *106:27 *1064:A1 0
26 *106:27 *361:14 0
27 *175:10 *1064:A1 0
28 *350:27 *1033:A2 0
*RES
1 *1143:Q *361:10 41.8392 
2 *361:10 *361:14 21.012 
3 *361:14 *361:18 20.7216 
4 *361:18 *1033:A2 45.3064 
5 *361:18 *941:A_N 41.7512 
6 *361:14 *1064:A1 20.2728 
*END

*D_NET *362 0.00774661
*CONN
*I *937:A1 I *D sg13g2_o21ai_1
*I *849:A1 I *D sg13g2_mux2_1
*I *803:B_N I *D sg13g2_nor2b_1
*I *1124:Q O *D sg13g2_dfrbpq_1
*CAP
1 *937:A1 0
2 *849:A1 4.44126e-05
3 *803:B_N 0
4 *1124:Q 7.47389e-05
5 *362:42 0.000142002
6 *362:20 0.00133837
7 *362:12 0.00205195
8 *362:10 0.000885913
9 *849:A1 *849:A0 7.98567e-05
10 *362:12 *932:A1 0
11 *362:12 *937:A2 0
12 *362:12 *1124:CLK 0
13 *362:12 *364:19 0
14 *362:20 *801:A 0
15 *362:20 *364:19 0
16 *362:20 *366:44 0
17 *362:20 *678:59 0
18 *362:20 *685:55 0
19 *362:20 *685:68 0
20 *362:42 *937:A2 0
21 *802:A2 *362:20 0
22 *850:A *849:A1 7.98567e-05
23 *1147:D *362:20 0.000112349
24 *1340:A *362:12 0.000554076
25 *86:8 *362:20 0
26 *87:8 *362:20 0
27 *105:73 *362:12 0.000390018
28 *105:99 *362:10 4.77251e-05
29 *105:99 *362:12 0.000179079
30 *114:8 *362:20 0.000182023
31 *114:19 *362:20 0.000820482
32 *114:40 *362:20 0.000716033
33 *164:14 *362:42 0
34 *165:12 *362:10 4.77251e-05
35 *359:42 *362:20 0
*RES
1 *1124:Q *362:10 40.7304 
2 *362:10 *362:12 5.7904 
3 *362:12 *362:20 33.2264 
4 *362:20 *803:B_N 20 
5 *362:12 *849:A1 40.4576 
6 *362:10 *362:42 41.1528 
7 *362:42 *937:A1 40 
*END

*D_NET *363 0.0133498
*CONN
*I *932:A1 I *D sg13g2_o21ai_1
*I *798:B_N I *D sg13g2_nor2b_1
*I *848:A1 I *D sg13g2_mux2_1
*I *1125:Q O *D sg13g2_dfrbpq_1
*CAP
1 *932:A1 0.000232955
2 *798:B_N 0.000723939
3 *848:A1 0.000801246
4 *1125:Q 0.000435638
5 *363:39 0.00164976
6 *363:29 0.00202369
7 *363:12 0.0021018
8 *798:B_N *834:A 0.000501419
9 *798:B_N *961:A1 0.000128247
10 *798:B_N *650:12 0.00109515
11 *798:B_N *678:61 0
12 *798:B_N *678:67 0
13 *798:B_N *685:49 0.000501293
14 *798:B_N *685:55 0
15 *848:A1 *848:A0 1.54008e-05
16 *848:A1 *399:31 0
17 *848:A1 *402:6 0
18 *848:A1 *657:55 0
19 *932:A1 *932:A2 7.34141e-06
20 *932:A1 *1124:CLK 0.000180318
21 *363:12 *936:A1 0
22 *363:29 *1078:CLK 0
23 *363:29 *364:6 0
24 *363:29 *717:8 0
25 *363:29 *717:38 0
26 *363:39 *949:B1 0
27 *363:39 *961:A1 0
28 *363:39 *664:79 0
29 *363:39 *670:8 0.000556324
30 *363:39 *678:24 0
31 *363:39 *678:59 0
32 *926:A1 *363:29 0
33 *931:A1 *363:12 0
34 *936:A2 *363:12 0
35 *937:B1 *932:A1 0
36 *966:A *848:A1 7.99485e-05
37 *1418:A *363:12 0
38 *105:71 *932:A1 7.20796e-05
39 *105:99 *932:A1 7.9225e-05
40 *106:35 *363:39 0
41 *159:8 *363:29 0
42 *159:21 *848:A1 0
43 *161:12 *363:29 8.00667e-05
44 *178:14 *848:A1 0.000289113
45 *193:8 *848:A1 0
46 *257:12 *848:A1 0
47 *257:12 *363:12 0.000111683
48 *341:27 *363:39 0.00021099
49 *341:33 *363:29 0.00147216
50 *346:8 *848:A1 0
51 *362:12 *932:A1 0
*RES
1 *1125:Q *363:12 43.5376 
2 *363:12 *848:A1 47.2512 
3 *363:12 *363:29 48.404 
4 *363:29 *363:39 48.8704 
5 *363:39 *798:B_N 48.0168 
6 *363:29 *932:A1 42.1626 
*END

*D_NET *364 0.00846353
*CONN
*I *847:A1 I *D sg13g2_mux2_1
*I *793:B_N I *D sg13g2_nor2b_1
*I *927:A1 I *D sg13g2_o21ai_1
*I *1126:Q O *D sg13g2_dfrbpq_1
*CAP
1 *847:A1 0.000297688
2 *793:B_N 0.000174223
3 *927:A1 0.000121606
4 *1126:Q 0.000211426
5 *364:33 0.00122725
6 *364:27 0.00188591
7 *364:19 0.00196521
8 *364:6 0.00116768
9 *793:B_N *791:A 0.000306964
10 *847:A1 *402:18 0
11 *927:A1 *664:94 0.000167533
12 *927:A1 *678:46 7.31538e-06
13 *927:A1 *678:59 3.23417e-05
14 *364:6 *664:94 0.000323761
15 *364:19 *1124:CLK 0.000236081
16 *364:19 *1126:CLK 0
17 *364:27 *961:A2 0.000210807
18 *364:33 *677:10 0
19 *794:C *793:B_N 0
20 *954:B *847:A1 0
21 *954:B *364:27 0
22 *963:B1 *364:33 0
23 *1126:RESET_B *847:A1 0
24 *1126:D *847:A1 0
25 *106:35 *364:27 0
26 *114:44 *364:19 0
27 *114:48 *847:A1 0
28 *114:54 *364:19 0
29 *116:88 *364:33 0.000127744
30 *161:12 *364:6 0
31 *359:14 *364:27 0
32 *359:42 *847:A1 0
33 *359:42 *364:19 0
34 *360:8 *364:33 0
35 *360:24 *364:33 0
36 *362:12 *364:19 0
37 *362:20 *364:19 0
38 *363:29 *364:6 0
*RES
1 *1126:Q *364:6 21.936 
2 *364:6 *927:A1 20.9658 
3 *364:6 *364:19 46.2128 
4 *364:19 *364:27 47.9376 
5 *364:27 *364:33 49.1696 
6 *364:33 *793:B_N 21.7512 
7 *364:19 *847:A1 22.7896 
*END

*D_NET *365 0.00456524
*CONN
*I *920:A1 I *D sg13g2_o21ai_1
*I *1060:A1 I *D sg13g2_mux2_1
*I *1034:B_N I *D sg13g2_nor2b_1
*I *1127:Q O *D sg13g2_dfrbpq_1
*CAP
1 *920:A1 0.000306163
2 *1060:A1 0.000248301
3 *1034:B_N 0
4 *1127:Q 0
5 *365:22 0.000640944
6 *365:10 0.00162283
7 *365:6 0.00103975
8 *920:A1 *437:64 1.54556e-05
9 *920:A1 *664:49 0
10 *1060:A1 *664:18 0
11 *1060:A1 *685:10 7.94055e-05
12 *1060:A1 *685:14 0
13 *365:10 *398:22 0
14 *365:10 *664:10 0
15 *365:10 *664:18 0
16 *365:10 *714:26 0
17 *365:22 *1150:CLK 0
18 *365:22 *664:18 0
19 *365:22 *714:26 0
20 *920:B1 *920:A1 0
21 *1033:A1 *365:22 0
22 *1034:A *365:22 0
23 *1035:C *365:22 8.02914e-05
24 *1036:B1 *1060:A1 0
25 *1062:A1 *365:22 0
26 *1127:D *1060:A1 0
27 *1355:A *1060:A1 6.48533e-05
28 *1355:A *365:22 0.000274677
29 *116:22 *365:22 0
30 *171:10 *920:A1 1.54008e-05
31 *171:25 *365:10 0
32 *240:10 *365:22 0.000177164
*RES
1 *1127:Q *365:6 40 
2 *365:6 *365:10 26.6352 
3 *365:10 *365:22 45.8696 
4 *365:22 *1034:B_N 20 
5 *365:10 *1060:A1 22.3232 
6 *365:6 *920:A1 42.3144 
*END

*D_NET *366 0.00961502
*CONN
*I *802:B1 I *D sg13g2_a21oi_1
*I *843:A1 I *D sg13g2_mux2_1
*I *914:B1 I *D sg13g2_a22oi_1
*I *1132:Q O *D sg13g2_dfrbpq_1
*CAP
1 *802:B1 0
2 *843:A1 0
3 *914:B1 0
4 *1132:Q 0.000428141
5 *366:44 0.00160454
6 *366:26 0.000605392
7 *366:18 0.00168966
8 *366:8 0.00311695
9 *366:8 *713:29 0
10 *366:18 *1139:CLK 0.000339398
11 *366:18 *1186:RESET_B 0.000274452
12 *366:18 *548:10 0
13 *366:18 *680:15 0
14 *366:26 *914:A1 4.77425e-05
15 *366:26 *1092:CLK 0
16 *366:26 *1372:A 0
17 *366:26 *675:57 0
18 *366:44 *791:A 0
19 *366:44 *1184:CLK 0
20 *366:44 *675:57 0
21 *799:A *366:44 0.000242313
22 *799:C *366:44 0
23 *800:B1 *366:44 0
24 *802:A1 *366:44 0
25 *803:A *366:44 0
26 *910:B1 *366:18 0.000630923
27 *78:8 *366:44 0
28 *113:20 *366:26 0.000393406
29 *270:29 *366:44 0
30 *271:25 *366:18 0
31 *271:31 *366:8 0
32 *272:14 *366:18 0
33 *272:18 *366:8 0
34 *282:12 *366:44 0
35 *349:29 *366:18 0
36 *349:29 *366:44 0
37 *360:24 *366:44 0.00024211
38 *362:20 *366:44 0
*RES
1 *1132:Q *366:8 44.312 
2 *366:8 *366:18 29.9088 
3 *366:18 *366:26 45.3504 
4 *366:26 *914:B1 20 
5 *366:18 *843:A1 20 
6 *366:8 *366:44 33.4376 
7 *366:44 *802:B1 20 
*END

*D_NET *367 0.00828447
*CONN
*I *842:A1 I *D sg13g2_mux2_1
*I *797:B1 I *D sg13g2_a21oi_1
*I *912:B1 I *D sg13g2_a22oi_1
*I *1133:Q O *D sg13g2_dfrbpq_1
*CAP
1 *842:A1 0.000458531
2 *797:B1 0
3 *912:B1 0.000289489
4 *1133:Q 0.000652263
5 *367:52 0.001098
6 *367:38 0.00169578
7 *367:20 0.00141909
8 *842:A1 *1135:CLK 0.000339508
9 *912:B1 *783:12 0
10 *912:B1 *783:22 0
11 *367:20 *1135:CLK 0
12 *367:38 *713:6 0
13 *367:38 *713:25 0
14 *367:52 *677:20 0
15 *367:52 *685:40 0
16 *367:52 *714:16 0
17 *367:52 *714:20 0
18 *913:B *912:B1 0.000274666
19 *1035:C *367:38 0.000177033
20 *1036:B1 *367:38 0
21 *1148:D *367:52 0
22 *8:10 *842:A1 0
23 *8:10 *912:B1 0.000274452
24 *113:64 *912:B1 0
25 *113:64 *367:20 0
26 *116:56 *367:38 0.000128247
27 *116:80 *367:52 0
28 *350:10 *367:20 0
29 *350:16 *842:A1 0
30 *350:16 *912:B1 0
31 *350:27 *367:20 0
32 *354:38 *367:38 0.000735511
33 *354:38 *367:52 0.000566239
34 *359:29 *367:52 0.000175659
35 *360:12 *367:52 0
*RES
1 *1133:Q *912:B1 42.86 
2 *1133:Q *367:20 23.2384 
3 *367:20 *367:38 45.984 
4 *367:38 *367:52 49.6008 
5 *367:52 *797:B1 20 
6 *367:20 *842:A1 24.1536 
*END

*D_NET *368 0.00562835
*CONN
*I *833:A I *D sg13g2_buf_1
*I *1136:RESET_B I *D sg13g2_dfrbpq_1
*I *1345:A I *D sg13g2_buf_1
*I *1144:Q O *D sg13g2_dfrbpq_1
*CAP
1 *833:A 0.000539179
2 *1136:RESET_B 0
3 *1345:A 0.00017268
4 *1144:Q 0.000767742
5 *368:25 0.000277929
6 *368:12 0.000758202
7 *368:8 0.00161451
8 *833:A *708:12 4.78359e-05
9 *833:A *708:44 0
10 *833:A *711:10 0
11 *833:A *711:28 0
12 *1345:A *410:10 0
13 *368:8 *1144:CLK 0
14 *368:8 *604:8 0.000341724
15 *368:8 *708:44 0
16 *368:12 *410:10 0
17 *790:S *1345:A 0.000307226
18 *790:S *368:12 0.000518255
19 *1138:D *1345:A 0
20 *1151:RESET_B *368:8 0
21 *1378:A *833:A 4.78359e-05
22 *4:8 *368:25 0
23 *6:10 *368:25 0.000235228
24 *268:10 *368:8 0
25 *270:16 *368:8 0
26 *270:16 *368:25 0
27 *298:8 *368:8 0
*RES
1 *1144:Q *368:8 46.424 
2 *368:8 *368:12 23.0448 
3 *368:12 *1345:A 21.7512 
4 *368:12 *368:25 43.0448 
5 *368:25 *1136:RESET_B 20 
6 *368:8 *833:A 44.3736 
*END

*D_NET *339 0.00143774
*CONN
*P rst_ni I
*I *1455:A I *D sg13g2_dlygate4sd3_1
*CAP
1 rst_ni 0.000718872
2 *1455:A 0.000718872
*RES
1 rst_ni *1455:A 47.8584 
*END

*D_NET *338 0.00666365
*CONN
*P tl_i[0] I
*I *1408:A I *D sg13g2_dlygate4sd3_1
*CAP
1 tl_i[0] 0.0018398
2 *1408:A 0
3 *338:23 0.000936997
4 *338:9 0.0027768
5 *338:9 tl_o[0] 0
6 *338:9 tl_o[65] 0
7 *338:9 *1257:A 8.00842e-05
8 *338:9 *1291:A 0
9 *338:9 *1409:A 0
10 *338:9 *636:24 0
11 *338:23 *819:B 4.77425e-05
12 *338:23 *1055:A2 0
13 *338:23 *1291:A 0.000273568
14 *338:23 *1305:A 0
15 *338:23 *1321:A 0.000208901
16 *338:23 *1409:A 0
17 *338:23 *377:10 0.00018387
18 *338:23 *437:10 0
19 *338:23 *645:8 0
20 *338:23 *729:10 0
21 *68:12 *338:9 0
22 *68:12 *338:23 0
23 *100:10 *338:23 0.000112519
24 *100:14 *338:23 0
25 *287:8 *338:9 0
26 *303:13 *338:23 0
27 *304:19 *338:23 0
28 *333:33 *338:9 0.000203375
*RES
1 tl_i[0] *338:9 33.2 
2 *338:9 *338:23 48.3336 
3 *338:23 *1408:A 20 
*END

*D_NET *337 0.0028524
*CONN
*P tl_i[100] I
*I *1413:A I *D sg13g2_dlygate4sd3_1
*CAP
1 tl_i[100] 0.00141847
2 *1413:A 0.00141847
3 *1413:A *852:S 1.54556e-05
4 *1413:A *857:S 0
5 *1413:A *1281:A 0
6 *1413:A *524:18 0
7 *1413:A *524:26 0
8 *1413:A *733:10 0
9 *1412:A *1413:A 0
10 *1429:A *1413:A 0
*RES
1 tl_i[100] *1413:A 32.628 
*END

*D_NET *336 0.00369341
*CONN
*P tl_i[101] I
*I *1434:A I *D sg13g2_dlygate4sd3_1
*CAP
1 tl_i[101] 0.00160604
2 *1434:A 0
3 *336:11 0.00160604
4 *336:11 tl_o[55] 0
5 *336:11 tl_o[56] 0
6 *336:11 *479:12 0
7 *336:11 *751:18 0.000273065
8 *274:9 *336:11 0.000208271
*RES
1 tl_i[101] *336:11 31.3608 
2 *336:11 *1434:A 20 
*END

*D_NET *335 0.00481795
*CONN
*P tl_i[105] I
*I *1318:A I *D sg13g2_buf_1
*CAP
1 tl_i[105] 0.000709419
2 *1318:A 0.000709419
3 *1318:A *479:18 0.000176405
4 *287:8 *1318:A 0.00206031
5 *305:9 *1318:A 0.000176405
6 *333:33 *1318:A 0.000985991
*RES
1 tl_i[105] *1318:A 49.2928 
*END

*D_NET *334 0.00264353
*CONN
*P tl_i[106] I
*I *1466:A I *D sg13g2_dlygate4sd3_1
*CAP
1 tl_i[106] 0.00118958
2 *1466:A 0
3 *334:13 0.00118958
4 *334:13 *819:B 0
5 *334:13 *1212:A 0
6 *334:13 *377:10 0.00018416
7 *334:13 *641:22 8.0216e-05
8 *305:9 *334:13 0
9 *333:33 *334:13 0
*RES
1 tl_i[106] *334:13 31.0792 
2 *334:13 *1466:A 20 
*END

*D_NET *333 0.00741002
*CONN
*P tl_i[107] I
*I *1430:A I *D sg13g2_dlygate4sd3_1
*CAP
1 tl_i[107] 0.00285388
2 *1430:A 0
3 *333:33 0.00285388
4 *333:33 *853:A1 0
5 *333:33 *1055:A2 0
6 *333:33 *1123:CLK 0
7 *333:33 *1216:A 0
8 *333:33 *1222:A 0.000112826
9 *333:33 *1291:A 0
10 *333:33 *1318:A 0.000985991
11 *333:33 *1409:A 7.08266e-05
12 *333:33 *334:13 0
13 *333:33 *338:9 0.000203375
14 *333:33 *376:8 0
15 *333:33 *475:14 0
16 *333:33 *530:27 0.000306964
17 *333:33 *532:16 0
18 *333:33 *731:8 2.22695e-05
19 *70:8 *333:33 0
20 *287:8 *333:33 0
*RES
1 tl_i[107] *333:33 45.1064 
2 *333:33 *1430:A 20 
*END

*D_NET *332 0.00414325
*CONN
*P tl_i[108] I
*I *1461:A I *D sg13g2_dlygate4sd3_1
*CAP
1 tl_i[108] 0.000999987
2 *1461:A 0
3 *332:13 0.000999987
4 *332:13 tl_o[0] 0.00190793
5 *332:13 tl_o[25] 0
6 *332:13 *819:B 0
7 *332:13 *1212:A 0
8 *332:13 *636:24 0.000235345
*RES
1 tl_i[108] *332:13 30.34 
2 *332:13 *1461:A 20 
*END

*D_NET *331 0.00597622
*CONN
*P tl_i[24] I
*I *1422:A I *D sg13g2_dlygate4sd3_1
*CAP
1 tl_i[24] 0.000198333
2 *1422:A 0.00204925
3 *331:11 0.00224759
4 *1422:A *1312:A 0.000793266
5 *1422:A *1314:A 0
6 *1422:A *657:12 0
7 intr_gpio_o[0] *1422:A 0
8 intr_gpio_o[1] *331:11 0
9 *1268:A *1422:A 0
10 *1436:A *1422:A 0.000687774
11 *329:13 *1422:A 0
12 *329:13 *331:11 0
*RES
1 tl_i[24] *331:11 41.7424 
2 *331:11 *1422:A 37.8288 
*END

*D_NET *329 0.00332726
*CONN
*P tl_i[25] I
*I *1423:A I *D sg13g2_dlygate4sd3_1
*CAP
1 tl_i[25] 0.00150233
2 *1423:A 0
3 *329:13 0.00150233
4 *329:13 *1312:A 0.00030715
5 *329:13 *1314:A 0
6 *329:13 *1422:A 0
7 *329:13 *331:11 0
8 intr_gpio_o[1] *329:13 0
9 *1436:A *329:13 1.54556e-05
*RES
1 tl_i[25] *329:13 33.0064 
2 *329:13 *1423:A 40 
*END

*D_NET *328 0.00400963
*CONN
*P tl_i[26] I
*I *1436:A I *D sg13g2_dlygate4sd3_1
*CAP
1 tl_i[26] 0.0016532
2 *1436:A 0.0016532
3 *1436:A *1422:A 0.000687774
4 *1436:A *329:13 1.54556e-05
5 intr_gpio_o[0] *1436:A 0
*RES
1 tl_i[26] *1436:A 36.2096 
*END

*D_NET *327 0.00250361
*CONN
*P tl_i[27] I
*I *1449:A I *D sg13g2_dlygate4sd3_1
*CAP
1 tl_i[27] 0.00105361
2 *1449:A 0.00105361
3 *1449:A *770:8 0.000396398
4 tl_o[23] *1449:A 0
5 *323:9 *1449:A 0
*RES
1 tl_i[27] *1449:A 49.3368 
*END

*D_NET *326 0.00221678
*CONN
*P tl_i[28] I
*I *1426:A I *D sg13g2_dlygate4sd3_1
*CAP
1 tl_i[28] 0.00110839
2 *1426:A 0.00110839
3 *1416:A *1426:A 0
*RES
1 tl_i[28] *1426:A 30.2256 
*END

*D_NET *325 0.00276843
*CONN
*P tl_i[29] I
*I *1416:A I *D sg13g2_dlygate4sd3_1
*CAP
1 tl_i[29] 0.00126306
2 *1416:A 0.00126306
3 *1416:A *1426:A 0
4 *1416:A *399:10 0.000242313
5 cio_gpio_o[2] *1416:A 0
6 *1271:A *1416:A 0
*RES
1 tl_i[29] *1416:A 31.6864 
*END

*D_NET *324 0.00236063
*CONN
*P tl_i[30] I
*I *1415:A I *D sg13g2_dlygate4sd3_1
*CAP
1 tl_i[30] 0.00118031
2 *1415:A 0.00118031
3 *1415:A cio_gpio_o[0] 0
4 cio_gpio_o[1] *1415:A 0
5 cio_gpio_o[2] *1415:A 0
*RES
1 tl_i[30] *1415:A 30.912 
*END

*D_NET *323 0.00290127
*CONN
*P tl_i[31] I
*I *1442:A I *D sg13g2_dlygate4sd3_1
*CAP
1 tl_i[31] 0.00125244
2 *1442:A 0
3 *323:9 0.00125244
4 *323:9 *1449:A 0
5 *323:9 *398:8 0
6 *323:9 *763:8 0
7 *323:9 *770:8 0.000396398
8 *284:16 *323:9 0
*RES
1 tl_i[31] *323:9 30.9032 
2 *323:9 *1442:A 20 
*END

*D_NET *322 0.00622565
*CONN
*P tl_i[32] I
*I *1438:A I *D sg13g2_dlygate4sd3_1
*CAP
1 tl_i[32] 0.00245735
2 *1438:A 0.00245735
3 *1438:A tl_o[26] 0
4 *1438:A tl_o[28] 0
5 *1438:A tl_o[31] 0
6 *1438:A *886:B1 0
7 *1438:A *888:B1 1.54008e-05
8 *1438:A *1103:CLK 0
9 *1438:A *1104:RESET_B 0
10 *1438:A *1104:CLK 0
11 *1438:A *509:23 0.000112552
12 *1438:A *517:14 0
13 *1438:A *633:8 0
14 *1438:A *665:12 0
15 *1438:A *681:10 0
16 *1438:A *697:24 0
17 *1438:A *697:32 0.000242181
18 *874:A1 *1438:A 0
19 *874:A2 *1438:A 4.68848e-05
20 *876:A1 *1438:A 0.000242105
21 *886:A1 *1438:A 4.78359e-05
22 *886:A2 *1438:A 0
23 *1104:D *1438:A 0
24 *33:12 *1438:A 7.00442e-05
25 *267:34 *1438:A 0
26 *286:73 *1438:A 0.000533952
*RES
1 tl_i[32] *1438:A 43.9976 
*END

*D_NET *321 0.00553862
*CONN
*P tl_i[33] I
*I *1437:A I *D sg13g2_dlygate4sd3_1
*CAP
1 tl_i[33] 0.00106352
2 *1437:A 0
3 *321:11 0.00106352
4 *321:11 *826:A 0
5 *321:11 *645:8 0
6 *321:11 *729:10 0.00050048
7 *321:11 *785:10 0.000449344
8 *302:13 *321:11 8.03585e-05
9 *303:13 *321:11 0
10 *309:11 *321:11 0.0023814
*RES
1 tl_i[33] *321:11 33.2616 
2 *321:11 *1437:A 20 
*END

*D_NET *320 0.00177053
*CONN
*P tl_i[34] I
*I *1454:A I *D sg13g2_dlygate4sd3_1
*CAP
1 tl_i[34] 0.000885264
2 *1454:A 0.000885264
3 *1454:A *1165:D 0
*RES
1 tl_i[34] *1454:A 49.5832 
*END

*D_NET *318 0.00216714
*CONN
*P tl_i[35] I
*I *1440:A I *D sg13g2_dlygate4sd3_1
*CAP
1 tl_i[35] 0.000886202
2 *1440:A 0.000886202
3 *1440:A *432:10 0
4 *1440:A *642:12 0
5 *1440:A *761:8 0.000394738
6 *306:15 *1440:A 0
*RES
1 tl_i[35] *1440:A 49.548 
*END

*D_NET *317 0.00472634
*CONN
*P tl_i[36] I
*I *1445:A I *D sg13g2_dlygate4sd3_1
*CAP
1 tl_i[36] 0.00191281
2 *1445:A 0.00191281
3 *1445:A tl_o[2] 0
4 *1445:A tl_o[6] 0.000900721
5 *1445:A *1300:A 0
6 *1445:A *408:8 0
7 *1445:A *410:10 0
8 *1445:A *556:10 0
9 *1445:A *766:10 0
10 *1441:A *1445:A 0
11 *1448:A *1445:A 0
*RES
1 tl_i[36] *1445:A 36.8784 
*END

*D_NET *316 0.00329359
*CONN
*P tl_i[37] I
*I *1441:A I *D sg13g2_dlygate4sd3_1
*CAP
1 tl_i[37] 0.00119644
2 *1441:A 0.00119644
3 *1441:A tl_o[2] 0.000900721
4 *1441:A tl_o[5] 0
5 *1441:A *1445:A 0
6 *1441:A *766:10 0
*RES
1 tl_i[37] *1441:A 32.0736 
*END

*D_NET *315 0.00337558
*CONN
*P tl_i[38] I
*I *1448:A I *D sg13g2_dlygate4sd3_1
*CAP
1 tl_i[38] 0.00156663
2 *1448:A 0.00156663
3 *1448:A tl_o[11] 0
4 *1448:A tl_o[14] 0
5 *1448:A tl_o[48] 0
6 *1448:A *1300:A 0.000242313
7 *1448:A *1445:A 0
8 *1448:A *410:10 0
*RES
1 tl_i[38] *1448:A 33.464 
*END

*D_NET *314 0.00236252
*CONN
*P tl_i[39] I
*I *1446:A I *D sg13g2_dlygate4sd3_1
*CAP
1 tl_i[39] 0.00107672
2 *1446:A 0.00107672
3 *1446:A *1299:A 0
4 *1446:A *760:10 0
5 *310:13 *1446:A 0
6 *312:11 *1446:A 0.000209087
*RES
1 tl_i[39] *1446:A 49.0552 
*END

*D_NET *313 0.00155056
*CONN
*P tl_i[40] I
*I *1447:A I *D sg13g2_dlygate4sd3_1
*CAP
1 tl_i[40] 0.000775281
2 *1447:A 0.000775281
*RES
1 tl_i[40] *1447:A 48.316 
*END

*D_NET *312 0.00317196
*CONN
*P tl_i[41] I
*I *1439:A I *D sg13g2_dlygate4sd3_1
*CAP
1 tl_i[41] 0.00148144
2 *1439:A 0
3 *312:11 0.00148144
4 *312:11 *1446:A 0.000209087
5 *312:11 *760:10 0
6 *310:13 *312:11 0
*RES
1 tl_i[41] *312:11 30.9912 
2 *312:11 *1439:A 20 
*END

*D_NET *311 0.00167087
*CONN
*P tl_i[42] I
*I *1432:A I *D sg13g2_dlygate4sd3_1
*CAP
1 tl_i[42] 0.000835436
2 *1432:A 0.000835436
3 *1432:A *1325:A 0
*RES
1 tl_i[42] *1432:A 48.6856 
*END

*D_NET *310 0.00240838
*CONN
*P tl_i[43] I
*I *1433:A I *D sg13g2_dlygate4sd3_1
*CAP
1 tl_i[43] 0.00120419
2 *1433:A 0
3 *310:13 0.00120419
4 *310:13 *1400:A 0
5 *310:13 *1446:A 0
6 *310:13 *312:11 0
7 *310:13 *411:8 0
*RES
1 tl_i[43] *310:13 30.4456 
2 *310:13 *1433:A 20 
*END

*D_NET *309 0.00542014
*CONN
*P tl_i[56] I
*I *1294:A I *D sg13g2_buf_1
*CAP
1 tl_i[56] 0.00118908
2 *1294:A 0
3 *309:11 0.00118908
4 *309:11 tl_o[1] 0
5 *309:11 *321:11 0.0023814
6 *309:11 *435:12 0.000660584
7 *309:11 *785:10 0
8 *1293:A *309:11 0
*RES
1 tl_i[56] *309:11 33.288 
2 *309:11 *1294:A 20 
*END

*D_NET *307 0.0027381
*CONN
*P tl_i[57] I
*I *1293:A I *D sg13g2_buf_1
*CAP
1 tl_i[57] 0.00131277
2 *1293:A 0.00131277
3 *1293:A tl_o[1] 0
4 *1293:A *1212:A 0.000112558
5 *1293:A *309:11 0
6 *1293:A *729:10 0
*RES
1 tl_i[57] *1293:A 49.768 
*END

*D_NET *306 0.00377387
*CONN
*P tl_i[58] I
*I *1292:A I *D sg13g2_buf_1
*CAP
1 tl_i[58] 0.000580255
2 *1292:A 0
3 *306:15 0.00130668
4 *306:11 0.00188693
5 *306:15 tl_o[16] 0
6 *306:15 *1440:A 0
7 *306:15 *432:10 0
8 *306:15 *758:8 0
9 *306:15 *777:10 0
*RES
1 tl_i[58] *306:11 44.9632 
2 *306:11 *306:15 31.9152 
3 *306:15 *1292:A 20 
*END

*D_NET *305 0.00420237
*CONN
*P tl_i[60] I
*I *1452:A I *D sg13g2_dlygate4sd3_1
*CAP
1 tl_i[60] 0.00162115
2 *1452:A 0
3 *305:15 0.000150591
4 *305:9 0.00177174
5 *305:9 tl_o[0] 0
6 *305:9 *1318:A 0.000176405
7 *305:9 *334:13 0
8 *305:9 *347:10 0
9 *305:9 *479:12 0
10 *305:9 *479:18 0
11 *305:9 *782:10 0.000240646
12 *305:9 *787:10 0.000241847
13 *305:15 *755:8 0
14 *305:15 *773:8 0
15 *304:19 *305:9 0
*RES
1 tl_i[60] *305:9 34.4408 
2 *305:9 *305:15 41.3552 
3 *305:15 *1452:A 20 
*END

*D_NET *304 0.00769758
*CONN
*P tl_i[61] I
*I *1456:A I *D sg13g2_dlygate4sd3_1
*CAP
1 tl_i[61] 0.00224235
2 *1456:A 0
3 *304:19 0.00224235
4 *304:19 tl_o[1] 0.00232771
5 *304:19 *822:A 7.92614e-05
6 *304:19 *1055:A2 1.54008e-05
7 *304:19 *1089:CLK 0
8 *304:19 *1290:A 0.000432432
9 *304:19 *1305:A 0.000176781
10 *304:19 *305:9 0
11 *304:19 *338:23 0
12 *304:19 *432:10 0
13 *304:19 *435:12 0
14 *304:19 *479:18 0
15 *304:19 *489:8 0
16 *304:19 *777:10 0
17 *828:A2 *304:19 0
18 *100:10 *304:19 0.00018128
19 *100:14 *304:19 0
20 *103:8 *304:19 0
*RES
1 tl_i[61] *304:19 41.956 
2 *304:19 *1456:A 20 
*END

*D_NET *303 0.00450707
*CONN
*P tl_i[62] I
*I *1459:A I *D sg13g2_dlygate4sd3_1
*CAP
1 tl_i[62] 0.00109083
2 *1459:A 0
3 *303:13 0.00109083
4 *303:13 *1305:A 0
5 *303:13 *321:11 0
6 *303:13 *338:23 0
7 *303:13 *437:10 0
8 *303:13 *780:8 0
9 *303:13 *785:10 0
10 *302:13 *303:13 0.0023254
*RES
1 tl_i[62] *303:13 32.8216 
2 *303:13 *1459:A 20 
*END

*D_NET *302 0.00397302
*CONN
*P tl_i[63] I
*I *1464:A I *D sg13g2_dlygate4sd3_1
*CAP
1 tl_i[63] 0.000783629
2 *1464:A 0
3 *302:13 0.000783629
4 *302:13 tl_o[16] 0
5 *302:13 *826:A 0
6 *302:13 *303:13 0.0023254
7 *302:13 *321:11 8.03585e-05
*RES
1 tl_i[63] *302:13 30.34 
2 *302:13 *1464:A 20 
*END

*D_NET *279 0.00231601
*CONN
*P tl_i[92] I
*I *1421:A I *D sg13g2_dlygate4sd3_1
*CAP
1 tl_i[92] 0.00110161
2 *1421:A 0
3 *279:13 0.00110161
4 *279:13 tl_o[49] 0
5 *279:13 *1284:A 0.00011279
6 *279:13 *530:12 0
*RES
1 tl_i[92] *279:13 30.34 
2 *279:13 *1421:A 20 
*END

*D_NET *278 0.00189099
*CONN
*P tl_i[93] I
*I *1429:A I *D sg13g2_dlygate4sd3_1
*CAP
1 tl_i[93] 0.000945494
2 *1429:A 0.000945494
3 *1429:A *1413:A 0
4 *1414:A *1429:A 0
*RES
1 tl_i[93] *1429:A 29.3016 
*END

*D_NET *277 0.0042955
*CONN
*P tl_i[94] I
*I *1414:A I *D sg13g2_dlygate4sd3_1
*CAP
1 tl_i[94] 0.00161524
2 *1414:A 0.00161524
3 *1414:A tl_o[50] 0
4 *1414:A tl_o[51] 0
5 *1414:A *1116:RESET_B 0.000339399
6 *1414:A *1285:A 0.000177285
7 *1414:A *1429:A 0
8 *1414:A *472:10 8.03692e-05
9 *1414:A *524:26 0
10 *1414:A *750:10 0.000467965
11 *22:12 *1414:A 0
*RES
1 tl_i[94] *1414:A 35.0744 
*END

*D_NET *276 0.00465153
*CONN
*P tl_i[95] I
*I *1420:A I *D sg13g2_dlygate4sd3_1
*CAP
1 tl_i[95] 0.00186907
2 *1420:A 0
3 *276:13 0.00186907
4 *276:13 tl_o[49] 0
5 *276:13 tl_o[52] 0
6 *276:13 *1223:A 0
7 *276:13 *1227:A 0
8 *276:13 *1287:A 0.000208398
9 *276:13 *470:8 0
10 *276:13 *530:12 0.000466915
11 *276:13 *745:10 0.000238084
*RES
1 tl_i[95] *276:13 34.4056 
2 *276:13 *1420:A 20 
*END

*D_NET *275 0.002766
*CONN
*P tl_i[96] I
*I *1411:A I *D sg13g2_dlygate4sd3_1
*CAP
1 tl_i[96] 0.000172156
2 *1411:A 0.00106581
3 *275:11 0.00123797
4 *1411:A tl_o[51] 0
5 *1411:A *854:S 0
6 *1411:A *1283:A 0.000209697
7 *1411:A *474:10 8.03692e-05
8 *275:11 tl_o[50] 0
9 *275:11 tl_o[51] 0
10 *21:10 *1411:A 0
*RES
1 tl_i[96] *275:11 41.584 
2 *275:11 *1411:A 30.6216 
*END

*D_NET *274 0.00413482
*CONN
*P tl_i[97] I
*I *1424:A I *D sg13g2_dlygate4sd3_1
*CAP
1 tl_i[97] 0.00130983
2 *1424:A 0
3 *274:23 0.000101212
4 *274:15 0.000364945
5 *274:9 0.00157356
6 *274:9 tl_o[54] 0
7 *274:9 *336:11 0.000208271
8 *274:9 *479:12 0
9 *274:9 *605:14 0
10 *274:9 *751:18 0
11 *274:9 *755:8 0.000341621
12 *274:15 *372:14 0
13 *274:23 *479:8 0
14 *274:23 *531:30 7.52158e-05
15 *274:23 *751:18 0.000112426
16 *269:11 *274:9 4.77425e-05
*RES
1 tl_i[97] *274:9 30.8768 
2 *274:9 *274:15 42.6752 
3 *274:15 *274:23 40.9416 
4 *274:23 *1424:A 20 
*END

*D_NET *273 0.00204851
*CONN
*P tl_i[98] I
*I *1412:A I *D sg13g2_dlygate4sd3_1
*CAP
1 tl_i[98] 0.00102425
2 *1412:A 0.00102425
3 *1412:A tl_o[45] 0
4 *1412:A *1413:A 0
*RES
1 tl_i[98] *1412:A 29.3016 
*END

*D_NET *269 0.00386832
*CONN
*P tl_i[99] I
*I *1419:A I *D sg13g2_dlygate4sd3_1
*CAP
1 tl_i[99] 0.000886636
2 *1419:A 0
3 *269:11 0.000886636
4 *269:11 tl_o[55] 0
5 *269:11 tl_o[57] 0.00190243
6 *269:11 *274:9 4.77425e-05
7 *269:11 *477:12 0
8 *269:11 *605:14 0
9 *269:11 *751:18 0.000144878
*RES
1 tl_i[99] *269:11 30.6216 
2 *269:11 *1419:A 20 
*END

*D_NET *646 0.00411516
*CONN
*P tl_o[0] O
*I *1262:X O *D sg13g2_buf_1
*CAP
1 tl_o[0] 0.00098329
2 *1262:X 0.00098329
3 tl_o[0] *782:10 0.000240646
4 *305:9 tl_o[0] 0
5 *332:13 tl_o[0] 0.00190793
6 *338:9 tl_o[0] 0
*RES
1 *1262:X tl_o[0] 49.6976 
*END

*D_NET *480 0.00346087
*CONN
*P tl_o[10] O
*I *1207:L_LO O *D sg13g2_tielo
*CAP
1 tl_o[10] 0.000611887
2 *1207:L_LO 0.000611887
3 tl_o[10] tl_o[63] 0.0022371
*RES
1 *1207:L_LO tl_o[10] 48.9144 
*END

*D_NET *481 0.00271719
*CONN
*P tl_o[11] O
*I *1209:L_LO O *D sg13g2_tielo
*CAP
1 tl_o[11] 0.00135087
2 *1209:L_LO 0.00135087
3 tl_o[11] tl_o[14] 1.54556e-05
4 tl_o[11] *555:34 0
5 *1448:A tl_o[11] 0
*RES
1 *1209:L_LO tl_o[11] 32.6544 
*END

*D_NET *482 0.00244511
*CONN
*P tl_o[12] O
*I *1211:L_LO O *D sg13g2_tielo
*CAP
1 tl_o[12] 0.00122256
2 *1211:L_LO 0.00122256
3 tl_o[12] tl_o[60] 0
4 tl_o[12] tl_o[9] 0
*RES
1 *1211:L_LO tl_o[12] 29.4688 
*END

*D_NET *483 0.00222616
*CONN
*P tl_o[13] O
*I *1213:L_LO O *D sg13g2_tielo
*CAP
1 tl_o[13] 0.00111308
2 *1213:L_LO 0.00111308
3 tl_o[13] tl_o[63] 0
4 tl_o[13] tl_o[8] 0
*RES
1 *1213:L_LO tl_o[13] 48.2808 
*END

*D_NET *484 0.00244108
*CONN
*P tl_o[14] O
*I *1215:L_LO O *D sg13g2_tielo
*CAP
1 tl_o[14] 0.00121281
2 *1215:L_LO 0.00121281
3 tl_o[11] tl_o[14] 1.54556e-05
4 *1448:A tl_o[14] 0
*RES
1 *1215:L_LO tl_o[14] 29.856 
*END

*D_NET *485 0.00178943
*CONN
*P tl_o[15] O
*I *1217:L_LO O *D sg13g2_tielo
*CAP
1 tl_o[15] 0.000894715
2 *1217:L_LO 0.000894715
3 tl_o[15] tl_o[9] 0
*RES
1 *1217:L_LO tl_o[15] 29.4688 
*END

*D_NET *645 0.00275404
*CONN
*P tl_o[16] O
*I *1261:X O *D sg13g2_buf_1
*CAP
1 tl_o[16] 0.00103686
2 *1261:X 0.000284262
3 *645:8 0.00132113
4 tl_o[16] *758:8 0
5 tl_o[16] *780:8 0
6 *645:8 *729:10 0.000111787
7 *645:8 *777:10 0
8 *826:A *645:8 0
9 *826:B *645:8 0
10 *302:13 tl_o[16] 0
11 *306:15 tl_o[16] 0
12 *321:11 *645:8 0
13 *338:23 *645:8 0
14 *432:10 *645:8 0
*RES
1 *1261:X *645:8 42.3056 
2 *645:8 tl_o[16] 9.9704 
*END

*D_NET *644 0.00186184
*CONN
*P tl_o[17] O
*I *1260:X O *D sg13g2_buf_1
*CAP
1 tl_o[17] 0.000890737
2 *1260:X 0.000890737
3 tl_o[17] *647:8 0
4 tl_o[18] tl_o[17] 0
5 *643:10 tl_o[17] 8.03692e-05
*RES
1 *1260:X tl_o[17] 48.316 
*END

*D_NET *643 0.00241946
*CONN
*P tl_o[18] O
*I *1259:X O *D sg13g2_buf_1
*CAP
1 tl_o[18] 0.000906652
2 *1259:X 0.000262895
3 *643:10 0.00116955
4 tl_o[18] tl_o[17] 0
5 tl_o[18] *763:8 0
6 *643:10 tl_o[17] 8.03692e-05
7 *1260:A *643:10 0
8 *284:16 *643:10 0
*RES
1 *1259:X *643:10 42.4464 
2 *643:10 tl_o[18] 8.4304 
*END

*D_NET *642 0.00269358
*CONN
*P tl_o[19] O
*I *1258:X O *D sg13g2_buf_1
*CAP
1 tl_o[19] 0.000471356
2 *1258:X 0.000638412
3 *642:12 0.00110977
4 *642:12 *761:8 0
5 tl_o[23] *642:12 0
6 *1252:A *642:12 0.000394151
7 *1440:A *642:12 0
8 *284:16 *642:12 7.98971e-05
*RES
1 *1258:X *642:12 46.0984 
2 *642:12 tl_o[19] 4.4792 
*END

*D_NET *641 0.00646574
*CONN
*P tl_o[1] O
*I *1257:X O *D sg13g2_buf_1
*CAP
1 tl_o[1] 0.000947059
2 *1257:X 7.33914e-05
3 *641:22 0.00107152
4 *641:16 0.000491412
5 *641:8 0.000440342
6 *641:16 *1291:A 0.000434457
7 *641:16 *729:10 0.000181192
8 *641:16 *751:18 0.000208747
9 *641:22 *729:10 0.000209693
10 *819:B *641:16 0
11 *1293:A tl_o[1] 0
12 *304:19 tl_o[1] 0.00232771
13 *309:11 tl_o[1] 0
14 *334:13 *641:22 8.0216e-05
*RES
1 *1257:X *641:8 40.5104 
2 *641:8 *641:16 43.4232 
3 *641:16 *641:22 41.1968 
4 *641:22 tl_o[1] 9.548 
*END

*D_NET *640 0.00145285
*CONN
*P tl_o[20] O
*I *1256:X O *D sg13g2_buf_1
*CAP
1 tl_o[20] 0.000726427
2 *1256:X 0.000726427
3 tl_o[20] *647:8 0
*RES
1 *1256:X tl_o[20] 47.8584 
*END

*D_NET *639 0.00220226
*CONN
*P tl_o[21] O
*I *1255:X O *D sg13g2_buf_1
*CAP
1 tl_o[21] 0.00110113
2 *1255:X 0.00110113
3 tl_o[22] tl_o[21] 0
4 *493:10 tl_o[21] 0
*RES
1 *1255:X tl_o[21] 48.9496 
*END

*D_NET *638 0.00347267
*CONN
*P tl_o[22] O
*I *1254:X O *D sg13g2_buf_1
*CAP
1 tl_o[22] 0.000981744
2 *1254:X 0.000447588
3 *638:8 0.00142933
4 tl_o[22] tl_o[21] 0
5 *1254:A *638:8 0.000436713
6 *1255:A *638:8 0
7 *492:8 *638:8 0
8 *493:10 *638:8 0.00017729
*RES
1 *1254:X *638:8 44.3384 
2 *638:8 tl_o[22] 8.0696 
*END

*D_NET *290 0.00162684
*CONN
*P tl_o[23] O
*I *1252:X O *D sg13g2_buf_1
*CAP
1 tl_o[23] 0.000813421
2 *1252:X 0.000813421
3 tl_o[23] *1449:A 0
4 tl_o[23] *642:12 0
*RES
1 *1252:X tl_o[23] 47.8584 
*END

*D_NET *637 0.00792831
*CONN
*P tl_o[24] O
*I *1251:X O *D sg13g2_buf_1
*CAP
1 tl_o[24] 0.00303189
2 *1251:X 0.00303189
3 tl_o[24] *1112:RESET_B 0
4 tl_o[24] *1112:CLK 0
5 tl_o[24] *1337:A 0
6 tl_o[24] *674:50 0
7 tl_o[24] *704:8 0
8 tl_o[24] *704:23 0
9 tl_o[46] tl_o[24] 0
10 tl_o[47] tl_o[24] 0.00133491
11 *872:A1 tl_o[24] 3.05248e-05
12 *1111:D tl_o[24] 0
13 *1230:A tl_o[24] 0
14 *1251:A tl_o[24] 0
15 *25:14 tl_o[24] 0.000177679
16 *308:42 tl_o[24] 0
17 *308:56 tl_o[24] 0.000111596
18 *508:10 tl_o[24] 0.000209807
19 *614:12 tl_o[24] 0
20 *634:12 tl_o[24] 0
*RES
1 *1251:X tl_o[24] 47.0248 
*END

*D_NET *636 0.00539031
*CONN
*P tl_o[25] O
*I *1250:X O *D sg13g2_buf_1
*CAP
1 tl_o[25] 0.00102358
2 *1250:X 0.000960841
3 *636:24 0.00198442
4 *636:24 *1055:A2 0
5 *636:24 *730:8 0
6 *636:24 *731:8 0
7 *820:A *636:24 4.77425e-05
8 *863:A *636:24 4.77425e-05
9 *1250:A *636:24 4.71353e-05
10 *1431:A *636:24 0
11 *100:24 *636:24 0
12 *100:50 *636:24 0
13 *101:10 *636:24 7.92602e-05
14 *332:13 tl_o[25] 0
15 *332:13 *636:24 0.000235345
16 *338:9 *636:24 0
17 *378:26 *636:24 1.54008e-05
18 *379:10 *636:24 0.000288087
19 *537:27 *636:24 0.000660758
*RES
1 *1250:X *636:24 49.768 
2 *636:24 tl_o[25] 9.1256 
*END

*D_NET *635 0.00877682
*CONN
*P tl_o[26] O
*I *1249:X O *D sg13g2_buf_1
*CAP
1 tl_o[26] 0.00278605
2 *1249:X 0.00278605
3 tl_o[26] *1104:CLK 0.000630966
4 tl_o[26] *1113:RESET_B 0
5 tl_o[26] *1341:A 0
6 tl_o[26] *671:12 0
7 tl_o[26] *674:8 0
8 tl_o[26] *679:51 0
9 tl_o[26] *701:8 0.0001448
10 tl_o[26] *759:12 0
11 tl_o[37] tl_o[26] 0.00222097
12 *1057:A2 tl_o[26] 0
13 *1109:D tl_o[26] 0
14 *1113:D tl_o[26] 0
15 *1238:A tl_o[26] 0
16 *1438:A tl_o[26] 0
17 *69:10 tl_o[26] 0
18 *127:18 tl_o[26] 1.54008e-05
19 *286:73 tl_o[26] 0
20 *308:82 tl_o[26] 0.000112552
21 *499:14 tl_o[26] 0
22 *509:6 tl_o[26] 8.00231e-05
*RES
1 *1249:X tl_o[26] 46.9368 
*END

*D_NET *634 0.00879121
*CONN
*P tl_o[27] O
*I *1248:X O *D sg13g2_buf_1
*CAP
1 tl_o[27] 0.00143579
2 *1248:X 0.00115157
3 *634:22 0.00143579
4 *634:18 0.000250374
5 *634:12 0.00140195
6 tl_o[27] *1112:RESET_B 0.000501233
7 *634:12 tl_o[24] 0
8 *634:12 *1112:RESET_B 0.000209856
9 *634:12 *674:50 0.000356147
10 tl_o[36] tl_o[27] 0
11 tl_o[47] tl_o[27] 0.00106335
12 *859:A tl_o[27] 0.000144817
13 *1056:A *634:12 0
14 *1112:D tl_o[27] 0
15 *1228:A *634:12 0.000630796
16 *1251:A *634:12 0
17 *253:10 *634:12 0.000209549
*RES
1 *1248:X *634:12 30.252 
2 *634:12 *634:18 42.6752 
3 *634:18 *634:22 40 
4 *634:22 tl_o[27] 14.344 
*END

*D_NET *633 0.0107387
*CONN
*P tl_o[28] O
*I *1247:X O *D sg13g2_buf_1
*CAP
1 tl_o[28] 0.000151927
2 *1247:X 0.0021714
3 *633:8 0.00232333
4 *633:8 *1104:RESET_B 0.000728616
5 *633:8 *671:40 0.000259183
6 tl_o[29] *633:8 0.00367858
7 tl_o[31] tl_o[28] 0.000145222
8 tl_o[31] *633:8 0.00128048
9 *1438:A tl_o[28] 0
10 *1438:A *633:8 0
11 *267:34 *633:8 0
*RES
1 *1247:X *633:8 41.692 
2 *633:8 tl_o[28] 41.4784 
*END

*D_NET *632 0.0102312
*CONN
*P tl_o[29] O
*I *1246:X O *D sg13g2_buf_1
*CAP
1 tl_o[29] 0.0022408
2 *1246:X 0.0022408
3 tl_o[29] *1103:RESET_B 0.000857807
4 tl_o[29] *633:8 0.00367858
5 tl_o[31] tl_o[29] 1.54556e-05
6 tl_o[41] tl_o[29] 0
7 *1110:D tl_o[29] 0
8 *621:10 tl_o[29] 0.00095562
9 *630:22 tl_o[29] 0.000242181
*RES
1 *1246:X tl_o[29] 42.2376 
*END

*D_NET *501 0.00309331
*CONN
*P tl_o[2] O
*I *1327:L_LO O *D sg13g2_tielo
*CAP
1 tl_o[2] 0.00109629
2 *1327:L_LO 0.00109629
3 *1441:A tl_o[2] 0.000900721
4 *1445:A tl_o[2] 0
*RES
1 *1327:L_LO tl_o[2] 30.0672 
*END

*D_NET *631 0.00936443
*CONN
*P tl_o[30] O
*I *1245:X O *D sg13g2_buf_1
*CAP
1 tl_o[30] 0.00241531
2 *1245:X 0.00129097
3 *631:20 0.00270515
4 *631:14 0.00158081
5 tl_o[30] *691:10 0
6 *631:14 *1095:CLK 0
7 *631:14 *1096:CLK 0.000209516
8 *631:14 *680:204 0
9 tl_o[39] tl_o[30] 0
10 tl_o[40] tl_o[30] 0
11 tl_o[41] tl_o[30] 0
12 *881:A tl_o[30] 0.000242203
13 *904:B1 *631:14 0
14 *1103:D tl_o[30] 0.000144942
15 *1233:A tl_o[30] 0
16 *1234:A tl_o[30] 0.000501364
17 *28:10 tl_o[30] 0
18 *319:57 *631:14 0.000274154
19 *500:12 *631:14 0
20 *500:20 *631:14 0
21 *511:8 tl_o[30] 0
22 *511:16 tl_o[30] 0
23 *513:21 tl_o[30] 0
24 *515:8 tl_o[30] 0
25 *630:22 tl_o[30] 0
26 *630:22 *631:14 0
*RES
1 *1245:X *631:14 49.856 
2 *631:14 *631:20 43.0448 
3 *631:20 tl_o[30] 40.3896 
*END

*D_NET *630 0.0116717
*CONN
*P tl_o[31] O
*I *1244:X O *D sg13g2_buf_1
*CAP
1 tl_o[31] 0.000916739
2 *1244:X 0.00285491
3 *630:22 0.00377165
4 tl_o[31] tl_o[28] 0.000145222
5 tl_o[31] tl_o[29] 1.54556e-05
6 tl_o[31] *633:8 0.00128048
7 *630:22 tl_o[29] 0.000242181
8 *630:22 tl_o[30] 0
9 *630:22 *906:A2 0.000231856
10 *630:22 *1094:CLK 0
11 *630:22 *1095:CLK 0.000209713
12 *630:22 *1103:RESET_B 0.000793003
13 *630:22 *631:14 0
14 *630:22 *680:204 0
15 *630:22 *682:10 0
16 tl_o[41] *630:22 0.000469379
17 *900:B2 *630:22 0.000144691
18 *906:B2 *630:22 0
19 *1103:D *630:22 0
20 *1110:D *630:22 0.000307095
21 *1438:A tl_o[31] 0
22 *146:10 *630:22 0
23 *267:34 *630:22 0
24 *500:12 *630:22 0.000209637
25 *621:10 *630:22 7.96596e-05
*RES
1 *1244:X *630:22 45.5024 
2 *630:22 tl_o[31] 49.4952 
*END

*D_NET *629 0.00692966
*CONN
*P tl_o[32] O
*I *1243:X O *D sg13g2_buf_1
*CAP
1 tl_o[32] 0.00248575
2 *1243:X 0.00248575
3 tl_o[32] *1107:RESET_B 0
4 tl_o[32] *663:8 0
5 tl_o[32] *671:61 0.000274583
6 tl_o[32] *671:70 0.000274583
7 tl_o[34] tl_o[32] 0
8 tl_o[35] tl_o[32] 0.001409
9 *1243:A tl_o[32] 0
*RES
1 *1243:X tl_o[32] 43.7688 
*END

*D_NET *628 0.00392939
*CONN
*P tl_o[33] O
*I *1242:X O *D sg13g2_buf_1
*CAP
1 tl_o[33] 0.00192877
2 *1242:X 3.59297e-05
3 *628:8 0.00196469
4 tl_o[33] *721:8 0
5 tl_o[33] *754:10 0
6 *1400:A tl_o[33] 0
7 *157:20 *628:8 0
8 *228:8 tl_o[33] 0
9 *411:18 tl_o[33] 0
10 *581:26 tl_o[33] 0
11 *582:12 *628:8 0
12 *584:51 tl_o[33] 0
*RES
1 *1242:X *628:8 40.2728 
2 *628:8 tl_o[33] 17.4856 
*END

*D_NET *627 0.0045087
*CONN
*P tl_o[34] O
*I *1241:X O *D sg13g2_buf_1
*CAP
1 tl_o[34] 0.0021664
2 *1241:X 0.0021664
3 tl_o[34] tl_o[32] 0
4 tl_o[34] *1107:RESET_B 0
5 *1107:D tl_o[34] 0.000175908
*RES
1 *1241:X tl_o[34] 40.8736 
*END

*D_NET *626 0.00744661
*CONN
*P tl_o[35] O
*I *1240:X O *D sg13g2_buf_1
*CAP
1 tl_o[35] 0.00256584
2 *1240:X 0.00256584
3 tl_o[35] tl_o[32] 0.001409
4 tl_o[35] *1106:RESET_B 0.000663659
5 tl_o[35] *681:55 0
6 tl_o[35] *683:83 0.000242269
7 tl_o[35] *691:10 0
8 tl_o[35] *691:18 0
9 *1243:A tl_o[35] 0
10 *286:24 tl_o[35] 0
*RES
1 *1240:X tl_o[35] 44.4112 
*END

*D_NET *625 0.00531343
*CONN
*P tl_o[36] O
*I *1239:X O *D sg13g2_buf_1
*CAP
1 tl_o[36] 0.00215469
2 *1239:X 0.00215469
3 tl_o[36] tl_o[27] 0
4 tl_o[36] *870:B1 0
5 tl_o[36] *671:12 0
6 tl_o[36] *679:62 0
7 tl_o[36] *679:72 0
8 tl_o[43] tl_o[36] 0
9 *875:A tl_o[36] 0
10 *885:A tl_o[36] 0
11 *1112:D tl_o[36] 0
12 *1232:A tl_o[36] 0
13 *308:56 tl_o[36] 0
14 *510:25 tl_o[36] 4.77537e-05
15 *516:10 tl_o[36] 0
16 *623:10 tl_o[36] 0.000956302
*RES
1 *1239:X tl_o[36] 40.02 
*END

*D_NET *624 0.00573315
*CONN
*P tl_o[37] O
*I *1238:X O *D sg13g2_buf_1
*CAP
1 tl_o[37] 0.00155079
2 *1238:X 0.00155079
3 tl_o[37] tl_o[26] 0.00222097
4 tl_o[37] *1109:RESET_B 0.000291377
5 tl_o[37] *671:12 0.000119228
6 tl_o[38] tl_o[37] 0
7 tl_o[44] tl_o[37] 0
*RES
1 *1238:X tl_o[37] 35.796 
*END

*D_NET *623 0.00316731
*CONN
*P tl_o[38] O
*I *1237:X O *D sg13g2_buf_1
*CAP
1 tl_o[38] 0.000385995
2 *1237:X 0.000719512
3 *623:10 0.00110551
4 tl_o[38] tl_o[37] 0
5 *623:10 tl_o[36] 0.000956302
6 tl_o[44] tl_o[38] 0
*RES
1 *1237:X *623:10 47.436 
2 *623:10 tl_o[38] 23.1856 
*END

*D_NET *622 0.00319465
*CONN
*P tl_o[39] O
*I *1236:X O *D sg13g2_buf_1
*CAP
1 tl_o[39] 0.00158959
2 *1236:X 0.00158959
3 tl_o[39] tl_o[30] 0
4 tl_o[39] *1106:CLK 0
5 tl_o[42] tl_o[39] 1.54556e-05
6 *1233:A tl_o[39] 0
*RES
1 *1236:X tl_o[39] 32.2584 
*END

*D_NET *512 0.00340925
*CONN
*P tl_o[3] O
*I *1193:L_LO O *D sg13g2_tielo
*CAP
1 tl_o[3] 0.000891479
2 *1193:L_LO 0.000891479
3 tl_o[3] tl_o[61] 0
4 tl_o[3] tl_o[64] 0.00162629
*RES
1 *1193:L_LO tl_o[3] 29.4688 
*END

*D_NET *621 0.00361094
*CONN
*P tl_o[40] O
*I *1235:X O *D sg13g2_buf_1
*CAP
1 tl_o[40] 0.000366935
2 *1235:X 0.000653577
3 *621:10 0.00102051
4 tl_o[40] tl_o[30] 0
5 *621:10 tl_o[29] 0.00095562
6 *621:10 *630:22 7.96596e-05
7 tl_o[41] tl_o[40] 0.000534638
8 tl_o[41] *621:10 0
*RES
1 *1235:X *621:10 46.38 
2 *621:10 tl_o[40] 23.1856 
*END

*D_NET *620 0.00478074
*CONN
*P tl_o[41] O
*I *1234:X O *D sg13g2_buf_1
*CAP
1 tl_o[41] 0.00184821
2 *1234:X 0.00184821
3 tl_o[41] tl_o[29] 0
4 tl_o[41] tl_o[30] 0
5 tl_o[41] tl_o[40] 0.000534638
6 tl_o[41] *621:10 0
7 tl_o[41] *630:22 0.000469379
8 *881:A tl_o[41] 0
9 *513:21 tl_o[41] 8.03091e-05
*RES
1 *1234:X tl_o[41] 35.884 
*END

*D_NET *619 0.00247781
*CONN
*P tl_o[42] O
*I *1233:X O *D sg13g2_buf_1
*CAP
1 tl_o[42] 0.00123118
2 *1233:X 0.00123118
3 tl_o[42] tl_o[39] 1.54556e-05
4 tl_o[42] *1106:CLK 0
*RES
1 *1233:X tl_o[42] 30.5952 
*END

*D_NET *618 0.00353767
*CONN
*P tl_o[43] O
*I *1232:X O *D sg13g2_buf_1
*CAP
1 tl_o[43] 0.00117325
2 *1232:X 0.00117325
3 tl_o[43] tl_o[36] 0
4 tl_o[44] tl_o[43] 0.00106321
5 *885:A tl_o[43] 0
6 *510:6 tl_o[43] 4.77534e-05
7 *510:25 tl_o[43] 8.02105e-05
*RES
1 *1232:X tl_o[43] 31.4048 
*END

*D_NET *617 0.00470541
*CONN
*P tl_o[44] O
*I *1231:X O *D sg13g2_buf_1
*CAP
1 tl_o[44] 0.00139227
2 *1231:X 0.00139227
3 tl_o[44] tl_o[37] 0
4 tl_o[44] tl_o[38] 0
5 tl_o[44] tl_o[43] 0.00106321
6 tl_o[44] *1109:RESET_B 0
7 *885:A tl_o[44] 0.000857659
8 *510:6 tl_o[44] 0
*RES
1 *1231:X tl_o[44] 33.5344 
*END

*D_NET *616 0.00236433
*CONN
*P tl_o[45] O
*I *1230:X O *D sg13g2_buf_1
*CAP
1 tl_o[45] 0.000968274
2 *1230:X 0.000968274
3 tl_o[46] tl_o[45] 0.00042778
4 *1412:A tl_o[45] 0
*RES
1 *1230:X tl_o[45] 28.932 
*END

*D_NET *615 0.00347105
*CONN
*P tl_o[46] O
*I *1229:X O *D sg13g2_buf_1
*CAP
1 tl_o[46] 0.00127127
2 *1229:X 0.00127127
3 tl_o[46] tl_o[24] 0
4 tl_o[46] tl_o[45] 0.00042778
5 tl_o[46] *1281:A 0
6 *1230:A tl_o[46] 0.000500737
7 *519:10 tl_o[46] 0
*RES
1 *1229:X tl_o[46] 31.8712 
*END

*D_NET *614 0.00608744
*CONN
*P tl_o[47] O
*I *1228:X O *D sg13g2_buf_1
*CAP
1 tl_o[47] 0.00152228
2 *1228:X 0.000204758
3 *614:12 0.00172704
4 tl_o[47] tl_o[24] 0.00133491
5 tl_o[47] tl_o[27] 0.00106335
6 tl_o[47] *1112:RESET_B 0
7 *614:12 tl_o[24] 0
8 *614:12 *1112:RESET_B 0.000111121
9 *1111:D tl_o[47] 4.77425e-05
10 *25:14 *614:12 7.62389e-05
*RES
1 *1228:X *614:12 41.9536 
2 *614:12 tl_o[47] 34.916 
*END

*D_NET *521 0.0023654
*CONN
*P tl_o[48] O
*I *1219:L_LO O *D sg13g2_tielo
*CAP
1 tl_o[48] 0.0011827
2 *1219:L_LO 0.0011827
3 tl_o[48] tl_o[6] 0
4 *1448:A tl_o[48] 0
*RES
1 *1219:L_LO tl_o[48] 30.0672 
*END

*D_NET *613 0.0038759
*CONN
*P tl_o[49] O
*I *1227:X O *D sg13g2_buf_1
*CAP
1 tl_o[49] 0.00103176
2 *1227:X 0.000720772
3 *613:10 0.00175253
4 *613:10 *741:10 0.000370846
5 *1227:A *613:10 0
6 *276:13 tl_o[49] 0
7 *279:13 tl_o[49] 0
8 *470:8 *613:10 0
*RES
1 *1227:X *613:10 46.3008 
2 *613:10 tl_o[49] 7.6472 
*END

*D_NET *523 0.00252103
*CONN
*P tl_o[4] O
*I *1195:L_LO O *D sg13g2_tielo
*CAP
1 tl_o[4] 0.00105603
2 *1195:L_LO 0.000204481
3 *523:8 0.00126052
4 tl_o[4] tl_o[8] 0
*RES
1 *1195:L_LO *523:8 41.936 
2 *523:8 tl_o[4] 8.7032 
*END

*D_NET *612 0.0020166
*CONN
*P tl_o[50] O
*I *1226:X O *D sg13g2_buf_1
*CAP
1 tl_o[50] 0.0010083
2 *1226:X 0.0010083
3 tl_o[51] tl_o[50] 0
4 *1414:A tl_o[50] 0
5 *275:11 tl_o[50] 0
*RES
1 *1226:X tl_o[50] 29.5656 
*END

*D_NET *611 0.00351163
*CONN
*P tl_o[51] O
*I *1225:X O *D sg13g2_buf_1
*CAP
1 tl_o[51] 0.00119412
2 *1225:X 0.00042522
3 *611:10 0.00161934
4 tl_o[51] tl_o[50] 0
5 tl_o[51] *856:S 0
6 tl_o[51] *1283:A 0
7 tl_o[51] *750:10 0
8 *611:10 *854:S 0
9 *611:10 *1116:CLK 0.000209637
10 *611:10 *1122:CLK 1.54008e-05
11 *856:A1 tl_o[51] 4.79124e-05
12 *1411:A tl_o[51] 0
13 *1414:A tl_o[51] 0
14 *21:10 tl_o[51] 0
15 *21:10 *611:10 0
16 *275:11 tl_o[51] 0
*RES
1 *1225:X *611:10 43.4232 
2 *611:10 tl_o[51] 31.132 
*END

*D_NET *610 0.00210441
*CONN
*P tl_o[52] O
*I *1224:X O *D sg13g2_buf_1
*CAP
1 tl_o[52] 0.000988084
2 *1224:X 0.000988084
3 tl_o[52] *745:10 0.000128247
4 tl_o[53] tl_o[52] 0
5 *276:13 tl_o[52] 0
*RES
1 *1224:X tl_o[52] 48.2808 
*END

*D_NET *608 0.00299255
*CONN
*P tl_o[53] O
*I *1223:X O *D sg13g2_buf_1
*CAP
1 tl_o[53] 0.000929083
2 *1223:X 0.000284989
3 *608:8 0.00121407
4 tl_o[53] tl_o[52] 0
5 tl_o[53] *745:10 0
6 *608:8 *1284:A 0.000242121
7 *855:A1 tl_o[53] 0
8 *858:A0 tl_o[53] 0
9 *1224:A tl_o[53] 0
10 *70:8 *608:8 0
11 *475:14 *608:8 0.000177372
12 *526:10 *608:8 0.000144915
13 *530:12 *608:8 0
*RES
1 *1223:X *608:8 42.6752 
2 *608:8 tl_o[53] 9.7592 
*END

*D_NET *607 0.0034107
*CONN
*P tl_o[54] O
*I *1222:X O *D sg13g2_buf_1
*CAP
1 tl_o[54] 0.00168107
2 *1222:X 2.42781e-05
3 *607:8 0.00170535
4 tl_o[54] *755:8 0
5 tl_o[55] tl_o[54] 0
6 tl_o[58] tl_o[54] 0
7 *274:9 tl_o[54] 0
*RES
1 *1222:X *607:8 40.2728 
2 *607:8 tl_o[54] 11.2376 
*END

*D_NET *606 0.00383411
*CONN
*P tl_o[55] O
*I *1221:X O *D sg13g2_buf_1
*CAP
1 tl_o[55] 0.00171577
2 *1221:X 0.000112179
3 *606:8 0.00182795
4 tl_o[55] tl_o[54] 0
5 *606:8 *1123:CLK 0
6 tl_o[57] tl_o[55] 0
7 tl_o[58] tl_o[55] 0
8 *100:56 *606:8 0
9 *269:11 tl_o[55] 0
10 *336:11 tl_o[55] 0
11 *477:12 tl_o[55] 0
12 *540:10 tl_o[55] 0.000178206
*RES
1 *1221:X *606:8 40.8272 
2 *606:8 tl_o[55] 13.5608 
*END

*D_NET *605 0.00466743
*CONN
*P tl_o[56] O
*I *1220:X O *D sg13g2_buf_1
*CAP
1 tl_o[56] 0.00131191
2 *1220:X 0.000618929
3 *605:14 0.00193084
4 *605:14 *751:18 0
5 tl_o[58] tl_o[56] 0
6 *1218:A *605:14 4.77425e-05
7 *269:11 *605:14 0
8 *274:9 *605:14 0
9 *336:11 tl_o[56] 0
10 *470:8 *605:14 0
11 *477:12 *605:14 8.00842e-05
12 *479:12 *605:14 0.000435897
13 *530:27 *605:14 0.000242022
*RES
1 *1220:X *605:14 45.5792 
2 *605:14 tl_o[56] 8.7032 
*END

*D_NET *289 0.00369514
*CONN
*P tl_o[57] O
*I *1218:X O *D sg13g2_buf_1
*CAP
1 tl_o[57] 0.000823919
2 *1218:X 0.000823919
3 tl_o[57] tl_o[55] 0
4 tl_o[57] *1218:A 0
5 tl_o[57] *740:10 0.000144872
6 *269:11 tl_o[57] 0.00190243
*RES
1 *1218:X tl_o[57] 49.504 
*END

*D_NET *288 0.00313562
*CONN
*P tl_o[58] O
*I *1216:X O *D sg13g2_buf_1
*CAP
1 tl_o[58] 0.00150507
2 *1216:X 3.12994e-05
3 *288:8 0.00153637
4 tl_o[58] tl_o[54] 0
5 tl_o[58] tl_o[55] 0
6 tl_o[58] tl_o[56] 0
7 *288:8 *475:14 1.54556e-05
8 *288:8 *540:10 4.74145e-05
*RES
1 *1216:X *288:8 40.2728 
2 *288:8 tl_o[58] 9.9704 
*END

*D_NET *533 0.00275846
*CONN
*P tl_o[59] O
*I *1253:L_LO O *D sg13g2_tielo
*CAP
1 tl_o[59] 0.000765568
2 *1253:L_LO 0.000613664
3 *533:8 0.00137923
*RES
1 *1253:L_LO *533:8 46.3712 
2 *533:8 tl_o[59] 8.492 
*END

*D_NET *534 0.00214862
*CONN
*P tl_o[5] O
*I *1197:L_LO O *D sg13g2_tielo
*CAP
1 tl_o[5] 0.00107431
2 *1197:L_LO 0.00107431
3 intr_gpio_o[2] tl_o[5] 0
4 *1441:A tl_o[5] 0
*RES
1 *1197:L_LO tl_o[5] 29.4688 
*END

*D_NET *535 0.00303077
*CONN
*P tl_o[60] O
*I *1265:L_LO O *D sg13g2_tielo
*CAP
1 tl_o[60] 0.00151539
2 *1265:L_LO 0.00151539
3 tl_o[60] tl_o[61] 0
4 tl_o[12] tl_o[60] 0
*RES
1 *1265:L_LO tl_o[60] 32.056 
*END

*D_NET *536 0.00223668
*CONN
*P tl_o[61] O
*I *1267:L_LO O *D sg13g2_tielo
*CAP
1 tl_o[61] 0.00111834
2 *1267:L_LO 0.00111834
3 tl_o[3] tl_o[61] 0
4 tl_o[60] tl_o[61] 0
*RES
1 *1267:L_LO tl_o[61] 30.2432 
*END

*D_NET *287 0.00545595
*CONN
*P tl_o[62] O
*I *1214:X O *D sg13g2_buf_1
*CAP
1 tl_o[62] 0.000122797
2 *1214:X 0.000623807
3 *287:8 0.000746604
4 *287:8 tl_o[65] 0.00190243
5 *287:8 *1318:A 0.00206031
6 *287:8 *333:33 0
7 *287:8 *338:9 0
*RES
1 *1214:X *287:8 49.8032 
2 *287:8 tl_o[62] 40.8976 
*END

*D_NET *538 0.00399506
*CONN
*P tl_o[63] O
*I *1269:L_LO O *D sg13g2_tielo
*CAP
1 tl_o[63] 0.000854654
2 *1269:L_LO 2.43294e-05
3 *538:8 0.000878984
4 tl_o[10] tl_o[63] 0.0022371
5 tl_o[13] tl_o[63] 0
*RES
1 *1269:L_LO *538:8 40.2728 
2 *538:8 tl_o[63] 10.3312 
*END

*D_NET *539 0.00363475
*CONN
*P tl_o[64] O
*I *1272:L_LO O *D sg13g2_tielo
*CAP
1 tl_o[64] 0.00100423
2 *1272:L_LO 0.00100423
3 tl_o[3] tl_o[64] 0.00162629
*RES
1 *1272:L_LO tl_o[64] 30.5776 
*END

*D_NET *347 0.00474393
*CONN
*P tl_o[65] O
*I *1212:X O *D sg13g2_buf_1
*CAP
1 tl_o[65] 0.000750751
2 *1212:X 0.000549076
3 *347:10 0.00129983
4 *347:10 *1212:A 0
5 *347:10 *479:18 0
6 *347:10 *787:10 0.000241847
7 *287:8 tl_o[65] 0.00190243
8 *305:9 *347:10 0
9 *338:9 tl_o[65] 0
*RES
1 *1212:X *347:10 44.6376 
2 *347:10 tl_o[65] 7.6472 
*END

*D_NET *541 0.00313269
*CONN
*P tl_o[6] O
*I *1199:L_LO O *D sg13g2_tielo
*CAP
1 tl_o[6] 0.00111598
2 *1199:L_LO 0.00111598
3 tl_o[48] tl_o[6] 0
4 *1445:A tl_o[6] 0.000900721
*RES
1 *1199:L_LO tl_o[6] 29.856 
*END

*D_NET *542 0.00190825
*CONN
*P tl_o[7] O
*I *1201:L_LO O *D sg13g2_tielo
*CAP
1 tl_o[7] 0.000954124
2 *1201:L_LO 0.000954124
*RES
1 *1201:L_LO tl_o[7] 30.1552 
*END

*D_NET *543 0.00278246
*CONN
*P tl_o[8] O
*I *1203:L_LO O *D sg13g2_tielo
*CAP
1 tl_o[8] 0.00139123
2 *1203:L_LO 0.00139123
3 tl_o[13] tl_o[8] 0
4 tl_o[4] tl_o[8] 0
*RES
1 *1203:L_LO tl_o[8] 49.5832 
*END

*D_NET *544 0.00213382
*CONN
*P tl_o[9] O
*I *1205:L_LO O *D sg13g2_tielo
*CAP
1 tl_o[9] 0.00106691
2 *1205:L_LO 0.00106691
3 tl_o[12] tl_o[9] 0
4 tl_o[15] tl_o[9] 0
*RES
1 *1205:L_LO tl_o[9] 30.0672 
*END

*D_NET *545 0.000145155
*CONN
*I *1187:D I *D sg13g2_dfrbpq_1
*I *1188:Q O *D sg13g2_dfrbpq_1
*CAP
1 *1187:D 7.25777e-05
2 *1188:Q 7.25777e-05
3 *1187:D *1144:D 0
*RES
1 *1188:Q *1187:D 40.7832 
*END

*D_NET *546 0.000158498
*CONN
*I *801:A I *D sg13g2_inv_1
*I *1183:Q O *D sg13g2_dfrbpq_1
*CAP
1 *801:A 7.92488e-05
2 *1183:Q 7.92488e-05
3 *801:A *657:12 0
4 *1268:A *801:A 0
5 *362:20 *801:A 0
*RES
1 *1183:Q *801:A 40.7832 
*END

*D_NET *547 0.000372739
*CONN
*I *796:A I *D sg13g2_inv_1
*I *1184:Q O *D sg13g2_dfrbpq_1
*CAP
1 *796:A 0.000186369
2 *1184:Q 0.000186369
3 *834:A *796:A 0
4 *270:29 *796:A 0
5 *282:12 *796:A 0
*RES
1 *1184:Q *796:A 41.496 
*END

*D_NET *548 0.00180402
*CONN
*I *791:A I *D sg13g2_inv_1
*I *1185:Q O *D sg13g2_dfrbpq_1
*CAP
1 *791:A 0.000356044
2 *1185:Q 0.000310392
3 *548:10 0.000666437
4 *792:A1 *791:A 1.54008e-05
5 *793:B_N *791:A 0.000306964
6 *794:C *791:A 0
7 *794:C *548:10 0
8 *78:8 *791:A 0
9 *271:25 *548:10 0
10 *349:16 *791:A 0.000148785
11 *349:29 *548:10 0
12 *366:18 *548:10 0
13 *366:44 *791:A 0
*RES
1 *1185:Q *548:10 42.4728 
2 *548:10 *791:A 43.0448 
*END

*D_NET *549 0.000209932
*CONN
*I *1032:A I *D sg13g2_inv_1
*I *1186:Q O *D sg13g2_dfrbpq_1
*CAP
1 *1032:A 0.000104966
2 *1186:Q 0.000104966
3 *1032:A *677:20 0
4 *272:28 *1032:A 0
*RES
1 *1186:Q *1032:A 40.9944 
*END

*D_NET *550 0.00608536
*CONN
*I *1174:RESET_B I *D sg13g2_dfrbpq_1
*I *922:A I *D sg13g2_buf_1
*I *1069:RESET_B I *D sg13g2_dfrbpq_1
*I *1190:A I *D sg13g2_buf_1
*I *1153:Q O *D sg13g2_dfrbpq_1
*CAP
1 *1174:RESET_B 0
2 *922:A 0
3 *1069:RESET_B 3.26306e-05
4 *1190:A 0.000445942
5 *1153:Q 0.000237931
6 *550:52 0.000188655
7 *550:39 0.00125871
8 *550:37 0.00164526
9 *550:10 0.00105377
10 *550:8 0.000237931
11 *1190:A *1153:CLK 2.4729e-05
12 *1190:A *680:47 0
13 *550:37 *1153:CLK 0
14 *550:37 *661:8 0
15 *550:39 *1174:D 0
16 *550:39 *1366:A 0
17 *550:39 *1392:A 0
18 *550:39 *661:8 0
19 *550:39 *661:14 0
20 *550:39 *684:20 0
21 *550:52 *789:A0 0
22 *789:S *1069:RESET_B 1.54008e-05
23 *789:S *550:39 0.000307057
24 *1030:A1 *550:39 0
25 *1030:A2 *550:39 0
26 *1069:D *1069:RESET_B 0
27 *1069:D *550:39 0
28 *1151:RESET_B *550:8 0
29 *1151:D *1190:A 0
30 *92:56 *550:37 0
31 *157:10 *550:52 0
32 *270:12 *1190:A 0.000265469
33 *270:12 *550:37 0.000371872
34 *270:12 *550:39 0
35 *411:18 *550:52 0
*RES
1 *1153:Q *550:8 42.4112 
2 *550:8 *550:10 20 
3 *550:10 *1190:A 24.4 
4 *550:10 *550:37 45.6056 
5 *550:37 *550:39 8.404 
6 *550:39 *1069:RESET_B 20.2728 
7 *550:39 *550:52 41.7776 
8 *550:52 *922:A 20 
9 *550:37 *1174:RESET_B 20 
*END

*D_NET *551 0.00135408
*CONN
*I *1179:D I *D sg13g2_dfrbpq_1
*I *1004:Y O *D sg13g2_a21oi_1
*CAP
1 *1179:D 0.000117695
2 *1004:Y 0.000559347
3 *551:8 0.000677042
4 *1179:D *1179:RESET_B 0
*RES
1 *1004:Y *551:8 45.368 
2 *551:8 *1179:D 41.012 
*END

*D_NET *552 0.00153939
*CONN
*I *1180:D I *D sg13g2_dfrbpq_1
*I *1003:Y O *D sg13g2_a21oi_1
*CAP
1 *1180:D 0.000449266
2 *1003:Y 9.78262e-05
3 *552:8 0.000547093
4 *1180:D *1001:A 0.00036948
5 *1180:D *1396:A 0
6 *552:8 *555:34 0
7 *1002:A *1180:D 0
8 *1003:A2 *1180:D 0
9 *1037:B1 *1180:D 0
10 *218:14 *552:8 7.57202e-05
11 *242:12 *1180:D 0
*RES
1 *1003:Y *552:8 40.9328 
2 *552:8 *1180:D 43.7136 
*END

*D_NET *553 0.00150557
*CONN
*I *1181:D I *D sg13g2_dfrbpq_1
*I *999:Y O *D sg13g2_a21oi_1
*CAP
1 *1181:D 0.000214614
2 *999:Y 0.000514277
3 *553:8 0.000728891
4 *1181:D *1176:D 0
5 *1181:D *604:48 4.77866e-05
6 *1181:D *604:57 0
7 *553:8 *1177:RESET_B 0
8 *553:8 *558:18 0
9 *553:8 *560:23 0
10 *553:8 *604:33 0
11 *999:B1 *553:8 0
*RES
1 *999:Y *553:8 45.368 
2 *553:8 *1181:D 42.1208 
*END

*D_NET *554 0.00161423
*CONN
*I *1182:D I *D sg13g2_dfrbpq_1
*I *1005:Y O *D sg13g2_a21oi_1
*CAP
1 *1182:D 0
2 *1005:Y 0.000686045
3 *554:10 0.000686045
4 *995:A *554:10 0
5 *1005:A1 *554:10 0
6 *1005:A2 *554:10 0.000242138
*RES
1 *1005:Y *554:10 46.7496 
2 *554:10 *1182:D 40 
*END

*D_NET *555 0.00267522
*CONN
*I *992:A I *D sg13g2_inv_1
*I *1037:A2 I *D sg13g2_o21ai_1
*I *1001:B I *D sg13g2_xnor2_1
*I *1004:A2 I *D sg13g2_a21oi_1
*I *1179:Q O *D sg13g2_dfrbpq_1
*CAP
1 *992:A 0
2 *1037:A2 0
3 *1001:B 1.5117e-05
4 *1004:A2 0.000184581
5 *1179:Q 5.34158e-05
6 *555:46 0.000350696
7 *555:34 0.000656877
8 *555:19 0.000412543
9 *555:8 0.000329242
10 *1001:B *1001:A 0
11 *1004:A2 *1001:A 0
12 *555:34 *1001:A 0.000256864
13 *555:46 *1001:A 0.00011212
14 tl_o[11] *555:34 0
15 *995:A *555:46 0
16 *1003:A2 *1004:A2 0
17 *1005:A2 *1004:A2 0
18 *1037:B1 *555:46 0.000208105
19 *210:12 *555:46 8.02595e-05
20 *218:8 *1004:A2 1.54008e-05
21 *220:6 *555:46 0
22 *552:8 *555:34 0
*RES
1 *1179:Q *555:8 40.5104 
2 *555:8 *1004:A2 41.7512 
3 *555:8 *555:19 0.9328 
4 *555:19 *1001:B 40.2728 
5 *555:19 *555:34 23.1064 
6 *555:34 *555:46 43.256 
7 *555:46 *1037:A2 20 
8 *555:34 *992:A 20 
*END

*D_NET *556 0.00302
*CONN
*I *1001:A I *D sg13g2_xnor2_1
*I *991:A I *D sg13g2_inv_1
*I *1180:Q O *D sg13g2_dfrbpq_1
*CAP
1 *1001:A 0.000461624
2 *991:A 0
3 *1180:Q 0.000679143
4 *556:12 0.000461624
5 *556:10 0.000679143
6 *993:B *1001:A 0
7 *1001:B *1001:A 0
8 *1003:A2 *1001:A 0
9 *1004:A2 *1001:A 0
10 *1037:B1 *1001:A 0
11 *1180:D *1001:A 0.00036948
12 *1445:A *556:10 0
13 *410:10 *556:10 0
14 *555:34 *1001:A 0.000256864
15 *555:46 *1001:A 0.00011212
*RES
1 *1180:Q *556:10 46.1424 
2 *556:10 *556:12 20 
3 *556:12 *991:A 20 
4 *556:12 *1001:A 24.3472 
*END

*D_NET *557 0.00117281
*CONN
*I *994:B I *D sg13g2_nand2_1
*I *998:A1 I *D sg13g2_o21ai_1
*I *1181:Q O *D sg13g2_dfrbpq_1
*CAP
1 *994:B 0.000144725
2 *998:A1 0
3 *1181:Q 3.03095e-05
4 *557:14 0.000291162
5 *557:6 0.000466196
6 *994:B *996:A 0.000144767
7 *994:B *558:18 0
8 *557:6 *558:18 0
9 *557:14 *996:A 8.0194e-05
10 *557:14 *558:18 1.54556e-05
11 *1005:A1 *557:6 0
12 *1005:A2 *994:B 0
13 *212:27 *994:B 0
14 *212:27 *557:14 0
15 *217:10 *557:14 0
*RES
1 *1181:Q *557:6 20.2992 
2 *557:6 *557:14 42.024 
3 *557:14 *998:A1 20 
4 *557:6 *994:B 21.1968 
*END

*D_NET *558 0.00285123
*CONN
*I *1000:B I *D sg13g2_nand2_1
*I *996:A I *D sg13g2_inv_1
*I *1038:C I *D sg13g2_nand3b_1
*I *1182:Q O *D sg13g2_dfrbpq_1
*CAP
1 *1000:B 0.000119878
2 *996:A 0.000124403
3 *1038:C 0
4 *1182:Q 0
5 *558:27 0.000326423
6 *558:18 0.000520087
7 *558:4 0.000602229
8 *558:18 *560:23 0
9 *994:B *996:A 0.000144767
10 *994:B *558:18 0
11 *995:A *996:A 0
12 *995:A *1000:B 8.02269e-05
13 *999:A1 *558:18 0.000145003
14 *999:B1 *558:18 0.000242308
15 *1000:A *1000:B 8.02269e-05
16 *1005:A2 *558:18 0.000209856
17 *212:27 *996:A 0.000144767
18 *214:10 *558:18 0
19 *215:10 *996:A 1.54008e-05
20 *215:10 *558:18 0
21 *553:8 *558:18 0
22 *557:6 *558:18 0
23 *557:14 *996:A 8.0194e-05
24 *557:14 *558:18 1.54556e-05
*RES
1 *1182:Q *558:4 20 
2 *558:4 *558:18 44.8752 
3 *558:18 *1038:C 20 
4 *558:4 *558:27 20.7216 
5 *558:27 *996:A 41.1968 
6 *558:27 *1000:B 41.1792 
*END

*D_NET *559 0.00101878
*CONN
*I *997:B I *D sg13g2_xnor2_1
*I *1178:Q O *D sg13g2_dfrbpq_1
*CAP
1 *997:B 7.75467e-05
2 *1178:Q 0.000101623
3 *559:16 0.000219522
4 *559:8 0.000243598
5 *997:B *560:25 1.53453e-05
6 *559:16 *604:31 0.000179811
7 *61:10 *997:B 0
8 *216:16 *559:8 0
9 *216:16 *559:16 0.000181334
*RES
1 *1178:Q *559:8 40.9328 
2 *559:8 *559:16 41.7336 
3 *559:16 *997:B 40.6424 
*END

*D_NET *560 0.0040945
*CONN
*I *1039:A0 I *D sg13g2_mux2_1
*I *997:A I *D sg13g2_xnor2_1
*I *790:A0 I *D sg13g2_mux2_1
*I *1178:D I *D sg13g2_dfrbpq_1
*I *1176:Q O *D sg13g2_dfrbpq_1
*CAP
1 *1039:A0 0
2 *997:A 0
3 *790:A0 0
4 *1178:D 0.000359046
5 *1176:Q 7.49594e-05
6 *560:49 0.000310071
7 *560:31 0.000155404
8 *560:25 0.0002295
9 *560:23 0.000885197
10 *560:6 0.000935034
11 *1178:D *1178:RESET_B 0
12 *1178:D *1380:A 4.79124e-05
13 *560:6 *1380:A 0
14 *560:6 *712:26 0
15 *560:23 *604:31 0
16 *560:23 *712:26 0.00050008
17 *560:25 *1180:RESET_B 0
18 *560:31 *1039:A1 0.000501845
19 *560:31 *680:71 0
20 *560:31 *712:26 0
21 *560:49 *1180:RESET_B 0
22 *997:B *560:25 1.53453e-05
23 *1005:A2 *560:6 8.00998e-05
24 *61:10 *560:25 0
25 *61:10 *560:49 0
26 *95:18 *1178:D 0
27 *553:8 *560:23 0
28 *558:18 *560:23 0
*RES
1 *1176:Q *560:6 20.6424 
2 *560:6 *1178:D 23.3 
3 *560:6 *560:23 45.1568 
4 *560:23 *560:25 0.6424 
5 *560:25 *560:31 41.9888 
6 *560:31 *790:A0 20 
7 *560:25 *997:A 20 
8 *560:23 *560:49 42.3672 
9 *560:49 *1039:A0 20 
*END

*D_NET *561 0.000226688
*CONN
*I *1176:D I *D sg13g2_dfrbpq_1
*I *1177:Q O *D sg13g2_dfrbpq_1
*CAP
1 *1176:D 0.000113344
2 *1177:Q 0.000113344
3 *1176:D *604:48 0
4 *1181:D *1176:D 0
*RES
1 *1177:Q *1176:D 41.012 
*END

*D_NET *562 0.0037621
*CONN
*I *790:A1 I *D sg13g2_mux2_1
*I *1039:A1 I *D sg13g2_mux2_1
*I *1068:Q O *D sg13g2_dfrbpq_1
*CAP
1 *790:A1 3.73926e-05
2 *1039:A1 0.000436938
3 *1068:Q 0.000653434
4 *562:12 0.00112776
5 *790:A1 *1381:A 0
6 *1039:A1 *604:31 0.000447287
7 *1039:A1 *680:53 0
8 *1039:A1 *680:60 0
9 *1039:A1 *680:71 0
10 *562:12 *680:71 0
11 *562:12 *711:8 0.000209747
12 *562:12 *712:58 7.51285e-05
13 *1183:D *562:12 0
14 *61:10 *1039:A1 0.000272564
15 *280:8 *562:12 0
16 *280:16 *562:12 0
17 *408:8 *562:12 0
18 *410:10 *562:12 0
19 *560:31 *1039:A1 0.000501845
*RES
1 *1068:Q *562:12 45.4648 
2 *562:12 *1039:A1 44.8224 
3 *562:12 *790:A1 40.2728 
*END

*D_NET *563 0.00146334
*CONN
*I *1172:D I *D sg13g2_dfrbpq_1
*I *816:Y O *D sg13g2_nor2_1
*CAP
1 *1172:D 0
2 *816:Y 0.00073167
3 *563:10 0.00073167
4 *563:10 *1173:CLK 0
5 *563:10 *564:10 0
6 *563:10 *570:12 0
7 *815:B1 *563:10 0
8 *97:14 *563:10 0
*RES
1 *816:Y *563:10 46.6968 
2 *563:10 *1172:D 40 
*END

*D_NET *564 0.000798588
*CONN
*I *1173:D I *D sg13g2_dfrbpq_1
*I *814:Y O *D sg13g2_nor2_1
*CAP
1 *1173:D 0
2 *814:Y 0.00039158
3 *564:10 0.00039158
4 *564:10 *1173:CLK 0
5 *564:10 *705:34 0
6 *564:10 *775:8 0
7 *814:A *564:10 0
8 *97:29 *564:10 1.54285e-05
9 *285:74 *564:10 0
10 *563:10 *564:10 0
*RES
1 *814:Y *564:10 43.608 
2 *564:10 *1173:D 40 
*END

*D_NET *565 0.00219999
*CONN
*I *1174:D I *D sg13g2_dfrbpq_1
*I *1041:A I *D sg13g2_nand3_1
*I *1026:Y O *D sg13g2_a21oi_1
*CAP
1 *1174:D 0.00036191
2 *1041:A 0.0002854
3 *1026:Y 0.000170034
4 *565:10 0.000817343
5 *1174:D *811:A 8.00842e-05
6 *812:B *1174:D 0.000130344
7 *812:B *565:10 0.000130344
8 *1025:B1 *1041:A 0
9 *1025:B1 *565:10 0.000177378
10 *1026:A1 *1041:A 0
11 *1026:A1 *565:10 0
12 *1030:A1 *1041:A 0
13 *1030:A1 *1174:D 0
14 *95:8 *1174:D 0
15 *96:37 *1174:D 0
16 *234:10 *1041:A 4.71556e-05
17 *550:39 *1174:D 0
*RES
1 *1026:Y *565:10 41.5224 
2 *565:10 *1041:A 42.3232 
3 *565:10 *1174:D 42.9216 
*END

*D_NET *566 0.00541009
*CONN
*I *1041:B I *D sg13g2_nand3_1
*I *1175:D I *D sg13g2_dfrbpq_1
*I *1030:Y O *D sg13g2_a21oi_1
*CAP
1 *1041:B 0.000100659
2 *1175:D 0
3 *1030:Y 0.00017291
4 *566:18 0.00124196
5 *566:10 0.00151553
6 *566:10 *684:20 0
7 *566:18 *580:10 0
8 *566:18 *705:8 0
9 *1041:C *1041:B 0.000176113
10 *1175:RESET_B *566:18 0
11 *91:8 *1041:B 0.000176113
12 *271:12 *566:10 0
13 *271:12 *566:18 0
14 *285:74 *566:18 0
15 *285:83 *566:18 0
16 *406:14 *566:18 0
17 *413:14 *566:10 0.000342145
18 *413:14 *566:18 0.00168466
*RES
1 *1030:Y *566:10 41.8128 
2 *566:10 *566:18 32.5664 
3 *566:18 *1175:D 20 
4 *566:10 *1041:B 41.012 
*END

*D_NET *567 0.000789742
*CONN
*I *809:A I *D sg13g2_inv_1
*I *808:B I *D sg13g2_nand2_1
*I *1172:Q O *D sg13g2_dfrbpq_1
*CAP
1 *809:A 0.000137604
2 *808:B 5.15512e-05
3 *1172:Q 6.0669e-05
4 *567:10 0.000189155
5 *567:8 6.0669e-05
6 *808:B *810:A_N 0
7 *809:A *810:A_N 0
8 *815:B1 *808:B 8.02595e-05
9 *815:B1 *809:A 0.000194379
10 *92:14 *808:B 1.54556e-05
*RES
1 *1172:Q *567:8 40.5104 
2 *567:8 *567:10 20 
3 *567:10 *808:B 20.4576 
4 *567:10 *809:A 21.1968 
*END

*D_NET *568 0.00281169
*CONN
*I *810:A_N I *D sg13g2_nand2b_1
*I *808:A I *D sg13g2_nand2_1
*I *1173:Q O *D sg13g2_dfrbpq_1
*CAP
1 *810:A_N 0.000555855
2 *808:A 0
3 *1173:Q 0.000147814
4 *568:12 0.000695498
5 *568:8 0.000287457
6 *568:12 *570:16 0
7 *808:B *810:A_N 0
8 *809:A *810:A_N 0
9 *810:B *810:A_N 5.40946e-05
10 *813:A2 *810:A_N 0.000575638
11 *813:A2 *568:12 0.000241886
12 *815:B1 *810:A_N 0
13 *92:14 *568:8 7.62389e-05
14 *92:14 *568:12 0.000177214
15 *93:6 *810:A_N 0
*RES
1 *1173:Q *568:8 41.144 
2 *568:8 *568:12 21.3816 
3 *568:12 *808:A 20 
4 *568:12 *810:A_N 25.3504 
*END

*D_NET *569 0.0017381
*CONN
*I *811:A I *D sg13g2_inv_1
*I *1174:Q O *D sg13g2_dfrbpq_1
*CAP
1 *811:A 8.38546e-05
2 *1174:Q 0.000672713
3 *569:10 0.000756568
4 *569:10 *1328:A 0
5 *569:10 *680:27 0
6 *1030:A1 *811:A 0.000144877
7 *1174:D *811:A 8.00842e-05
*RES
1 *1174:Q *569:10 46.2216 
2 *569:10 *811:A 40.8272 
*END

*D_NET *570 0.00297211
*CONN
*I *813:B1 I *D sg13g2_a22oi_1
*I *1024:A I *D sg13g2_inv_1
*I *815:A2 I *D sg13g2_a21oi_1
*I *1175:Q O *D sg13g2_dfrbpq_1
*CAP
1 *813:B1 0
2 *1024:A 0
3 *815:A2 0.000316091
4 *1175:Q 0.000383415
5 *570:37 0.000132303
6 *570:18 0.00049812
7 *570:16 0.000168719
8 *570:12 0.000502409
9 *812:B *570:37 0
10 *813:B2 *815:A2 0
11 *813:A1 *570:18 4.77425e-05
12 *813:A1 *570:37 0
13 *815:A1 *815:A2 0.000225114
14 *815:B1 *815:A2 0
15 *815:B1 *570:12 0
16 *815:B1 *570:16 8.01224e-05
17 *1025:B1 *570:37 4.77425e-05
18 *1041:C *815:A2 0
19 *92:14 *570:16 4.77154e-05
20 *95:18 *570:37 0.000128247
21 *96:8 *570:37 0.000287672
22 *97:10 *570:18 3.15716e-05
23 *97:10 *570:37 7.51285e-05
24 *563:10 *570:12 0
25 *568:12 *570:16 0
*RES
1 *1175:Q *570:12 42.9568 
2 *570:12 *570:16 21.012 
3 *570:16 *570:18 0.4576 
4 *570:18 *815:A2 22.7192 
5 *570:18 *570:37 41.628 
6 *570:37 *1024:A 20 
7 *570:16 *813:B1 20 
*END

*D_NET *571 0.000232464
*CONN
*I *806:B I *D sg13g2_xnor2_1
*I *1171:Q O *D sg13g2_dfrbpq_1
*CAP
1 *806:B 0.000116232
2 *1171:Q 0.000116232
3 *806:B *572:8 0
4 *271:10 *806:B 0
*RES
1 *1171:Q *806:B 41.2056 
*END

*D_NET *572 0.00487087
*CONN
*I *789:A0 I *D sg13g2_mux2_1
*I *1042:A0 I *D sg13g2_mux2_1
*I *806:A I *D sg13g2_xnor2_1
*I *1171:D I *D sg13g2_dfrbpq_1
*I *1169:Q O *D sg13g2_dfrbpq_1
*CAP
1 *789:A0 0.000207988
2 *1042:A0 0
3 *806:A 0
4 *1171:D 0.000462001
5 *1169:Q 0.000892665
6 *572:28 0.000422943
7 *572:19 0.000421159
8 *572:8 0.00156087
9 *789:A0 *574:20 0.000661886
10 *789:A0 *666:27 0
11 *572:8 *1070:CLK 0
12 *572:8 *584:36 0
13 *572:8 *584:51 0
14 *572:8 *586:10 0
15 *788:S *572:8 0.000241358
16 *806:B *572:8 0
17 *157:10 *789:A0 0
18 *157:10 *1171:D 0
19 *157:10 *572:19 0
20 *157:10 *572:28 0
21 *271:10 *572:8 0
22 *406:14 *789:A0 0
23 *406:14 *1171:D 0
24 *406:14 *572:19 0
25 *406:14 *572:28 0
26 *550:52 *789:A0 0
*RES
1 *1169:Q *572:8 48.0344 
2 *572:8 *1171:D 44.5232 
3 *572:8 *572:19 1.9888 
4 *572:19 *806:A 40 
5 *572:19 *572:28 1.9888 
6 *572:28 *1042:A0 40 
7 *572:28 *789:A0 42.8336 
*END

*D_NET *573 0.00014587
*CONN
*I *1169:D I *D sg13g2_dfrbpq_1
*I *1170:Q O *D sg13g2_dfrbpq_1
*CAP
1 *1169:D 7.29351e-05
2 *1170:Q 7.29351e-05
3 *1169:RESET_B *1169:D 0
4 *229:8 *1169:D 0
*RES
1 *1170:Q *1169:D 40.7832 
*END

*D_NET *574 0.00262711
*CONN
*I *789:A1 I *D sg13g2_mux2_1
*I *1042:A1 I *D sg13g2_mux2_1
*I *1069:Q O *D sg13g2_dfrbpq_1
*CAP
1 *789:A1 0
2 *1042:A1 0
3 *1069:Q 0.000463113
4 *574:20 0.000284375
5 *574:14 0.000401018
6 *574:10 0.000579756
7 *574:10 *658:10 0
8 *574:10 *658:100 0.000236962
9 *574:10 *666:27 0
10 *574:14 *1366:A 0
11 *574:14 *696:20 0
12 *574:20 *666:27 0
13 *789:A0 *574:20 0.000661886
14 *1099:D *574:10 0
15 *270:12 *574:14 0
16 *406:14 *574:10 0
17 *406:14 *574:20 0
*RES
1 *1069:Q *574:10 44.1096 
2 *574:10 *574:14 21.012 
3 *574:14 *574:20 42.8336 
4 *574:20 *1042:A1 20 
5 *574:14 *789:A1 20 
*END

*D_NET *575 0.000791126
*CONN
*I *1165:D I *D sg13g2_dfrbpq_1
*I *1022:Y O *D sg13g2_a21oi_1
*CAP
1 *1165:D 0.000290714
2 *1022:Y 0.000290714
3 *1165:D *1166:D 0.000209698
4 *1454:A *1165:D 0
5 *285:18 *1165:D 0
*RES
1 *1022:Y *1165:D 42.6752 
*END

*D_NET *576 0.00231577
*CONN
*I *1166:D I *D sg13g2_dfrbpq_1
*I *1021:Y O *D sg13g2_a21oi_1
*CAP
1 *1166:D 0.000345717
2 *1021:Y 0.000380878
3 *576:14 0.000726596
4 *576:14 *579:18 0.000209714
5 *576:14 *768:8 0
6 *576:14 *775:8 0.000235055
7 *1165:D *1166:D 0.000209698
8 *1166:RESET_B *1166:D 0
9 *231:8 *576:14 4.78356e-05
10 *233:23 *576:14 4.77425e-05
11 *285:18 *1166:D 0
12 *285:18 *576:14 0.000112535
*RES
1 *1021:Y *576:14 43.6256 
2 *576:14 *1166:D 43.2296 
*END

*D_NET *577 0.00301763
*CONN
*I *1167:D I *D sg13g2_dfrbpq_1
*I *1017:Y O *D sg13g2_a21oi_1
*CAP
1 *1167:D 0.000225163
2 *1017:Y 0.000896717
3 *577:10 0.00112188
4 *1167:D *1325:A 0
5 *577:10 *1170:D 0
6 *577:10 *1299:A 0
7 *577:10 *754:10 0.000209174
8 *1401:A *1167:D 4.79124e-05
9 *1401:A *577:10 0
10 *228:27 *577:10 0
11 *230:33 *577:10 0.000404263
12 *285:46 *1167:D 0
13 *285:46 *577:10 0.000112519
*RES
1 *1017:Y *577:10 48.4392 
2 *577:10 *1167:D 42.1208 
*END

*D_NET *578 0.000955834
*CONN
*I *1168:D I *D sg13g2_dfrbpq_1
*I *1023:Y O *D sg13g2_a21oi_1
*CAP
1 *1168:D 0
2 *1023:Y 0.000172338
3 *578:10 0.000172338
4 *578:10 *1170:D 0.000241456
5 *578:10 *754:10 0.000128247
6 *233:8 *578:10 0.000241456
7 *415:12 *578:10 0
*RES
1 *1023:Y *578:10 41.892 
2 *578:10 *1168:D 40 
*END

*D_NET *579 0.00549662
*CONN
*I *1019:A I *D sg13g2_xnor2_1
*I *1009:A I *D sg13g2_inv_1
*I *1043:A1 I *D sg13g2_o21ai_1
*I *1022:A2 I *D sg13g2_a21oi_1
*I *1165:Q O *D sg13g2_dfrbpq_1
*CAP
1 *1019:A 0
2 *1009:A 0
3 *1043:A1 0
4 *1022:A2 0.000175743
5 *1165:Q 0.000306719
6 *579:56 0.000238565
7 *579:41 0.000555937
8 *579:18 0.000652295
9 *579:14 0.000186039
10 *579:10 0.000333578
11 *579:10 *1019:B 0.000235075
12 *579:10 *1298:A 0
13 *579:10 *580:10 0.000836723
14 *579:10 *768:8 0
15 *579:10 *775:8 0.000980515
16 *579:14 *1019:B 4.77425e-05
17 *579:18 *1019:B 1.54008e-05
18 *579:41 *760:10 0
19 *579:41 *775:8 0
20 *1011:B *579:56 8.00842e-05
21 *1021:A2 *579:18 0.000177257
22 *1021:A2 *579:41 7.99455e-05
23 *1022:B1 *1022:A2 0
24 *1043:A2 *579:56 7.99455e-05
25 *224:8 *579:41 0
26 *224:8 *579:56 1.54008e-05
27 *231:8 *579:41 0.000209856
28 *246:8 *579:56 0
29 *285:18 *1022:A2 8.00842e-05
30 *576:14 *579:18 0.000209714
*RES
1 *1165:Q *579:10 44.9016 
2 *579:10 *579:14 20.2728 
3 *579:14 *579:18 21.5664 
4 *579:18 *1022:A2 41.3904 
5 *579:18 *579:41 23.344 
6 *579:41 *1043:A1 20 
7 *579:41 *579:56 42.0592 
8 *579:56 *1009:A 20 
9 *579:14 *1019:A 20 
*END

*D_NET *580 0.00248646
*CONN
*I *1010:A I *D sg13g2_inv_1
*I *1019:B I *D sg13g2_xnor2_1
*I *1166:Q O *D sg13g2_dfrbpq_1
*CAP
1 *1010:A 4.8163e-05
2 *1019:B 0.000118684
3 *1166:Q 0.000508914
4 *580:10 0.00067576
5 *580:10 *768:8 0
6 *580:10 *775:8 0
7 *285:18 *1019:B 0
8 *566:18 *580:10 0
9 *579:10 *1019:B 0.000235075
10 *579:10 *580:10 0.000836723
11 *579:14 *1019:B 4.77425e-05
12 *579:18 *1019:B 1.54008e-05
*RES
1 *1166:Q *580:10 45.5352 
2 *580:10 *1019:B 41.3904 
3 *580:10 *1010:A 40.4576 
*END

*D_NET *581 0.00245733
*CONN
*I *1016:A1 I *D sg13g2_o21ai_1
*I *1012:B I *D sg13g2_nand2_1
*I *1167:Q O *D sg13g2_dfrbpq_1
*CAP
1 *1016:A1 2.97526e-05
2 *1012:B 0
3 *1167:Q 0.000365659
4 *581:26 0.000319758
5 *581:18 0.000572913
6 *581:10 0.000648567
7 *581:10 *1170:CLK 0
8 *581:26 tl_o[33] 0
9 *581:26 *754:10 0.000288583
10 *1012:A *581:26 0
11 *1016:A2 *1016:A1 1.54008e-05
12 *1016:A2 *581:26 0
13 *229:8 *581:10 0.000143413
14 *229:14 *581:18 7.3287e-05
15 *285:36 *581:26 0
*RES
1 *1167:Q *581:10 23.2472 
2 *581:10 *581:18 42.42 
3 *581:18 *581:26 42.7104 
4 *581:26 *1012:B 20 
5 *581:10 *1016:A1 20.2728 
*END

*D_NET *582 0.00337783
*CONN
*I *1018:B I *D sg13g2_nand2_1
*I *1014:A I *D sg13g2_inv_1
*I *1044:C I *D sg13g2_nand3b_1
*I *1168:Q O *D sg13g2_dfrbpq_1
*CAP
1 *1018:B 0
2 *1014:A 0.000128025
3 *1044:C 7.90686e-05
4 *1168:Q 0.000432857
5 *582:44 0.000158565
6 *582:27 0.000524962
7 *582:12 0.000750298
8 *582:12 *584:51 0
9 *582:12 *628:8 0
10 *582:44 *760:10 0
11 *1013:A *1014:A 0.000175853
12 *1013:A *582:44 0.0001122
13 *1017:A1 *582:44 0.000128576
14 *1044:B *1044:C 0
15 *1044:B *582:12 0
16 *1045:S *582:12 8.03692e-05
17 *225:12 *1044:C 4.73245e-05
18 *227:8 *582:44 7.52149e-05
19 *230:12 *1044:C 9.96524e-06
20 *230:12 *582:12 0
21 *230:33 *1044:C 1.07318e-05
22 *230:33 *582:27 0
23 *285:8 *582:12 0
24 *285:8 *582:27 0.000503551
25 *285:18 *582:44 4.78359e-05
26 *285:36 *1014:A 0
27 *411:18 *582:12 0
28 *411:18 *582:27 0
29 *414:10 *582:12 0.000112435
*RES
1 *1168:Q *582:12 43.8016 
2 *582:12 *1044:C 40.616 
3 *582:12 *582:27 22.4464 
4 *582:27 *1014:A 21.012 
5 *582:27 *582:44 41.8216 
6 *582:44 *1018:B 20 
*END

*D_NET *583 0.000539736
*CONN
*I *1015:B I *D sg13g2_xnor2_1
*I *1164:Q O *D sg13g2_dfrbpq_1
*CAP
1 *1015:B 0.00025878
2 *1164:Q 0.00025878
3 *1015:B *1155:D 0
4 *1015:B *1162:D 2.21754e-05
5 *229:8 *1015:B 0
*RES
1 *1164:Q *1015:B 42.3056 
*END

*D_NET *584 0.00791041
*CONN
*I *1045:A0 I *D sg13g2_mux2_1
*I *788:A0 I *D sg13g2_mux2_1
*I *1015:A I *D sg13g2_xnor2_1
*I *1164:D I *D sg13g2_dfrbpq_1
*I *1162:Q O *D sg13g2_dfrbpq_1
*CAP
1 *1045:A0 0
2 *788:A0 0
3 *1015:A 0.000199519
4 *1164:D 0.000402344
5 *1162:Q 2.76158e-05
6 *584:51 0.000628075
7 *584:36 0.00149977
8 *584:10 0.00148355
9 *584:8 0.00178099
10 *1015:A *1155:D 0
11 *1164:D *1167:CLK 0
12 *1164:D *693:8 0
13 *584:8 *596:8 0
14 *584:10 *1157:D 0
15 *584:10 *1363:A 0
16 *584:10 *596:21 0
17 *584:10 *659:12 0
18 *584:10 *693:8 0
19 *584:36 *788:A1 1.54008e-05
20 *584:36 *844:S 0
21 *584:36 *985:A 0
22 *584:36 *985:B 0
23 *584:36 *1048:A0 0
24 *584:36 *1157:CLK 0
25 *584:36 *596:8 0
26 *584:36 *596:21 0
27 *584:51 tl_o[33] 0
28 *584:51 *788:A1 0.000274452
29 *584:51 *754:10 0
30 *788:S *584:36 0
31 *1071:D *584:36 0
32 *157:51 *584:10 0
33 *206:22 *584:8 0
34 *229:8 *1015:A 0.000175727
35 *411:18 *584:51 0.00140757
36 *414:10 *584:51 1.54008e-05
37 *416:10 *584:51 0
38 *572:8 *584:36 0
39 *572:8 *584:51 0
40 *582:12 *584:51 0
*RES
1 *1162:Q *584:8 40.2728 
2 *584:8 *584:10 7.0576 
3 *584:10 *1164:D 44.312 
4 *584:10 *1015:A 41.892 
5 *584:8 *584:36 27.6472 
6 *584:36 *788:A0 20 
7 *584:36 *584:51 47.6032 
8 *584:51 *1045:A0 20 
*END

*D_NET *585 0.00117078
*CONN
*I *1162:D I *D sg13g2_dfrbpq_1
*I *1163:Q O *D sg13g2_dfrbpq_1
*CAP
1 *1162:D 0.000574301
2 *1163:Q 0.000574301
3 *1162:D *1155:D 0
4 *1162:D *1359:A 0
5 *1015:B *1162:D 2.21754e-05
6 *157:28 *1162:D 0
7 *192:65 *1162:D 0
8 *229:8 *1162:D 0
*RES
1 *1163:Q *1162:D 45.236 
*END

*D_NET *586 0.00339537
*CONN
*I *788:A1 I *D sg13g2_mux2_1
*I *1045:A1 I *D sg13g2_mux2_1
*I *1070:Q O *D sg13g2_dfrbpq_1
*CAP
1 *788:A1 0.000229989
2 *1045:A1 0.000396339
3 *1070:Q 9.18441e-05
4 *586:10 0.000718172
5 *788:A1 *684:24 0
6 *157:10 *1045:A1 0
7 *157:10 *586:10 0
8 *271:10 *788:A1 0
9 *271:10 *586:10 4.78195e-05
10 *285:8 *1045:A1 0
11 *414:10 *1045:A1 0.00140798
12 *414:10 *586:10 0.000213373
13 *572:8 *586:10 0
14 *584:36 *788:A1 1.54008e-05
15 *584:51 *788:A1 0.000274452
*RES
1 *1070:Q *586:10 41.2056 
2 *586:10 *1045:A1 45.5792 
3 *586:10 *788:A1 42.1208 
*END

*D_NET *587 0.00205243
*CONN
*I *1047:B I *D sg13g2_nand2_1
*I *1158:D I *D sg13g2_dfrbpq_1
*I *987:Y O *D sg13g2_a21oi_1
*CAP
1 *1047:B 0.000377514
2 *1158:D 0
3 *987:Y 0.000157813
4 *587:12 0.000624323
5 *587:8 0.000404622
6 *587:8 *591:24 0.000232505
7 *981:A *587:12 0.000111969
8 *989:A2 *587:8 0
9 *1006:A *1047:B 0
10 *1006:A *587:12 0
11 *1007:A2 *587:12 0
12 *1048:S *1047:B 1.54556e-05
13 *1159:RESET_B *1047:B 0
14 *1159:RESET_B *587:12 0
15 *157:70 *1047:B 0
16 *203:6 *587:12 1.54008e-05
17 *203:21 *587:8 0
18 *206:22 *1047:B 0.000112826
19 *222:33 *1047:B 0
*RES
1 *987:Y *587:8 41.5664 
2 *587:8 *587:12 21.936 
3 *587:12 *1158:D 20 
4 *587:12 *1047:B 23.7752 
*END

*D_NET *588 0.00152443
*CONN
*I *1159:D I *D sg13g2_dfrbpq_1
*I *1008:Y O *D sg13g2_nor2_1
*CAP
1 *1159:D 0.000104073
2 *1008:Y 0.000218944
3 *588:16 0.000279746
4 *588:10 0.000394617
5 *983:B *1159:D 1.54008e-05
6 *1006:A *588:10 0.000126354
7 *1008:A *588:10 0
8 *1159:RESET_B *1159:D 0
9 *203:6 *1159:D 0.000177477
10 *205:18 *588:10 0.00012816
11 *222:18 *588:10 7.96596e-05
*RES
1 *1008:Y *588:10 42.024 
2 *588:10 *588:16 41.7512 
3 *588:16 *1159:D 41.012 
*END

*D_NET *589 0.00148803
*CONN
*I *1160:D I *D sg13g2_dfrbpq_1
*I *990:Y O *D sg13g2_a21oi_1
*CAP
1 *1160:D 0
2 *990:Y 0.000622945
3 *589:10 0.000622945
4 *589:10 *590:8 0
5 *589:10 *689:8 0
6 *589:10 *689:35 0
7 *990:A1 *589:10 0.000242138
8 *207:27 *589:10 0
*RES
1 *990:Y *589:10 46.3272 
2 *589:10 *1160:D 40 
*END

*D_NET *590 0.00102333
*CONN
*I *1161:D I *D sg13g2_dfrbpq_1
*I *1028:Y O *D sg13g2_a21oi_1
*CAP
1 *1161:D 0.000160989
2 *1028:Y 0.000350675
3 *590:8 0.000511664
4 *1161:RESET_B *1161:D 0
5 *207:27 *590:8 0
6 *589:10 *590:8 0
*RES
1 *1028:Y *590:8 43.6784 
2 *590:8 *1161:D 41.5664 
*END

*D_NET *591 0.00278822
*CONN
*I *979:A I *D sg13g2_inv_1
*I *987:A2 I *D sg13g2_a21oi_1
*I *1158:Q O *D sg13g2_dfrbpq_1
*CAP
1 *979:A 0
2 *987:A2 0
3 *1158:Q 0.000385221
4 *591:24 0.000286544
5 *591:12 0.000412037
6 *591:8 0.000510715
7 *591:8 *1362:A 0.000344779
8 *591:12 *1159:CLK 0
9 *591:24 *1159:CLK 0
10 *987:A1 *591:24 1.54008e-05
11 *989:A2 *591:24 0
12 *1006:B *591:24 0
13 *1007:A2 *591:24 4.77425e-05
14 *1159:RESET_B *591:12 0.000193599
15 *1159:RESET_B *591:24 8.0216e-05
16 *200:10 *591:12 4.73078e-05
17 *201:8 *591:8 0
18 *201:8 *591:24 0
19 *202:10 *591:24 0.000232155
20 *222:18 *591:24 0
21 *587:8 *591:24 0.000232505
*RES
1 *1158:Q *591:8 44.312 
2 *591:8 *591:12 21.1968 
3 *591:12 *591:24 42.992 
4 *591:24 *987:A2 20 
5 *591:12 *979:A 20 
*END

*D_NET *592 0.000372009
*CONN
*I *980:A I *D sg13g2_inv_1
*I *1159:Q O *D sg13g2_dfrbpq_1
*CAP
1 *980:A 0.000186005
2 *1159:Q 0.000186005
*RES
1 *1159:Q *980:A 41.98 
*END

*D_NET *593 0.00275149
*CONN
*I *989:A1 I *D sg13g2_o21ai_1
*I *978:A I *D sg13g2_inv_1
*I *1160:Q O *D sg13g2_dfrbpq_1
*CAP
1 *989:A1 9.60129e-05
2 *978:A 0.00036891
3 *1160:Q 0
4 *593:16 0.000725241
5 *593:6 0.000452343
6 *978:A *988:A 0
7 *978:A *594:6 0
8 *978:A *594:14 0
9 *593:16 *1161:CLK 0
10 *989:A2 *989:A1 8.02269e-05
11 *990:A1 *593:16 0.000193973
12 *1028:A2 *593:16 0.000261692
13 *204:25 *593:16 0.000112426
14 *205:18 *978:A 0.000274375
15 *207:27 *593:16 0
16 *208:8 *593:16 0.000106064
17 *208:23 *989:A1 8.02269e-05
*RES
1 *1160:Q *593:6 40 
2 *593:6 *593:16 43.6168 
3 *593:16 *978:A 42.86 
4 *593:6 *989:A1 40.968 
*END

*D_NET *594 0.00174839
*CONN
*I *988:A I *D sg13g2_inv_1
*I *1007:B1 I *D sg13g2_a22oi_1
*I *984:B I *D sg13g2_nand2_1
*I *1161:Q O *D sg13g2_dfrbpq_1
*CAP
1 *988:A 0.00016244
2 *1007:B1 0
3 *984:B 0
4 *1161:Q 0
5 *594:27 0.000184514
6 *594:14 0.000265589
7 *594:6 0.00056181
8 *594:4 0.000274148
9 *978:A *988:A 0
10 *978:A *594:6 0
11 *978:A *594:14 0
12 *989:A2 *988:A 1.54556e-05
13 *199:8 *594:14 0.000129078
14 *199:8 *594:27 0
15 *203:21 *594:27 7.51285e-05
16 *204:25 *988:A 0
17 *204:25 *594:6 0
18 *207:14 *988:A 0
19 *208:23 *988:A 8.02269e-05
*RES
1 *1161:Q *594:4 20 
2 *594:4 *594:6 0.8272 
3 *594:6 *594:14 42.5256 
4 *594:14 *984:B 20 
5 *594:6 *594:27 41.6016 
6 *594:27 *1007:B1 20 
7 *594:4 *988:A 21.3816 
*END

*D_NET *595 0.000353269
*CONN
*I *985:B I *D sg13g2_xnor2_1
*I *1157:Q O *D sg13g2_dfrbpq_1
*CAP
1 *985:B 0.000152709
2 *1157:Q 0.000152709
3 *985:B *985:A 4.78521e-05
4 *985:B *1048:A0 0
5 *1071:D *985:B 0
6 *584:36 *985:B 0
*RES
1 *1157:Q *985:B 41.3816 
*END

*D_NET *596 0.00405024
*CONN
*I *1031:A0 I *D sg13g2_mux2_1
*I *1048:A0 I *D sg13g2_mux2_1
*I *985:A I *D sg13g2_xnor2_1
*I *1157:D I *D sg13g2_dfrbpq_1
*I *1155:Q O *D sg13g2_dfrbpq_1
*CAP
1 *1031:A0 0.000191324
2 *1048:A0 0.000202635
3 *985:A 2.73107e-05
4 *1157:D 0.000509645
5 *1155:Q 0.000336927
6 *596:32 0.00048898
7 *596:21 0.000482281
8 *596:8 0.00120652
9 *1031:A0 *598:12 6.47382e-05
10 *1031:A0 *598:22 1.54556e-05
11 *1031:A0 *659:10 8.01938e-05
12 *1031:A0 *659:12 0
13 *1048:A0 *598:22 0.000176718
14 *1157:D *659:12 0
15 *596:8 *1162:CLK 0
16 *596:21 *659:12 0
17 *596:32 *659:12 0
18 *985:B *985:A 4.78521e-05
19 *985:B *1048:A0 0
20 *1048:S *1048:A0 0
21 *1071:D *1048:A0 0
22 *1157:RESET_B *596:8 0
23 *1169:RESET_B *1157:D 0
24 *157:20 *1157:D 0
25 *157:24 *596:8 0
26 *157:51 *596:21 0
27 *157:51 *596:32 0
28 *192:10 *596:8 0
29 *206:22 *1048:A0 3.8463e-05
30 *358:50 *1031:A0 0.000181192
31 *584:8 *596:8 0
32 *584:10 *1157:D 0
33 *584:10 *596:21 0
34 *584:36 *985:A 0
35 *584:36 *1048:A0 0
36 *584:36 *596:8 0
37 *584:36 *596:21 0
*RES
1 *1155:Q *596:8 43.0448 
2 *596:8 *1157:D 43.9512 
3 *596:8 *596:21 3.0448 
4 *596:21 *985:A 40.2728 
5 *596:21 *596:32 0.9328 
6 *596:32 *1048:A0 41.7512 
7 *596:32 *1031:A0 42.0856 
*END

*D_NET *597 0.000700426
*CONN
*I *1155:D I *D sg13g2_dfrbpq_1
*I *1156:Q O *D sg13g2_dfrbpq_1
*CAP
1 *1155:D 0.000350213
2 *1156:Q 0.000350213
3 *1155:D *1163:CLK 0
4 *1155:D *1359:A 0
5 *1015:A *1155:D 0
6 *1015:B *1155:D 0
7 *1162:D *1155:D 0
8 *157:28 *1155:D 0
*RES
1 *1156:Q *1155:D 43.1856 
*END

*D_NET *598 0.00249615
*CONN
*I *1031:A1 I *D sg13g2_mux2_1
*I *1048:A1 I *D sg13g2_mux2_1
*I *1071:Q O *D sg13g2_dfrbpq_1
*CAP
1 *1031:A1 0
2 *1048:A1 0
3 *1071:Q 0.000383468
4 *598:22 0.00028042
5 *598:12 0.000466229
6 *598:8 0.000569276
7 *598:12 *1360:A 0
8 *598:12 *659:10 0
9 *598:22 *1360:A 0
10 *598:22 *659:10 0
11 *1031:A0 *598:12 6.47382e-05
12 *1031:A0 *598:22 1.54556e-05
13 *1048:A0 *598:22 0.000176718
14 *1071:D *598:22 0.000176531
15 *157:51 *598:22 0.000181192
16 *157:70 *598:22 0.000182121
17 *272:14 *598:8 0
*RES
1 *1071:Q *598:8 43.6784 
2 *598:8 *598:12 21.3816 
3 *598:12 *598:22 42.8248 
4 *598:22 *1048:A1 20 
5 *598:12 *1031:A1 20 
*END

*D_NET *603 0.011865
*CONN
*I *1189:A I *D sg13g2_buf_1
*I *1183:RESET_B I *D sg13g2_dfrbpq_1
*I *1184:RESET_B I *D sg13g2_dfrbpq_1
*I *1186:RESET_B I *D sg13g2_dfrbpq_1
*I *1185:RESET_B I *D sg13g2_dfrbpq_1
*I *1151:Q O *D sg13g2_dfrbpq_1
*CAP
1 *1189:A 0.000497015
2 *1183:RESET_B 0.000156618
3 *1184:RESET_B 0
4 *1186:RESET_B 0.000515389
5 *1185:RESET_B 5.40857e-05
6 *1151:Q 0.000264971
7 *603:53 0.00119967
8 *603:44 0.000201224
9 *603:38 0.000821527
10 *603:14 0.00170275
11 *603:10 0.00120754
12 *603:8 0.000264971
13 *1183:RESET_B *708:8 4.77425e-05
14 *1183:RESET_B *712:58 0.000448012
15 *1189:A *680:87 0
16 *1189:A *712:58 7.52158e-05
17 *603:14 *1136:CLK 0
18 *603:14 *1137:RESET_B 0
19 *603:44 *711:28 0
20 *804:A *603:14 0
21 *804:A *603:38 0
22 *804:A *603:53 0
23 *1137:D *603:14 8.03256e-05
24 *1378:A *603:14 0
25 *1378:A *603:38 0
26 *1378:A *603:53 0
27 *6:10 *603:8 0
28 *9:10 *1186:RESET_B 0.000128247
29 *79:8 *1186:RESET_B 0
30 *87:8 *1189:A 0
31 *88:8 *1189:A 0
32 *270:16 *603:8 0.000820153
33 *270:16 *603:44 0.000501962
34 *270:29 *603:44 0.000236057
35 *271:25 *1185:RESET_B 0.000181781
36 *271:25 *1186:RESET_B 0.000746096
37 *272:18 *1186:RESET_B 0
38 *280:16 *1183:RESET_B 0
39 *280:16 *1189:A 0
40 *283:14 *603:14 0
41 *283:14 *603:53 0
42 *349:29 *1186:RESET_B 0.000274452
43 *352:16 *603:14 0.00111698
44 *353:24 *603:14 0
45 *353:43 *603:14 0
46 *366:18 *1186:RESET_B 0.000274452
47 *409:6 *1183:RESET_B 4.77425e-05
*RES
1 *1151:Q *603:8 43.256 
2 *603:8 *603:10 20 
3 *603:10 *603:14 29.6976 
4 *603:14 *1185:RESET_B 40.7216 
5 *603:14 *1186:RESET_B 46.3008 
6 *603:10 *603:38 0.7568 
7 *603:38 *603:44 42.8336 
8 *603:44 *1184:RESET_B 20 
9 *603:38 *603:53 25.0776 
10 *603:53 *1183:RESET_B 42.0504 
11 *603:53 *1189:A 45.1568 
*END

*D_NET *650 0.00248916
*CONN
*I *961:A2 I *D sg13g2_a21o_1
*I *1147:Q O *D sg13g2_dfrbpq_1
*CAP
1 *961:A2 0.000126241
2 *1147:Q 0.000401458
3 *650:12 0.000527699
4 *961:A2 *961:A1 8.00842e-05
5 *650:12 *685:49 4.77299e-05
6 *798:B_N *650:12 0.00109515
7 *954:B *961:A2 0
8 *189:10 *650:12 0
9 *364:27 *961:A2 0.000210807
*RES
1 *1147:Q *650:12 44.884 
2 *650:12 *961:A2 41.2056 
*END

*D_NET *651 0.00157333
*CONN
*I *955:A2 I *D sg13g2_a21o_1
*I *1148:Q O *D sg13g2_dfrbpq_1
*CAP
1 *955:A2 0.000388878
2 *1148:Q 0.000106225
3 *651:8 0.000495103
4 *955:A2 *670:16 2.51854e-05
5 *955:A2 *714:10 0.000221379
6 *651:8 *677:36 0
7 *651:8 *714:10 0.000288704
8 *949:A2 *955:A2 0
9 *956:B2 *955:A2 4.78524e-05
*RES
1 *1148:Q *651:8 41.144 
2 *651:8 *955:A2 43.5024 
*END

*D_NET *652 0.00120803
*CONN
*I *950:A1 I *D sg13g2_a22oi_1
*I *1149:Q O *D sg13g2_dfrbpq_1
*CAP
1 *950:A1 0.000185282
2 *1149:Q 0.000362556
3 *652:8 0.000547837
4 *950:A1 *664:18 0
5 *652:8 *685:10 0
6 *652:8 *714:26 0
7 *947:A *652:8 0
8 *950:B1 *950:A1 0
9 *116:18 *950:A1 0.00011236
10 *116:22 *950:A1 0
*RES
1 *1149:Q *652:8 42.6224 
2 *652:8 *950:A1 41.496 
*END

*D_NET *653 0.00103091
*CONN
*I *944:A1 I *D sg13g2_a22oi_1
*I *1150:Q O *D sg13g2_dfrbpq_1
*CAP
1 *944:A1 0
2 *1150:Q 0.000515455
3 *653:12 0.000515455
4 *653:12 *664:10 0
5 *653:12 *664:18 0
6 *1033:A2 *653:12 0
7 *398:22 *653:12 0
*RES
1 *1150:Q *653:12 44.224 
2 *653:12 *944:A1 40 
*END

*D_NET *654 0.000157736
*CONN
*I *1144:D I *D sg13g2_dfrbpq_1
*I *1145:Q O *D sg13g2_dfrbpq_1
*CAP
1 *1144:D 7.8868e-05
2 *1145:Q 7.8868e-05
3 *1144:D *709:8 0
4 *1144:RESET_B *1144:D 0
5 *1187:D *1144:D 0
*RES
1 *1145:Q *1144:D 40.7832 
*END
