*SPEF "ieee 1481-1999"
*DESIGN "gpio"
*DATE "23:46:57 Tuesday September 15, 2026"
*VENDOR "The OpenROAD Project"
*PROGRAM "OpenROAD"
*VERSION "26Q3-1305-gf552262465"
*DESIGN_FLOW "NAME_SCOPE LOCAL" "PIN_CAP NONE"
*DIVIDER /
*DELIMITER :
*BUS_DELIMITER []
*T_UNIT 1 NS
*C_UNIT 1 PF
*R_UNIT 1 OHM
*L_UNIT 1 HENRY

*NAME_MAP
*1 _000_
*2 _001_
*3 _002_
*4 _003_
*5 _004_
*6 _005_
*7 _006_
*8 _007_
*9 _008_
*10 _009_
*11 _010_
*12 _011_
*13 _012_
*14 _013_
*15 _014_
*16 _015_
*17 _016_
*18 _017_
*19 _018_
*20 _019_
*21 _020_
*22 _021_
*23 _022_
*24 _023_
*25 _024_
*26 _025_
*27 _026_
*28 _027_
*29 _028_
*30 _029_
*31 _030_
*32 _031_
*33 _032_
*34 _033_
*35 _034_
*36 _035_
*37 _036_
*38 _037_
*39 _038_
*40 _039_
*41 _040_
*42 _041_
*43 _042_
*44 _043_
*45 _044_
*46 _045_
*47 _046_
*48 _047_
*49 _048_
*50 _049_
*51 _050_
*52 _051_
*53 _052_
*54 _053_
*55 _054_
*56 _055_
*57 _056_
*58 _057_
*59 _058_
*60 _059_
*61 _060_
*62 _061_
*63 _062_
*64 _063_
*65 _064_
*66 _065_
*67 _066_
*68 _067_
*69 _068_
*70 _069_
*71 _070_
*72 _071_
*73 _072_
*74 _073_
*75 _074_
*76 _075_
*77 _076_
*78 _077_
*79 _078_
*80 _079_
*81 _080_
*82 _081_
*83 _082_
*84 _083_
*85 _084_
*86 _085_
*87 _086_
*88 _087_
*89 _088_
*90 _089_
*91 _090_
*92 _091_
*93 _092_
*94 _093_
*95 _094_
*96 _095_
*97 _096_
*98 _097_
*99 _098_
*100 _099_
*101 _100_
*102 _101_
*103 _102_
*104 _103_
*105 _104_
*106 _105_
*107 _106_
*108 _107_
*109 _108_
*110 _109_
*111 _110_
*112 _111_
*113 _112_
*114 _113_
*115 _114_
*116 _115_
*117 _116_
*118 _117_
*120 _119_
*121 _120_
*122 _121_
*123 _122_
*124 _123_
*125 _124_
*126 _125_
*127 _126_
*128 _127_
*129 _128_
*130 _129_
*131 _130_
*132 _131_
*133 _132_
*134 _133_
*135 _134_
*136 _135_
*137 _136_
*139 _138_
*140 _139_
*141 _140_
*142 _141_
*143 _142_
*144 _143_
*145 _144_
*146 _145_
*147 _146_
*148 _147_
*149 _148_
*150 _149_
*151 _150_
*152 _151_
*153 _152_
*154 _153_
*155 _154_
*156 _155_
*157 _156_
*158 _157_
*159 _158_
*160 _159_
*161 _160_
*162 _161_
*163 _162_
*164 _163_
*165 _164_
*166 _165_
*167 _166_
*168 _167_
*169 _168_
*170 _169_
*171 _170_
*172 _171_
*173 _172_
*174 _173_
*175 _174_
*176 _175_
*177 _176_
*178 _177_
*179 _178_
*180 _179_
*181 _180_
*182 _181_
*183 _182_
*184 _183_
*185 _184_
*186 _185_
*187 _186_
*188 _187_
*189 _188_
*190 _189_
*191 _190_
*192 _191_
*193 _192_
*194 _193_
*195 _194_
*196 _195_
*197 _196_
*198 _197_
*199 _198_
*200 _199_
*201 _200_
*202 _201_
*203 _202_
*204 _203_
*205 _204_
*206 _205_
*207 _206_
*208 _207_
*209 _208_
*210 _209_
*211 _210_
*212 _211_
*213 _212_
*214 _213_
*215 _214_
*216 _215_
*217 _216_
*218 _217_
*219 _218_
*220 _219_
*221 _220_
*222 _221_
*223 _222_
*224 _223_
*225 _224_
*226 _225_
*227 _226_
*228 _227_
*229 _228_
*230 _229_
*231 _230_
*232 _231_
*233 _232_
*234 _233_
*235 _234_
*236 _235_
*237 _236_
*238 _237_
*239 _238_
*240 _239_
*241 _240_
*242 _241_
*243 _242_
*244 _243_
*245 _244_
*246 _245_
*247 _246_
*248 _247_
*249 _248_
*250 _249_
*251 _250_
*252 _251_
*253 _252_
*254 _253_
*255 _254_
*256 _255_
*257 _256_
*258 _257_
*259 _258_
*260 _259_
*261 _260_
*262 _261_
*263 _262_
*264 _263_
*265 _264_
*266 _265_
*267 _266_
*268 _267_
*269 _268_
*270 _269_
*271 _270_
*272 _271_
*273 _272_
*274 _273_
*275 _274_
*276 _275_
*277 _276_
*278 _277_
*279 _278_
*280 _279_
*281 _280_
*282 _281_
*283 _282_
*284 _283_
*285 _284_
*286 _285_
*287 _286_
*288 _287_
*289 _288_
*290 _289_
*291 _290_
*292 _291_
*293 _292_
*294 _293_
*295 _294_
*296 _295_
*297 _296_
*298 _297_
*299 _298_
*300 _299_
*301 _300_
*656 cio_gpio_en_o[0]
*655 cio_gpio_en_o[1]
*654 cio_gpio_en_o[2]
*653 cio_gpio_en_o[3]
*363 cio_gpio_i[0]
*362 cio_gpio_i[1]
*361 cio_gpio_i[2]
*360 cio_gpio_i[3]
*652 cio_gpio_o[0]
*651 cio_gpio_o[1]
*650 cio_gpio_o[2]
*649 cio_gpio_o[3]
*314 clk_i
*691 clknet_0_clk_i
*694 clknet_4_0_0_clk_i
*704 clknet_4_10_0_clk_i
*705 clknet_4_11_0_clk_i
*706 clknet_4_12_0_clk_i
*707 clknet_4_13_0_clk_i
*708 clknet_4_14_0_clk_i
*709 clknet_4_15_0_clk_i
*695 clknet_4_1_0_clk_i
*696 clknet_4_2_0_clk_i
*697 clknet_4_3_0_clk_i
*698 clknet_4_4_0_clk_i
*699 clknet_4_5_0_clk_i
*700 clknet_4_6_0_clk_i
*701 clknet_4_7_0_clk_i
*702 clknet_4_8_0_clk_i
*703 clknet_4_9_0_clk_i
*315 core_rst_ni
*317 hw2reg_10_
*318 hw2reg_11_
*319 hw2reg_12_
*327 hw2reg_9_
*648 intr_gpio_o[0]
*647 intr_gpio_o[1]
*646 intr_gpio_o[2]
*645 intr_gpio_o[3]
*492 net100
*493 net101
*494 net102
*495 net103
*496 net104
*497 net105
*498 net106
*499 net107
*302 net108
*303 net109
*304 net110
*305 net111
*310 net112
*311 net113
*312 net114
*313 net115
*328 net116
*329 net117
*330 net118
*331 net119
*501 net120
*508 net121
*509 net122
*510 net123
*511 net124
*512 net125
*513 net126
*514 net127
*515 net128
*516 net129
*517 net130
*518 net131
*519 net132
*520 net133
*521 net134
*522 net135
*524 net136
*525 net137
*526 net138
*527 net139
*528 net140
*529 net141
*530 net142
*531 net143
*532 net144
*533 net145
*535 net146
*536 net147
*537 net148
*538 net149
*539 net150
*540 net151
*541 net152
*542 net153
*544 net154
*546 net155
*547 net156
*548 net157
*549 net158
*550 net159
*551 net160
*552 net161
*553 net162
*554 net163
*559 net164
*562 net165
*690 net168
*692 net169
*693 net170
*710 net171
*711 net172
*712 net173
*713 net174
*714 net175
*715 net176
*716 net177
*717 net178
*718 net179
*719 net180
*720 net181
*721 net182
*722 net183
*723 net184
*724 net185
*725 net186
*726 net187
*727 net188
*728 net189
*729 net190
*730 net191
*731 net192
*732 net193
*733 net194
*734 net195
*735 net196
*736 net197
*737 net198
*738 net199
*739 net200
*740 net201
*741 net202
*742 net203
*743 net204
*744 net205
*745 net206
*343 net57
*345 net58
*346 net59
*347 net60
*306 net61
*307 net62
*308 net63
*309 net64
*391 net65
*392 net66
*393 net67
*394 net68
*398 net69
*399 net70
*400 net71
*401 net72
*417 net73
*418 net74
*419 net75
*420 net76
*421 net77
*422 net78
*424 net79
*425 net80
*426 net81
*427 net82
*428 net83
*429 net84
*430 net85
*431 net86
*432 net87
*433 net88
*435 net89
*436 net90
*437 net91
*438 net92
*452 net93
*453 net94
*454 net95
*457 net96
*458 net97
*459 net98
*460 net99
*370 reg2hw_0_
*371 reg2hw_10_
*372 reg2hw_11_
*373 reg2hw_12_
*374 reg2hw_13_
*375 reg2hw_14_
*376 reg2hw_15_
*377 reg2hw_16_
*378 reg2hw_17_
*379 reg2hw_18_
*380 reg2hw_19_
*381 reg2hw_1_
*382 reg2hw_2_
*383 reg2hw_3_
*384 reg2hw_4_
*385 reg2hw_5_
*386 reg2hw_6_
*387 reg2hw_7_
*388 reg2hw_8_
*389 reg2hw_9_
*390 reg_rst_ni
*359 rst_ni
*358 tl_i[0]
*357 tl_i[100]
*356 tl_i[101]
*395 tl_i[102]
*396 tl_i[103]
*397 tl_i[104]
*354 tl_i[105]
*353 tl_i[106]
*352 tl_i[107]
*351 tl_i[108]
*402 tl_i[10]
*403 tl_i[11]
*404 tl_i[12]
*405 tl_i[13]
*406 tl_i[14]
*407 tl_i[15]
*408 tl_i[16]
*409 tl_i[17]
*410 tl_i[18]
*411 tl_i[19]
*412 tl_i[1]
*413 tl_i[20]
*414 tl_i[21]
*415 tl_i[22]
*416 tl_i[23]
*350 tl_i[24]
*349 tl_i[25]
*326 tl_i[26]
*325 tl_i[27]
*324 tl_i[28]
*323 tl_i[29]
*423 tl_i[2]
*322 tl_i[30]
*321 tl_i[31]
*320 tl_i[32]
*316 tl_i[33]
*624 tl_i[34]
*623 tl_i[35]
*622 tl_i[36]
*621 tl_i[37]
*671 tl_i[38]
*342 tl_i[39]
*434 tl_i[3]
*341 tl_i[40]
*670 tl_i[41]
*340 tl_i[42]
*339 tl_i[43]
*439 tl_i[44]
*440 tl_i[45]
*441 tl_i[46]
*442 tl_i[47]
*443 tl_i[48]
*444 tl_i[49]
*445 tl_i[4]
*446 tl_i[50]
*447 tl_i[51]
*448 tl_i[52]
*449 tl_i[53]
*450 tl_i[54]
*451 tl_i[55]
*338 tl_i[56]
*669 tl_i[57]
*668 tl_i[58]
*455 tl_i[59]
*456 tl_i[5]
*667 tl_i[60]
*666 tl_i[61]
*665 tl_i[62]
*664 tl_i[63]
*461 tl_i[64]
*462 tl_i[65]
*463 tl_i[66]
*464 tl_i[67]
*465 tl_i[68]
*466 tl_i[69]
*467 tl_i[6]
*468 tl_i[70]
*469 tl_i[71]
*470 tl_i[72]
*471 tl_i[73]
*472 tl_i[74]
*473 tl_i[75]
*474 tl_i[76]
*475 tl_i[77]
*476 tl_i[78]
*477 tl_i[79]
*478 tl_i[7]
*479 tl_i[80]
*480 tl_i[81]
*481 tl_i[82]
*482 tl_i[83]
*483 tl_i[84]
*484 tl_i[85]
*485 tl_i[86]
*486 tl_i[87]
*487 tl_i[88]
*488 tl_i[89]
*489 tl_i[8]
*490 tl_i[90]
*491 tl_i[91]
*663 tl_i[92]
*662 tl_i[93]
*661 tl_i[94]
*660 tl_i[95]
*337 tl_i[96]
*659 tl_i[97]
*658 tl_i[98]
*657 tl_i[99]
*500 tl_i[9]
*644 tl_o[0]
*502 tl_o[10]
*503 tl_o[11]
*504 tl_o[12]
*505 tl_o[13]
*506 tl_o[14]
*507 tl_o[15]
*643 tl_o[16]
*642 tl_o[17]
*641 tl_o[18]
*640 tl_o[19]
*639 tl_o[1]
*638 tl_o[20]
*637 tl_o[21]
*636 tl_o[22]
*635 tl_o[23]
*634 tl_o[24]
*633 tl_o[25]
*632 tl_o[26]
*630 tl_o[27]
*629 tl_o[28]
*628 tl_o[29]
*523 tl_o[2]
*627 tl_o[30]
*336 tl_o[31]
*335 tl_o[32]
*334 tl_o[33]
*369 tl_o[34]
*368 tl_o[35]
*367 tl_o[36]
*366 tl_o[37]
*365 tl_o[38]
*364 tl_o[39]
*534 tl_o[3]
*355 tl_o[40]
*344 tl_o[41]
*333 tl_o[42]
*332 tl_o[43]
*677 tl_o[44]
*631 tl_o[45]
*626 tl_o[46]
*138 tl_o[47]
*543 tl_o[48]
*119 tl_o[49]
*545 tl_o[4]
*679 tl_o[50]
*680 tl_o[51]
*681 tl_o[52]
*682 tl_o[53]
*683 tl_o[54]
*684 tl_o[55]
*685 tl_o[56]
*686 tl_o[57]
*687 tl_o[58]
*555 tl_o[59]
*556 tl_o[5]
*557 tl_o[60]
*558 tl_o[61]
*688 tl_o[62]
*560 tl_o[63]
*561 tl_o[64]
*689 tl_o[65]
*563 tl_o[6]
*564 tl_o[7]
*565 tl_o[8]
*566 tl_o[9]
*567 u_core_reset_sync_intq
*568 u_gpio_core_data_in_q_0_
*569 u_gpio_core_data_in_q_1_
*570 u_gpio_core_data_in_q_2_
*571 u_gpio_core_data_in_q_3_
*572 u_gpio_core_filter_rst_ni
*573 u_gpio_core_gen_input_filter_0__u_filter_diff_ctr_d_0_
*574 u_gpio_core_gen_input_filter_0__u_filter_diff_ctr_d_1_
*575 u_gpio_core_gen_input_filter_0__u_filter_diff_ctr_d_2_
*576 u_gpio_core_gen_input_filter_0__u_filter_diff_ctr_d_3_
*577 u_gpio_core_gen_input_filter_0__u_filter_diff_ctr_q_0_
*578 u_gpio_core_gen_input_filter_0__u_filter_diff_ctr_q_1_
*579 u_gpio_core_gen_input_filter_0__u_filter_diff_ctr_q_2_
*580 u_gpio_core_gen_input_filter_0__u_filter_diff_ctr_q_3_
*581 u_gpio_core_gen_input_filter_0__u_filter_filter_q
*582 u_gpio_core_gen_input_filter_0__u_filter_filter_synced
*583 u_gpio_core_gen_input_filter_0__u_filter_gen_async_prim_flop_2sync_intq
*584 u_gpio_core_gen_input_filter_0__u_filter_stored_value_q
*585 u_gpio_core_gen_input_filter_1__u_filter_diff_ctr_d_0_
*586 u_gpio_core_gen_input_filter_1__u_filter_diff_ctr_d_1_
*587 u_gpio_core_gen_input_filter_1__u_filter_diff_ctr_d_2_
*588 u_gpio_core_gen_input_filter_1__u_filter_diff_ctr_d_3_
*589 u_gpio_core_gen_input_filter_1__u_filter_diff_ctr_q_0_
*590 u_gpio_core_gen_input_filter_1__u_filter_diff_ctr_q_1_
*591 u_gpio_core_gen_input_filter_1__u_filter_diff_ctr_q_2_
*592 u_gpio_core_gen_input_filter_1__u_filter_diff_ctr_q_3_
*593 u_gpio_core_gen_input_filter_1__u_filter_filter_q
*594 u_gpio_core_gen_input_filter_1__u_filter_filter_synced
*595 u_gpio_core_gen_input_filter_1__u_filter_gen_async_prim_flop_2sync_intq
*596 u_gpio_core_gen_input_filter_1__u_filter_stored_value_q
*597 u_gpio_core_gen_input_filter_2__u_filter_diff_ctr_d_0_
*598 u_gpio_core_gen_input_filter_2__u_filter_diff_ctr_d_1_
*599 u_gpio_core_gen_input_filter_2__u_filter_diff_ctr_d_2_
*600 u_gpio_core_gen_input_filter_2__u_filter_diff_ctr_d_3_
*601 u_gpio_core_gen_input_filter_2__u_filter_diff_ctr_q_0_
*602 u_gpio_core_gen_input_filter_2__u_filter_diff_ctr_q_1_
*603 u_gpio_core_gen_input_filter_2__u_filter_diff_ctr_q_2_
*604 u_gpio_core_gen_input_filter_2__u_filter_diff_ctr_q_3_
*605 u_gpio_core_gen_input_filter_2__u_filter_filter_q
*606 u_gpio_core_gen_input_filter_2__u_filter_filter_synced
*607 u_gpio_core_gen_input_filter_2__u_filter_gen_async_prim_flop_2sync_intq
*608 u_gpio_core_gen_input_filter_2__u_filter_stored_value_q
*609 u_gpio_core_gen_input_filter_3__u_filter_diff_ctr_d_0_
*610 u_gpio_core_gen_input_filter_3__u_filter_diff_ctr_d_1_
*611 u_gpio_core_gen_input_filter_3__u_filter_diff_ctr_d_2_
*612 u_gpio_core_gen_input_filter_3__u_filter_diff_ctr_d_3_
*613 u_gpio_core_gen_input_filter_3__u_filter_diff_ctr_q_0_
*614 u_gpio_core_gen_input_filter_3__u_filter_diff_ctr_q_1_
*615 u_gpio_core_gen_input_filter_3__u_filter_diff_ctr_q_2_
*616 u_gpio_core_gen_input_filter_3__u_filter_diff_ctr_q_3_
*617 u_gpio_core_gen_input_filter_3__u_filter_filter_q
*618 u_gpio_core_gen_input_filter_3__u_filter_filter_synced
*619 u_gpio_core_gen_input_filter_3__u_filter_gen_async_prim_flop_2sync_intq
*620 u_gpio_core_gen_input_filter_3__u_filter_stored_value_q
*625 u_gpio_core_state_rst_ni
*672 u_gpio_reg_u_reg_core_data_in_qs_0_
*673 u_gpio_reg_u_reg_core_data_in_qs_1_
*674 u_gpio_reg_u_reg_core_data_in_qs_2_
*675 u_gpio_reg_u_reg_core_data_in_qs_3_
*676 u_reg_reset_sync_intq
*1524 FILLER_0_0
*1526 FILLER_0_10
*1533 FILLER_0_107
*1534 FILLER_0_111
*1535 FILLER_0_121
*1527 FILLER_0_14
*1536 FILLER_0_147
*1537 FILLER_0_149
*1538 FILLER_0_175
*1539 FILLER_0_179
*1540 FILLER_0_181
*1541 FILLER_0_183
*1542 FILLER_0_190
*1543 FILLER_0_198
*1544 FILLER_0_206
*1545 FILLER_0_211
*1546 FILLER_0_219
*1528 FILLER_0_22
*1529 FILLER_0_31
*1530 FILLER_0_39
*1525 FILLER_0_8
*1531 FILLER_0_91
*1532 FILLER_0_99
*1760 FILLER_10_111
*1761 FILLER_10_135
*1762 FILLER_10_144
*1763 FILLER_10_148
*1764 FILLER_10_151
*1765 FILLER_10_209
*1766 FILLER_10_219
*1756 FILLER_10_29
*1757 FILLER_10_31
*1758 FILLER_10_58
*1759 FILLER_10_64
*1755 FILLER_10_8
*1767 FILLER_11_0
*1778 FILLER_11_108
*1779 FILLER_11_116
*1780 FILLER_11_121
*1781 FILLER_11_127
*1782 FILLER_11_129
*1783 FILLER_11_155
*1769 FILLER_11_17
*1784 FILLER_11_177
*1785 FILLER_11_179
*1786 FILLER_11_181
*1787 FILLER_11_217
*1788 FILLER_11_221
*1770 FILLER_11_45
*1771 FILLER_11_49
*1772 FILLER_11_53
*1773 FILLER_11_57
*1774 FILLER_11_59
*1775 FILLER_11_81
*1776 FILLER_11_85
*1777 FILLER_11_87
*1768 FILLER_11_9
*1796 FILLER_12_109
*1797 FILLER_12_151
*1798 FILLER_12_170
*1799 FILLER_12_191
*1800 FILLER_12_199
*1790 FILLER_12_20
*1801 FILLER_12_203
*1802 FILLER_12_208
*1803 FILLER_12_219
*1791 FILLER_12_22
*1792 FILLER_12_31
*1793 FILLER_12_76
*1789 FILLER_12_8
*1794 FILLER_12_84
*1795 FILLER_12_86
*1815 FILLER_13_105
*1816 FILLER_13_110
*1817 FILLER_13_118
*1818 FILLER_13_149
*1819 FILLER_13_157
*1805 FILLER_13_16
*1820 FILLER_13_161
*1821 FILLER_13_163
*1822 FILLER_13_168
*1823 FILLER_13_173
*1824 FILLER_13_179
*1825 FILLER_13_192
*1826 FILLER_13_202
*1827 FILLER_13_206
*1828 FILLER_13_208
*1829 FILLER_13_217
*1830 FILLER_13_221
*1806 FILLER_13_24
*1807 FILLER_13_28
*1808 FILLER_13_30
*1809 FILLER_13_51
*1810 FILLER_13_59
*1811 FILLER_13_61
*1812 FILLER_13_63
*1813 FILLER_13_67
*1814 FILLER_13_71
*1804 FILLER_13_8
*1831 FILLER_14_0
*1839 FILLER_14_111
*1840 FILLER_14_115
*1833 FILLER_14_13
*1841 FILLER_14_137
*1842 FILLER_14_147
*1843 FILLER_14_149
*1844 FILLER_14_158
*1845 FILLER_14_180
*1846 FILLER_14_191
*1847 FILLER_14_199
*1848 FILLER_14_201
*1849 FILLER_14_214
*1834 FILLER_14_31
*1832 FILLER_14_4
*1835 FILLER_14_69
*1836 FILLER_14_73
*1837 FILLER_14_82
*1838 FILLER_14_99
*1850 FILLER_15_0
*1862 FILLER_15_107
*1863 FILLER_15_115
*1864 FILLER_15_119
*1865 FILLER_15_121
*1866 FILLER_15_129
*1867 FILLER_15_137
*1868 FILLER_15_143
*1869 FILLER_15_167
*1870 FILLER_15_177
*1871 FILLER_15_179
*1872 FILLER_15_181
*1873 FILLER_15_185
*1874 FILLER_15_189
*1875 FILLER_15_196
*1876 FILLER_15_201
*1877 FILLER_15_209
*1878 FILLER_15_213
*1852 FILLER_15_34
*1853 FILLER_15_36
*1851 FILLER_15_4
*1854 FILLER_15_49
*1855 FILLER_15_57
*1856 FILLER_15_59
*1857 FILLER_15_61
*1858 FILLER_15_72
*1859 FILLER_15_80
*1860 FILLER_15_84
*1861 FILLER_15_86
*1879 FILLER_16_0
*1881 FILLER_16_13
*1890 FILLER_16_136
*1891 FILLER_16_145
*1892 FILLER_16_149
*1893 FILLER_16_151
*1894 FILLER_16_177
*1895 FILLER_16_181
*1896 FILLER_16_183
*1897 FILLER_16_205
*1882 FILLER_16_21
*1898 FILLER_16_219
*1883 FILLER_16_29
*1884 FILLER_16_31
*1880 FILLER_16_4
*1885 FILLER_16_79
*1886 FILLER_16_87
*1887 FILLER_16_89
*1888 FILLER_16_91
*1889 FILLER_16_95
*1899 FILLER_17_0
*1904 FILLER_17_114
*1905 FILLER_17_118
*1906 FILLER_17_121
*1907 FILLER_17_129
*1908 FILLER_17_131
*1909 FILLER_17_135
*1910 FILLER_17_139
*1911 FILLER_17_158
*1912 FILLER_17_162
*1900 FILLER_17_17
*1913 FILLER_17_181
*1914 FILLER_17_187
*1915 FILLER_17_191
*1916 FILLER_17_218
*1917 FILLER_17_222
*1901 FILLER_17_38
*1902 FILLER_17_61
*1903 FILLER_17_69
*1918 FILLER_18_0
*1935 FILLER_18_103
*1920 FILLER_18_13
*1936 FILLER_18_134
*1937 FILLER_18_136
*1938 FILLER_18_145
*1939 FILLER_18_149
*1940 FILLER_18_151
*1941 FILLER_18_159
*1942 FILLER_18_167
*1921 FILLER_18_17
*1943 FILLER_18_180
*1944 FILLER_18_204
*1945 FILLER_18_208
*1946 FILLER_18_219
*1922 FILLER_18_29
*1923 FILLER_18_31
*1924 FILLER_18_36
*1919 FILLER_18_4
*1925 FILLER_18_40
*1926 FILLER_18_42
*1927 FILLER_18_55
*1928 FILLER_18_63
*1929 FILLER_18_71
*1930 FILLER_18_79
*1931 FILLER_18_87
*1932 FILLER_18_89
*1933 FILLER_18_91
*1934 FILLER_18_99
*1955 FILLER_19_109
*1956 FILLER_19_117
*1957 FILLER_19_119
*1958 FILLER_19_161
*1959 FILLER_19_165
*1960 FILLER_19_173
*1961 FILLER_19_177
*1962 FILLER_19_179
*1963 FILLER_19_196
*1964 FILLER_19_220
*1965 FILLER_19_222
*1947 FILLER_19_24
*1948 FILLER_19_32
*1949 FILLER_19_36
*1950 FILLER_19_61
*1951 FILLER_19_65
*1952 FILLER_19_71
*1953 FILLER_19_95
*1954 FILLER_19_97
*1561 FILLER_1_103
*1548 FILLER_1_11
*1562 FILLER_1_145
*1563 FILLER_1_177
*1564 FILLER_1_179
*1565 FILLER_1_181
*1566 FILLER_1_189
*1549 FILLER_1_19
*1567 FILLER_1_197
*1568 FILLER_1_205
*1569 FILLER_1_213
*1550 FILLER_1_27
*1547 FILLER_1_3
*1551 FILLER_1_31
*1552 FILLER_1_33
*1553 FILLER_1_45
*1554 FILLER_1_55
*1555 FILLER_1_59
*1556 FILLER_1_61
*1557 FILLER_1_65
*1558 FILLER_1_82
*1559 FILLER_1_92
*1560 FILLER_1_94
*1966 FILLER_20_0
*1975 FILLER_20_105
*1976 FILLER_20_116
*1977 FILLER_20_130
*1978 FILLER_20_138
*1979 FILLER_20_154
*1980 FILLER_20_158
*1981 FILLER_20_187
*1982 FILLER_20_191
*1983 FILLER_20_219
*1968 FILLER_20_25
*1969 FILLER_20_29
*1970 FILLER_20_31
*1971 FILLER_20_39
*1967 FILLER_20_4
*1972 FILLER_20_43
*1973 FILLER_20_64
*1974 FILLER_20_85
*1990 FILLER_21_112
*1991 FILLER_21_128
*1992 FILLER_21_136
*1993 FILLER_21_158
*1984 FILLER_21_16
*1994 FILLER_21_170
*1995 FILLER_21_178
*1996 FILLER_21_181
*1997 FILLER_21_210
*1998 FILLER_21_212
*1999 FILLER_21_221
*1985 FILLER_21_29
*1986 FILLER_21_54
*1987 FILLER_21_58
*1988 FILLER_21_81
*1989 FILLER_21_85
*2006 FILLER_22_106
*2007 FILLER_22_114
*2008 FILLER_22_116
*2009 FILLER_22_137
*2010 FILLER_22_145
*2011 FILLER_22_149
*2012 FILLER_22_151
*2013 FILLER_22_187
*2014 FILLER_22_191
*2015 FILLER_22_193
*2016 FILLER_22_219
*2001 FILLER_22_31
*2002 FILLER_22_39
*2003 FILLER_22_67
*2000 FILLER_22_8
*2004 FILLER_22_89
*2005 FILLER_22_98
*2017 FILLER_23_0
*2026 FILLER_23_104
*2019 FILLER_23_11
*2027 FILLER_23_111
*2028 FILLER_23_119
*2029 FILLER_23_121
*2030 FILLER_23_149
*2031 FILLER_23_171
*2032 FILLER_23_179
*2033 FILLER_23_181
*2034 FILLER_23_189
*2020 FILLER_23_19
*2018 FILLER_23_2
*2035 FILLER_23_222
*2021 FILLER_23_27
*2022 FILLER_23_51
*2023 FILLER_23_68
*2024 FILLER_23_73
*2025 FILLER_23_75
*2036 FILLER_24_0
*2048 FILLER_24_101
*2049 FILLER_24_109
*2050 FILLER_24_113
*2051 FILLER_24_122
*2052 FILLER_24_154
*2053 FILLER_24_158
*2038 FILLER_24_16
*2054 FILLER_24_183
*2055 FILLER_24_191
*2056 FILLER_24_209
*2057 FILLER_24_219
*2039 FILLER_24_24
*2040 FILLER_24_28
*2041 FILLER_24_31
*2042 FILLER_24_39
*2043 FILLER_24_43
*2044 FILLER_24_45
*2045 FILLER_24_53
*2046 FILLER_24_77
*2037 FILLER_24_8
*2047 FILLER_24_81
*2058 FILLER_25_0
*2065 FILLER_25_114
*2066 FILLER_25_118
*2059 FILLER_25_12
*2067 FILLER_25_121
*2068 FILLER_25_134
*2069 FILLER_25_142
*2070 FILLER_25_146
*2071 FILLER_25_167
*2072 FILLER_25_174
*2073 FILLER_25_178
*2074 FILLER_25_181
*2075 FILLER_25_185
*2076 FILLER_25_187
*2060 FILLER_25_20
*2077 FILLER_25_208
*2078 FILLER_25_212
*2079 FILLER_25_214
*2061 FILLER_25_51
*2062 FILLER_25_53
*2063 FILLER_25_68
*2064 FILLER_25_72
*2080 FILLER_26_0
*2090 FILLER_26_117
*2091 FILLER_26_121
*2092 FILLER_26_137
*2093 FILLER_26_151
*2082 FILLER_26_17
*2094 FILLER_26_191
*2095 FILLER_26_209
*2096 FILLER_26_211
*2097 FILLER_26_220
*2098 FILLER_26_222
*2083 FILLER_26_25
*2084 FILLER_26_29
*2085 FILLER_26_31
*2086 FILLER_26_39
*2087 FILLER_26_47
*2088 FILLER_26_68
*2089 FILLER_26_76
*2081 FILLER_26_9
*2099 FILLER_27_0
*2106 FILLER_27_144
*2107 FILLER_27_148
*2108 FILLER_27_150
*2109 FILLER_27_160
*2110 FILLER_27_162
*2111 FILLER_27_169
*2112 FILLER_27_177
*2113 FILLER_27_179
*2114 FILLER_27_181
*2115 FILLER_27_185
*2101 FILLER_27_25
*2102 FILLER_27_32
*2100 FILLER_27_4
*2103 FILLER_27_61
*2104 FILLER_27_67
*2105 FILLER_27_72
*2129 FILLER_28_112
*2130 FILLER_28_114
*2131 FILLER_28_118
*2132 FILLER_28_126
*2133 FILLER_28_137
*2134 FILLER_28_154
*2117 FILLER_28_16
*2135 FILLER_28_175
*2136 FILLER_28_203
*2137 FILLER_28_205
*2138 FILLER_28_209
*2139 FILLER_28_219
*2118 FILLER_28_24
*2119 FILLER_28_28
*2120 FILLER_28_31
*2121 FILLER_28_35
*2122 FILLER_28_37
*2123 FILLER_28_42
*2124 FILLER_28_50
*2125 FILLER_28_54
*2116 FILLER_28_8
*2126 FILLER_28_82
*2127 FILLER_28_86
*2128 FILLER_28_91
*2150 FILLER_29_115
*2151 FILLER_29_119
*2152 FILLER_29_121
*2153 FILLER_29_142
*2141 FILLER_29_16
*2154 FILLER_29_163
*2155 FILLER_29_171
*2156 FILLER_29_179
*2157 FILLER_29_204
*2158 FILLER_29_209
*2159 FILLER_29_213
*2142 FILLER_29_24
*2143 FILLER_29_32
*2144 FILLER_29_40
*2145 FILLER_29_48
*2146 FILLER_29_56
*2147 FILLER_29_61
*2148 FILLER_29_65
*2140 FILLER_29_8
*2149 FILLER_29_93
*1570 FILLER_2_0
*1582 FILLER_2_103
*1583 FILLER_2_125
*1584 FILLER_2_127
*1585 FILLER_2_148
*1572 FILLER_2_16
*1586 FILLER_2_179
*1587 FILLER_2_187
*1588 FILLER_2_195
*1589 FILLER_2_203
*1590 FILLER_2_207
*1591 FILLER_2_209
*1592 FILLER_2_211
*1593 FILLER_2_219
*1573 FILLER_2_24
*1574 FILLER_2_28
*1575 FILLER_2_31
*1576 FILLER_2_33
*1577 FILLER_2_77
*1571 FILLER_2_8
*1578 FILLER_2_83
*1579 FILLER_2_87
*1580 FILLER_2_89
*1581 FILLER_2_99
*2160 FILLER_30_0
*2172 FILLER_30_104
*2173 FILLER_30_114
*2174 FILLER_30_118
*2175 FILLER_30_120
*2176 FILLER_30_129
*2177 FILLER_30_143
*2178 FILLER_30_147
*2179 FILLER_30_149
*2180 FILLER_30_151
*2181 FILLER_30_159
*2162 FILLER_30_16
*2182 FILLER_30_181
*2183 FILLER_30_189
*2184 FILLER_30_193
*2185 FILLER_30_206
*2186 FILLER_30_211
*2163 FILLER_30_24
*2164 FILLER_30_28
*2165 FILLER_30_31
*2166 FILLER_30_63
*2167 FILLER_30_79
*2161 FILLER_30_8
*2168 FILLER_30_87
*2169 FILLER_30_89
*2170 FILLER_30_91
*2171 FILLER_30_95
*2187 FILLER_31_0
*2196 FILLER_31_116
*2197 FILLER_31_121
*2198 FILLER_31_143
*2199 FILLER_31_147
*2200 FILLER_31_156
*2189 FILLER_31_16
*2201 FILLER_31_179
*2202 FILLER_31_189
*2190 FILLER_31_24
*2191 FILLER_31_32
*2192 FILLER_31_61
*2193 FILLER_31_69
*2194 FILLER_31_73
*2195 FILLER_31_75
*2188 FILLER_31_8
*2203 FILLER_32_0
*2215 FILLER_32_128
*2216 FILLER_32_151
*2205 FILLER_32_16
*2217 FILLER_32_168
*2218 FILLER_32_176
*2219 FILLER_32_186
*2220 FILLER_32_211
*2206 FILLER_32_24
*2207 FILLER_32_28
*2208 FILLER_32_31
*2209 FILLER_32_55
*2210 FILLER_32_59
*2211 FILLER_32_61
*2204 FILLER_32_8
*2212 FILLER_32_88
*2213 FILLER_32_91
*2214 FILLER_32_95
*2221 FILLER_33_0
*2229 FILLER_33_100
*2230 FILLER_33_109
*2231 FILLER_33_114
*2232 FILLER_33_118
*2233 FILLER_33_121
*2234 FILLER_33_141
*2223 FILLER_33_16
*2235 FILLER_33_171
*2236 FILLER_33_173
*2237 FILLER_33_181
*2238 FILLER_33_185
*2239 FILLER_33_217
*2240 FILLER_33_221
*2224 FILLER_33_24
*2225 FILLER_33_32
*2226 FILLER_33_36
*2227 FILLER_33_61
*2222 FILLER_33_8
*2228 FILLER_33_96
*2241 FILLER_34_0
*2255 FILLER_34_105
*2256 FILLER_34_110
*2257 FILLER_34_120
*2243 FILLER_34_13
*2258 FILLER_34_149
*2259 FILLER_34_154
*2260 FILLER_34_164
*2261 FILLER_34_188
*2262 FILLER_34_193
*2263 FILLER_34_197
*2264 FILLER_34_201
*2265 FILLER_34_208
*2244 FILLER_34_21
*2266 FILLER_34_211
*2245 FILLER_34_29
*2246 FILLER_34_31
*2247 FILLER_34_39
*2248 FILLER_34_43
*2249 FILLER_34_48
*2242 FILLER_34_5
*2250 FILLER_34_73
*2251 FILLER_34_77
*2252 FILLER_34_86
*2253 FILLER_34_91
*2254 FILLER_34_95
*2267 FILLER_35_0
*2283 FILLER_35_119
*2284 FILLER_35_121
*2285 FILLER_35_123
*2269 FILLER_35_13
*2286 FILLER_35_132
*2287 FILLER_35_144
*2288 FILLER_35_157
*2289 FILLER_35_161
*2290 FILLER_35_165
*2291 FILLER_35_178
*2270 FILLER_35_21
*2271 FILLER_35_29
*2272 FILLER_35_37
*2273 FILLER_35_45
*2274 FILLER_35_49
*2268 FILLER_35_5
*2275 FILLER_35_51
*2276 FILLER_35_55
*2277 FILLER_35_59
*2278 FILLER_35_81
*2279 FILLER_35_83
*2280 FILLER_35_92
*2281 FILLER_35_96
*2282 FILLER_35_98
*2292 FILLER_36_0
*2306 FILLER_36_105
*2307 FILLER_36_109
*2308 FILLER_36_119
*2309 FILLER_36_124
*2310 FILLER_36_129
*2311 FILLER_36_159
*2294 FILLER_36_16
*2312 FILLER_36_168
*2313 FILLER_36_181
*2314 FILLER_36_189
*2315 FILLER_36_197
*2316 FILLER_36_201
*2317 FILLER_36_219
*2295 FILLER_36_24
*2296 FILLER_36_28
*2297 FILLER_36_34
*2298 FILLER_36_42
*2299 FILLER_36_50
*2300 FILLER_36_58
*2301 FILLER_36_61
*2302 FILLER_36_68
*2303 FILLER_36_72
*2293 FILLER_36_8
*2304 FILLER_36_84
*2305 FILLER_36_88
*1594 FILLER_3_0
*1606 FILLER_3_105
*1607 FILLER_3_113
*1608 FILLER_3_117
*1609 FILLER_3_119
*1610 FILLER_3_147
*1611 FILLER_3_151
*1596 FILLER_3_16
*1612 FILLER_3_160
*1613 FILLER_3_168
*1614 FILLER_3_178
*1615 FILLER_3_181
*1616 FILLER_3_203
*1617 FILLER_3_211
*1618 FILLER_3_219
*1597 FILLER_3_24
*1598 FILLER_3_32
*1599 FILLER_3_40
*1600 FILLER_3_48
*1601 FILLER_3_56
*1602 FILLER_3_61
*1603 FILLER_3_65
*1604 FILLER_3_67
*1595 FILLER_3_8
*1605 FILLER_3_97
*1619 FILLER_4_0
*1630 FILLER_4_127
*1631 FILLER_4_133
*1632 FILLER_4_146
*1633 FILLER_4_151
*1634 FILLER_4_155
*1621 FILLER_4_16
*1635 FILLER_4_171
*1636 FILLER_4_179
*1637 FILLER_4_187
*1638 FILLER_4_189
*1639 FILLER_4_219
*1622 FILLER_4_24
*1623 FILLER_4_28
*1624 FILLER_4_31
*1625 FILLER_4_72
*1626 FILLER_4_76
*1620 FILLER_4_8
*1627 FILLER_4_86
*1628 FILLER_4_91
*1629 FILLER_4_96
*1640 FILLER_5_0
*1650 FILLER_5_112
*1651 FILLER_5_125
*1652 FILLER_5_129
*1653 FILLER_5_142
*1654 FILLER_5_150
*1642 FILLER_5_16
*1655 FILLER_5_171
*1656 FILLER_5_179
*1657 FILLER_5_181
*1658 FILLER_5_185
*1659 FILLER_5_206
*1660 FILLER_5_214
*1661 FILLER_5_218
*1643 FILLER_5_24
*1644 FILLER_5_49
*1645 FILLER_5_51
*1646 FILLER_5_59
*1647 FILLER_5_61
*1648 FILLER_5_65
*1649 FILLER_5_67
*1641 FILLER_5_8
*1662 FILLER_6_0
*1675 FILLER_6_105
*1676 FILLER_6_110
*1677 FILLER_6_115
*1678 FILLER_6_125
*1679 FILLER_6_127
*1680 FILLER_6_136
*1681 FILLER_6_146
*1682 FILLER_6_151
*1664 FILLER_6_16
*1683 FILLER_6_173
*1684 FILLER_6_177
*1685 FILLER_6_179
*1686 FILLER_6_188
*1687 FILLER_6_199
*1688 FILLER_6_201
*1689 FILLER_6_205
*1690 FILLER_6_209
*1691 FILLER_6_211
*1665 FILLER_6_24
*1666 FILLER_6_28
*1667 FILLER_6_31
*1668 FILLER_6_35
*1669 FILLER_6_58
*1670 FILLER_6_60
*1671 FILLER_6_64
*1672 FILLER_6_68
*1663 FILLER_6_8
*1673 FILLER_6_91
*1674 FILLER_6_95
*1692 FILLER_7_0
*1699 FILLER_7_117
*1700 FILLER_7_119
*1701 FILLER_7_121
*1702 FILLER_7_128
*1703 FILLER_7_150
*1694 FILLER_7_16
*1704 FILLER_7_172
*1705 FILLER_7_181
*1706 FILLER_7_189
*1707 FILLER_7_197
*1708 FILLER_7_205
*1709 FILLER_7_213
*1710 FILLER_7_221
*1695 FILLER_7_64
*1696 FILLER_7_72
*1693 FILLER_7_8
*1697 FILLER_7_94
*1698 FILLER_7_96
*1711 FILLER_8_0
*1726 FILLER_8_104
*1727 FILLER_8_112
*1728 FILLER_8_142
*1729 FILLER_8_148
*1713 FILLER_8_16
*1730 FILLER_8_163
*1731 FILLER_8_173
*1732 FILLER_8_181
*1733 FILLER_8_193
*1734 FILLER_8_201
*1735 FILLER_8_206
*1736 FILLER_8_211
*1714 FILLER_8_24
*1715 FILLER_8_28
*1716 FILLER_8_31
*1717 FILLER_8_39
*1718 FILLER_8_48
*1719 FILLER_8_50
*1720 FILLER_8_54
*1721 FILLER_8_62
*1722 FILLER_8_66
*1723 FILLER_8_70
*1712 FILLER_8_8
*1724 FILLER_8_89
*1725 FILLER_8_91
*1737 FILLER_9_0
*1745 FILLER_9_110
*1746 FILLER_9_118
*1747 FILLER_9_141
*1748 FILLER_9_146
*1749 FILLER_9_151
*1739 FILLER_9_16
*1750 FILLER_9_175
*1751 FILLER_9_181
*1752 FILLER_9_208
*1753 FILLER_9_212
*1754 FILLER_9_214
*1740 FILLER_9_40
*1741 FILLER_9_47
*1742 FILLER_9_58
*1738 FILLER_9_8
*1743 FILLER_9_85
*1744 FILLER_9_89
*1194 TAP_TAPCELL_ROW_0_0
*1308 TAP_TAPCELL_ROW_0_1
*1309 TAP_TAPCELL_ROW_0_2
*1310 TAP_TAPCELL_ROW_0_3
*1311 TAP_TAPCELL_ROW_0_4
*1312 TAP_TAPCELL_ROW_0_5
*1313 TAP_TAPCELL_ROW_0_6
*1345 TAP_TAPCELL_ROW_10_38
*1346 TAP_TAPCELL_ROW_10_39
*1347 TAP_TAPCELL_ROW_10_40
*1348 TAP_TAPCELL_ROW_10_41
*1349 TAP_TAPCELL_ROW_11_42
*1350 TAP_TAPCELL_ROW_11_43
*1351 TAP_TAPCELL_ROW_11_44
*1352 TAP_TAPCELL_ROW_12_45
*1353 TAP_TAPCELL_ROW_12_46
*1354 TAP_TAPCELL_ROW_12_47
*1355 TAP_TAPCELL_ROW_12_48
*1356 TAP_TAPCELL_ROW_13_49
*1357 TAP_TAPCELL_ROW_13_50
*1358 TAP_TAPCELL_ROW_13_51
*1359 TAP_TAPCELL_ROW_14_52
*1360 TAP_TAPCELL_ROW_14_53
*1361 TAP_TAPCELL_ROW_14_54
*1362 TAP_TAPCELL_ROW_14_55
*1363 TAP_TAPCELL_ROW_15_56
*1364 TAP_TAPCELL_ROW_15_57
*1365 TAP_TAPCELL_ROW_15_58
*1366 TAP_TAPCELL_ROW_16_59
*1367 TAP_TAPCELL_ROW_16_60
*1368 TAP_TAPCELL_ROW_16_61
*1369 TAP_TAPCELL_ROW_16_62
*1370 TAP_TAPCELL_ROW_17_63
*1371 TAP_TAPCELL_ROW_17_64
*1372 TAP_TAPCELL_ROW_17_65
*1373 TAP_TAPCELL_ROW_18_66
*1374 TAP_TAPCELL_ROW_18_67
*1375 TAP_TAPCELL_ROW_18_68
*1376 TAP_TAPCELL_ROW_18_69
*1377 TAP_TAPCELL_ROW_19_70
*1378 TAP_TAPCELL_ROW_19_71
*1379 TAP_TAPCELL_ROW_19_72
*1314 TAP_TAPCELL_ROW_1_7
*1315 TAP_TAPCELL_ROW_1_8
*1316 TAP_TAPCELL_ROW_1_9
*1380 TAP_TAPCELL_ROW_20_73
*1381 TAP_TAPCELL_ROW_20_74
*1382 TAP_TAPCELL_ROW_20_75
*1383 TAP_TAPCELL_ROW_20_76
*1384 TAP_TAPCELL_ROW_21_77
*1385 TAP_TAPCELL_ROW_21_78
*1386 TAP_TAPCELL_ROW_21_79
*1387 TAP_TAPCELL_ROW_22_80
*1388 TAP_TAPCELL_ROW_22_81
*1389 TAP_TAPCELL_ROW_22_82
*1390 TAP_TAPCELL_ROW_22_83
*1391 TAP_TAPCELL_ROW_23_84
*1392 TAP_TAPCELL_ROW_23_85
*1393 TAP_TAPCELL_ROW_23_86
*1394 TAP_TAPCELL_ROW_24_87
*1395 TAP_TAPCELL_ROW_24_88
*1396 TAP_TAPCELL_ROW_24_89
*1397 TAP_TAPCELL_ROW_24_90
*1398 TAP_TAPCELL_ROW_25_91
*1399 TAP_TAPCELL_ROW_25_92
*1400 TAP_TAPCELL_ROW_25_93
*1401 TAP_TAPCELL_ROW_26_94
*1402 TAP_TAPCELL_ROW_26_95
*1403 TAP_TAPCELL_ROW_26_96
*1404 TAP_TAPCELL_ROW_26_97
*1407 TAP_TAPCELL_ROW_27_100
*1405 TAP_TAPCELL_ROW_27_98
*1406 TAP_TAPCELL_ROW_27_99
*1408 TAP_TAPCELL_ROW_28_101
*1409 TAP_TAPCELL_ROW_28_102
*1410 TAP_TAPCELL_ROW_28_103
*1411 TAP_TAPCELL_ROW_28_104
*1412 TAP_TAPCELL_ROW_29_105
*1413 TAP_TAPCELL_ROW_29_106
*1414 TAP_TAPCELL_ROW_29_107
*1317 TAP_TAPCELL_ROW_2_10
*1318 TAP_TAPCELL_ROW_2_11
*1319 TAP_TAPCELL_ROW_2_12
*1320 TAP_TAPCELL_ROW_2_13
*1415 TAP_TAPCELL_ROW_30_108
*1416 TAP_TAPCELL_ROW_30_109
*1417 TAP_TAPCELL_ROW_30_110
*1418 TAP_TAPCELL_ROW_30_111
*1419 TAP_TAPCELL_ROW_31_112
*1420 TAP_TAPCELL_ROW_31_113
*1421 TAP_TAPCELL_ROW_31_114
*1422 TAP_TAPCELL_ROW_32_115
*1423 TAP_TAPCELL_ROW_32_116
*1424 TAP_TAPCELL_ROW_32_117
*1425 TAP_TAPCELL_ROW_32_118
*1426 TAP_TAPCELL_ROW_33_119
*1427 TAP_TAPCELL_ROW_33_120
*1428 TAP_TAPCELL_ROW_33_121
*1429 TAP_TAPCELL_ROW_34_122
*1430 TAP_TAPCELL_ROW_34_123
*1431 TAP_TAPCELL_ROW_34_124
*1432 TAP_TAPCELL_ROW_34_125
*1433 TAP_TAPCELL_ROW_35_126
*1434 TAP_TAPCELL_ROW_35_127
*1435 TAP_TAPCELL_ROW_35_128
*1436 TAP_TAPCELL_ROW_36_129
*1437 TAP_TAPCELL_ROW_36_130
*1438 TAP_TAPCELL_ROW_36_131
*1439 TAP_TAPCELL_ROW_36_132
*1440 TAP_TAPCELL_ROW_36_133
*1441 TAP_TAPCELL_ROW_36_134
*1442 TAP_TAPCELL_ROW_36_135
*1321 TAP_TAPCELL_ROW_3_14
*1322 TAP_TAPCELL_ROW_3_15
*1323 TAP_TAPCELL_ROW_3_16
*1324 TAP_TAPCELL_ROW_4_17
*1325 TAP_TAPCELL_ROW_4_18
*1326 TAP_TAPCELL_ROW_4_19
*1327 TAP_TAPCELL_ROW_4_20
*1328 TAP_TAPCELL_ROW_5_21
*1329 TAP_TAPCELL_ROW_5_22
*1330 TAP_TAPCELL_ROW_5_23
*1331 TAP_TAPCELL_ROW_6_24
*1332 TAP_TAPCELL_ROW_6_25
*1333 TAP_TAPCELL_ROW_6_26
*1334 TAP_TAPCELL_ROW_6_27
*1335 TAP_TAPCELL_ROW_7_28
*1336 TAP_TAPCELL_ROW_7_29
*1337 TAP_TAPCELL_ROW_7_30
*1338 TAP_TAPCELL_ROW_8_31
*1339 TAP_TAPCELL_ROW_8_32
*1340 TAP_TAPCELL_ROW_8_33
*1341 TAP_TAPCELL_ROW_8_34
*1342 TAP_TAPCELL_ROW_9_35
*1343 TAP_TAPCELL_ROW_9_36
*1344 TAP_TAPCELL_ROW_9_37
*746 _303_
*747 _304_
*748 _305_
*749 _306_
*750 _307_
*751 _308_
*752 _309_
*753 _310_
*754 _311_
*755 _312_
*756 _313_
*757 _314_
*758 _315_
*759 _316_
*760 _317_
*761 _318_
*762 _319_
*763 _320_
*764 _321_
*765 _322_
*766 _323_
*767 _324_
*768 _325_
*769 _326_
*770 _327_
*771 _328_
*772 _329_
*773 _330_
*774 _331_
*775 _332_
*776 _333_
*777 _334_
*778 _335_
*779 _336_
*780 _337_
*781 _338_
*782 _339_
*783 _340_
*784 _341_
*785 _342_
*786 _343_
*787 _344_
*788 _345_
*789 _346_
*790 _347_
*791 _348_
*792 _349_
*793 _350_
*794 _351_
*795 _352_
*797 _354_
*798 _355_
*799 _356_
*800 _357_
*801 _358_
*802 _359_
*803 _360_
*804 _361_
*805 _362_
*806 _363_
*807 _364_
*808 _365_
*809 _366_
*810 _367_
*811 _368_
*812 _369_
*813 _370_
*814 _371_
*815 _372_
*816 _373_
*817 _374_
*818 _375_
*819 _376_
*820 _377_
*821 _378_
*822 _379_
*823 _380_
*824 _381_
*825 _382_
*826 _383_
*827 _384_
*828 _385_
*829 _386_
*831 _388_
*832 _389_
*833 _390_
*834 _391_
*835 _392_
*836 _393_
*837 _394_
*838 _395_
*839 _396_
*840 _397_
*841 _398_
*842 _399_
*843 _400_
*844 _401_
*845 _402_
*846 _403_
*847 _404_
*848 _405_
*849 _406_
*850 _407_
*851 _408_
*852 _409_
*853 _410_
*854 _411_
*855 _412_
*856 _413_
*857 _414_
*858 _415_
*859 _416_
*860 _417_
*861 _418_
*862 _419_
*863 _420_
*864 _421_
*865 _422_
*866 _423_
*867 _424_
*868 _425_
*869 _426_
*870 _427_
*871 _428_
*872 _429_
*873 _430_
*874 _431_
*875 _432_
*876 _433_
*877 _434_
*878 _435_
*879 _436_
*880 _437_
*881 _438_
*882 _439_
*883 _440_
*884 _441_
*885 _442_
*886 _443_
*887 _444_
*888 _445_
*889 _446_
*890 _447_
*891 _448_
*892 _449_
*893 _450_
*894 _451_
*895 _452_
*896 _453_
*897 _454_
*898 _455_
*899 _456_
*900 _457_
*901 _458_
*902 _459_
*903 _460_
*904 _461_
*905 _462_
*906 _463_
*907 _464_
*908 _465_
*909 _466_
*910 _467_
*911 _468_
*912 _469_
*913 _470_
*914 _471_
*915 _472_
*916 _473_
*917 _474_
*918 _475_
*919 _476_
*920 _477_
*921 _478_
*922 _479_
*923 _480_
*924 _481_
*925 _482_
*926 _483_
*927 _484_
*928 _485_
*929 _486_
*930 _487_
*931 _488_
*932 _489_
*933 _490_
*934 _491_
*935 _492_
*936 _493_
*937 _494_
*938 _495_
*939 _496_
*940 _497_
*941 _498_
*942 _499_
*943 _500_
*944 _501_
*945 _502_
*946 _503_
*947 _504_
*948 _505_
*949 _506_
*950 _507_
*951 _508_
*952 _509_
*953 _510_
*954 _511_
*955 _512_
*956 _513_
*957 _514_
*958 _515_
*959 _516_
*960 _517_
*961 _518_
*962 _519_
*963 _520_
*964 _521_
*965 _522_
*966 _523_
*967 _524_
*968 _525_
*969 _526_
*970 _527_
*971 _528_
*972 _529_
*973 _530_
*974 _531_
*975 _532_
*976 _533_
*977 _534_
*978 _535_
*979 _536_
*980 _537_
*981 _538_
*982 _539_
*983 _540_
*984 _541_
*985 _542_
*986 _543_
*987 _544_
*988 _545_
*989 _546_
*990 _547_
*991 _548_
*992 _549_
*993 _550_
*994 _551_
*995 _552_
*996 _553_
*997 _554_
*998 _555_
*999 _556_
*1000 _557_
*1001 _558_
*1002 _559_
*1003 _560_
*1004 _561_
*1005 _562_
*1006 _563_
*1007 _564_
*1008 _565_
*1009 _566_
*1010 _567_
*1011 _568_
*1012 _569_
*1013 _570_
*1014 _571_
*1015 _572_
*1016 _573_
*1017 _574_
*1018 _575_
*1019 _576_
*1020 _577_
*1021 _578_
*1022 _579_
*1023 _580_
*1024 _581_
*1025 _582_
*1026 _583_
*1027 _584_
*1028 _585_
*1029 _586_
*1030 _587_
*1031 _588_
*1032 _589_
*1033 _590_
*1034 _591_
*1035 _592_
*1036 _593_
*1037 _594_
*1038 _595_
*1039 _596_
*1040 _597_
*1041 _598_
*1042 _599_
*1043 _600_
*1044 _601_
*1045 _602_
*1046 _603_
*1047 _604_
*1048 _605_
*1049 _606_
*1050 _607_
*1051 _608_
*1052 _609_
*1053 _610_
*1054 _611_
*1055 _612_
*1056 _613_
*1057 _614_
*1058 _615_
*1059 _616_
*1060 _617_
*1061 _618_
*1062 _619_
*1063 _620_
*1064 _621_
*1065 _622_
*1066 _623_
*1067 _624_
*1068 _625_
*1069 _626_
*1070 _627_
*1071 _628_
*1072 _629_
*1073 _630_
*1074 _631_
*1075 _632_
*1076 _633_
*1077 _634_
*1078 _635_
*1079 _636_
*1080 _637_
*1081 _638_
*1082 _639_
*1083 _640_
*1084 _641_
*1085 _642_
*1086 _643_
*1087 _644_
*1088 _645_
*1089 _646_
*1090 _647_
*1091 _648_
*1092 _649_
*1093 _650_
*1094 _651_
*1095 _652_
*1096 _653_
*1097 _654_
*1098 _655_
*1099 _656_
*1100 _657_
*1101 _658_
*1102 _659_
*1103 _660_
*1104 _661_
*1105 _662_
*1106 _663_
*1107 _664_
*1108 _665_
*1109 _666_
*1110 _667_
*1111 _668_
*1112 _669_
*1113 _670_
*1114 _671_
*1115 _672_
*1116 _673_
*1117 _674_
*1118 _675_
*1119 _676_
*1120 _677_
*1121 _678_
*1122 _679_
*1123 _680_
*1124 _681_
*1125 _682_
*1126 _683_
*1127 _684_
*1128 _685_
*1129 _686_
*1130 _687_
*1131 _688_
*1132 _689_
*1133 _690_
*1134 _691_
*1135 _692_
*1136 _693_
*1137 _694_
*1138 _695_
*1139 _696_
*1140 _697_
*1141 _698_
*1142 _699_
*1143 _700_
*1144 _701_
*1145 _702_
*1146 _703_
*1147 _704_
*1148 _705_
*1149 _706_
*1150 _707_
*1279 _707__22
*1152 _708_
*1153 _709_
*1154 _710_
*1155 _711_
*1156 _712_
*1151 _712__23
*1158 _713_
*1157 _713__24
*1160 _714_
*1161 _715_
*1162 _716_
*1163 _717_
*1164 _718_
*1165 _719_
*1166 _720_
*1167 _721_
*1168 _722_
*1169 _723_
*1170 _724_
*1171 _725_
*1172 _726_
*1173 _727_
*1174 _728_
*1175 _729_
*1176 _730_
*1177 _731_
*1178 _732_
*1179 _733_
*1180 _734_
*1181 _735_
*1182 _736_
*1183 _737_
*1184 _738_
*1185 _739_
*1186 _740_
*1187 _741_
*1188 _742_
*1189 _743_
*1190 _744_
*1191 _745_
*1192 _746_
*1193 _747_
*1159 _747__25
*1307 _752__2
*1198 _753__3
*1200 _754__4
*1202 _755__5
*1204 _756__6
*1206 _757__7
*1208 _758__8
*1210 _759__9
*1212 _760__10
*1214 _761__11
*1216 _762__12
*1218 _763__13
*1220 _764__14
*1222 _765__15
*1224 _798__16
*1258 _809__17
*1270 _810__18
*1272 _811__19
*1274 _813__20
*1277 _814__21
*1455 clkbuf_0_clk_i
*1458 clkbuf_4_0_0_clk_i
*1468 clkbuf_4_10_0_clk_i
*1469 clkbuf_4_11_0_clk_i
*1470 clkbuf_4_12_0_clk_i
*1471 clkbuf_4_13_0_clk_i
*1472 clkbuf_4_14_0_clk_i
*1473 clkbuf_4_15_0_clk_i
*1459 clkbuf_4_1_0_clk_i
*1460 clkbuf_4_2_0_clk_i
*1461 clkbuf_4_3_0_clk_i
*1462 clkbuf_4_4_0_clk_i
*1463 clkbuf_4_5_0_clk_i
*1464 clkbuf_4_6_0_clk_i
*1465 clkbuf_4_7_0_clk_i
*1466 clkbuf_4_8_0_clk_i
*1467 clkbuf_4_9_0_clk_i
*1474 clkload0
*1475 clkload1
*1484 clkload10
*1485 clkload11
*1486 clkload12
*1487 clkload13
*1476 clkload2
*1477 clkload3
*1478 clkload4
*1479 clkload5
*1480 clkload6
*1481 clkload7
*1482 clkload8
*1483 clkload9
*1488 hold136
*1489 hold137
*1490 hold138
*1491 hold139
*1492 hold140
*1493 hold141
*1494 hold142
*1495 hold143
*1496 hold144
*1497 hold145
*1498 hold146
*1499 hold147
*1500 hold148
*1501 hold149
*1502 hold150
*1503 hold151
*1504 hold152
*1505 hold153
*1506 hold154
*1507 hold155
*1508 hold156
*1509 hold157
*1510 hold158
*1511 hold159
*1512 hold160
*1513 hold161
*1514 hold162
*1515 hold163
*1516 hold164
*1517 hold165
*1518 hold166
*1519 hold167
*1520 hold168
*1521 hold169
*1522 hold170
*1523 hold171
*1306 input26
*1305 input27
*1304 input28
*1303 input29
*1302 input30
*1301 input31
*1300 input32
*1299 input33
*1298 input34
*1297 input35
*1296 input36
*1295 input37
*1294 input38
*1293 input39
*1292 input40
*1291 input41
*1290 input42
*1289 input43
*1288 input44
*1287 input45
*1286 input46
*1285 input47
*1284 input48
*1283 input49
*1282 input50
*1281 input51
*1280 input52
*1278 input53
*1276 input54
*1275 input55
*1273 input56
*1271 input57
*1269 input58
*1268 input59
*1267 input60
*1266 input61
*1265 input62
*1264 input63
*1263 input64
*1262 input65
*1261 input66
*1260 input67
*1259 input68
*1257 input69
*1256 input70
*1255 input71
*1254 input72
*1226 output100
*1225 output101
*1223 output102
*1221 output103
*1219 output104
*1217 output105
*1215 output106
*1213 output107
*1211 output108
*1209 output109
*1207 output110
*1205 output111
*1203 output112
*1201 output113
*1199 output114
*1197 output115
*1196 output116
*1195 output117
*830 output118
*796 output119
*1443 output120
*1444 output121
*1445 output122
*1446 output123
*1447 output124
*1448 output125
*1449 output126
*1450 output127
*1451 output128
*1452 output129
*1453 output130
*1253 output73
*1252 output74
*1251 output75
*1250 output76
*1249 output77
*1248 output78
*1247 output79
*1246 output80
*1245 output81
*1244 output82
*1243 output83
*1242 output84
*1241 output85
*1240 output86
*1239 output87
*1238 output88
*1237 output89
*1236 output90
*1235 output91
*1234 output92
*1233 output93
*1232 output94
*1231 output95
*1230 output96
*1229 output97
*1228 output98
*1227 output99
*1454 place133
*1456 place134
*1457 place135

*PORTS
cio_gpio_en_o[0] O
cio_gpio_en_o[1] O
cio_gpio_en_o[2] O
cio_gpio_en_o[3] O
cio_gpio_i[0] I
cio_gpio_i[1] I
cio_gpio_i[2] I
cio_gpio_i[3] I
cio_gpio_o[0] O
cio_gpio_o[1] O
cio_gpio_o[2] O
cio_gpio_o[3] O
clk_i I
intr_gpio_o[0] O
intr_gpio_o[1] O
intr_gpio_o[2] O
intr_gpio_o[3] O
rst_ni I
tl_i[0] I
tl_i[100] I
tl_i[101] I
tl_i[102] I
tl_i[103] I
tl_i[104] I
tl_i[105] I
tl_i[106] I
tl_i[107] I
tl_i[108] I
tl_i[10] I
tl_i[11] I
tl_i[12] I
tl_i[13] I
tl_i[14] I
tl_i[15] I
tl_i[16] I
tl_i[17] I
tl_i[18] I
tl_i[19] I
tl_i[1] I
tl_i[20] I
tl_i[21] I
tl_i[22] I
tl_i[23] I
tl_i[24] I
tl_i[25] I
tl_i[26] I
tl_i[27] I
tl_i[28] I
tl_i[29] I
tl_i[2] I
tl_i[30] I
tl_i[31] I
tl_i[32] I
tl_i[33] I
tl_i[34] I
tl_i[35] I
tl_i[36] I
tl_i[37] I
tl_i[38] I
tl_i[39] I
tl_i[3] I
tl_i[40] I
tl_i[41] I
tl_i[42] I
tl_i[43] I
tl_i[44] I
tl_i[45] I
tl_i[46] I
tl_i[47] I
tl_i[48] I
tl_i[49] I
tl_i[4] I
tl_i[50] I
tl_i[51] I
tl_i[52] I
tl_i[53] I
tl_i[54] I
tl_i[55] I
tl_i[56] I
tl_i[57] I
tl_i[58] I
tl_i[59] I
tl_i[5] I
tl_i[60] I
tl_i[61] I
tl_i[62] I
tl_i[63] I
tl_i[64] I
tl_i[65] I
tl_i[66] I
tl_i[67] I
tl_i[68] I
tl_i[69] I
tl_i[6] I
tl_i[70] I
tl_i[71] I
tl_i[72] I
tl_i[73] I
tl_i[74] I
tl_i[75] I
tl_i[76] I
tl_i[77] I
tl_i[78] I
tl_i[79] I
tl_i[7] I
tl_i[80] I
tl_i[81] I
tl_i[82] I
tl_i[83] I
tl_i[84] I
tl_i[85] I
tl_i[86] I
tl_i[87] I
tl_i[88] I
tl_i[89] I
tl_i[8] I
tl_i[90] I
tl_i[91] I
tl_i[92] I
tl_i[93] I
tl_i[94] I
tl_i[95] I
tl_i[96] I
tl_i[97] I
tl_i[98] I
tl_i[99] I
tl_i[9] I
tl_o[0] O
tl_o[10] O
tl_o[11] O
tl_o[12] O
tl_o[13] O
tl_o[14] O
tl_o[15] O
tl_o[16] O
tl_o[17] O
tl_o[18] O
tl_o[19] O
tl_o[1] O
tl_o[20] O
tl_o[21] O
tl_o[22] O
tl_o[23] O
tl_o[24] O
tl_o[25] O
tl_o[26] O
tl_o[27] O
tl_o[28] O
tl_o[29] O
tl_o[2] O
tl_o[30] O
tl_o[31] O
tl_o[32] O
tl_o[33] O
tl_o[34] O
tl_o[35] O
tl_o[36] O
tl_o[37] O
tl_o[38] O
tl_o[39] O
tl_o[3] O
tl_o[40] O
tl_o[41] O
tl_o[42] O
tl_o[43] O
tl_o[44] O
tl_o[45] O
tl_o[46] O
tl_o[47] O
tl_o[48] O
tl_o[49] O
tl_o[4] O
tl_o[50] O
tl_o[51] O
tl_o[52] O
tl_o[53] O
tl_o[54] O
tl_o[55] O
tl_o[56] O
tl_o[57] O
tl_o[58] O
tl_o[59] O
tl_o[5] O
tl_o[60] O
tl_o[61] O
tl_o[62] O
tl_o[63] O
tl_o[64] O
tl_o[65] O
tl_o[6] O
tl_o[7] O
tl_o[8] O
tl_o[9] O

*D_NET *1 0.000794894
*CONN
*I *1147:D I *D sky130_fd_sc_hd__dfrtp_1
*I *798:Y O *D sky130_fd_sc_hd__a21oi_1
*CAP
1 *1147:D 0.00024669
2 *798:Y 0.00024669
3 *1147:D *885:B 0.000265272
4 *1147:D *706:48 3.62414e-05
*RES
1 *798:Y *1147:D 32.6874 
*END

*D_NET *2 0.000630285
*CONN
*I *1146:D I *D sky130_fd_sc_hd__dfrtp_1
*I *799:X O *D sky130_fd_sc_hd__mux2_1
*CAP
1 *1146:D 0.000206636
2 *799:X 0.000206636
3 *1146:D *763:A2 0.000127179
4 *1146:D *1146:RESET_B 4.32761e-05
5 *1146:D *381:16 3.58321e-05
6 *1146:D *385:10 1.07248e-05
*RES
1 *799:X *1146:D 33.242 
*END

*D_NET *3 0.000810324
*CONN
*I *1145:D I *D sky130_fd_sc_hd__dfrtp_1
*I *800:X O *D sky130_fd_sc_hd__mux2_1
*CAP
1 *1145:D 8.82174e-05
2 *800:X 8.82174e-05
3 *1145:D *228:24 0.000319366
4 *1145:D *418:16 0.000314524
*RES
1 *800:X *1145:D 33.0676 
*END

*D_NET *4 0.000817602
*CONN
*I *1143:D I *D sky130_fd_sc_hd__dfrtp_1
*I *802:Y O *D sky130_fd_sc_hd__a21oi_1
*CAP
1 *1143:D 0.000147955
2 *802:Y 0.000147955
3 *1143:D *802:B1 7.64641e-05
4 *1143:D *898:A2 0.000113968
5 *1143:D *1143:CLK 1.46057e-05
6 *1143:D *106:150 0.000118166
7 *1143:D *690:338 8.01687e-05
8 *1143:D *690:366 0.000103522
9 *1143:D *739:12 1.47967e-05
*RES
1 *802:Y *1143:D 33.0998 
*END

*D_NET *5 0.00246656
*CONN
*I *1142:D I *D sky130_fd_sc_hd__dfrtp_1
*I *804:Y O *D sky130_fd_sc_hd__a21oi_1
*CAP
1 *1142:D 0.000386438
2 *804:Y 0.000386438
3 *1142:D *803:B 2.64162e-05
4 *1142:D *804:B1 4.17531e-06
5 *1142:D *690:235 4.70104e-05
6 *1142:D *690:237 0.000714072
7 *1142:D *690:245 0.000175396
8 *1142:D *692:241 0.000572471
9 *1142:D *696:85 0.000154141
*RES
1 *804:Y *1142:D 45.5574 
*END

*D_NET *6 0.00165994
*CONN
*I *1141:D I *D sky130_fd_sc_hd__dfrtp_1
*I *806:Y O *D sky130_fd_sc_hd__a21oi_1
*CAP
1 *1141:D 0.000546689
2 *806:Y 0.000546689
3 *1141:D *806:B1 1.43983e-05
4 *1141:D *1149:CLK 5.88662e-05
5 *1141:D *1158:D 0.000100054
6 *1141:D *1503:A 0.000163796
7 *1141:D *695:10 2.31359e-05
8 *1141:D *695:56 0.00020631
*RES
1 *806:Y *1141:D 42.7928 
*END

*D_NET *7 0.000211944
*CONN
*I *1139:D I *D sky130_fd_sc_hd__dfrtp_1
*I *809:Y O *D sky130_fd_sc_hd__a21oi_1
*CAP
1 *1139:D 7.91555e-05
2 *809:Y 7.91555e-05
3 *1139:D intr_gpio_o[2] 5.3633e-05
*RES
1 *809:Y *1139:D 29.7455 
*END

*D_NET *8 0.000491647
*CONN
*I *1138:D I *D sky130_fd_sc_hd__dfrtp_1
*I *812:Y O *D sky130_fd_sc_hd__a21oi_1
*CAP
1 *1138:D 0.000214434
2 *812:Y 0.000214434
3 *1138:D *693:195 6.27782e-05
*RES
1 *812:Y *1138:D 31.7147 
*END

*D_NET *9 0.000335373
*CONN
*I *1137:D I *D sky130_fd_sc_hd__dfrtp_1
*I *815:Y O *D sky130_fd_sc_hd__a21oi_1
*CAP
1 *1137:D 0.000123337
2 *815:Y 0.000123337
3 *1137:D *1186:RESET_B 2.08133e-05
4 *1137:D *1227:A 5.27944e-05
5 *1137:D *692:28 1.50924e-05
*RES
1 *815:Y *1137:D 30.4689 
*END

*D_NET *10 0.00111505
*CONN
*I *1135:D I *D sky130_fd_sc_hd__dfrtp_1
*I *818:Y O *D sky130_fd_sc_hd__a21oi_1
*CAP
1 *1135:D 0.000421151
2 *818:Y 0.000421151
3 *1135:D *1169:D 0.00026546
4 *1135:D *1169:RESET_B 7.28994e-06
5 *1135:D *175:71 0
6 *1135:D *704:61 0
*RES
1 *818:Y *1135:D 39.2963 
*END

*D_NET *11 0.00138895
*CONN
*I *1134:D I *D sky130_fd_sc_hd__dfrtp_1
*I *821:Y O *D sky130_fd_sc_hd__a21oi_1
*CAP
1 *1134:D 0.000562954
2 *821:Y 0.000562954
3 *1134:D *1134:CLK 0
4 *1134:D *1219:A 0.000263038
*RES
1 *821:Y *1134:D 39.3314 
*END

*D_NET *12 0.00138532
*CONN
*I *1133:D I *D sky130_fd_sc_hd__dfrtp_1
*I *824:Y O *D sky130_fd_sc_hd__a21oi_1
*CAP
1 *1133:D 0.000269968
2 *824:Y 0.000269968
3 *1133:D *823:A 0
4 *1133:D *823:B 6.78549e-05
5 *1133:D *824:A2 4.58907e-05
6 *1133:D *1133:CLK 5.04829e-06
7 *1133:D *1221:A 0.000315459
8 *1133:D *690:245 2.66556e-05
9 *1133:D *696:20 0.000296079
10 *1133:D *696:72 8.83916e-05
*RES
1 *824:Y *1133:D 37.7054 
*END

*D_NET *13 0.0010194
*CONN
*I *1131:D I *D sky130_fd_sc_hd__dfrtp_1
*I *825:X O *D sky130_fd_sc_hd__mux2_1
*CAP
1 *1131:D 0.000420998
2 *825:X 0.000420998
3 *1131:D *1064:A0 7.93774e-05
4 *1131:D *1132:D 9.29777e-05
5 *1131:D *1132:RESET_B 0
6 *1131:D *228:92 5.04829e-06
7 *1131:D *699:22 0
*RES
1 *825:X *1131:D 37.113 
*END

*D_NET *14 0.00119888
*CONN
*I *1130:D I *D sky130_fd_sc_hd__dfrtp_1
*I *826:X O *D sky130_fd_sc_hd__mux2_1
*CAP
1 *1130:D 0.000599442
2 *826:X 0.000599442
3 *1130:D *826:A0 0
4 *1130:D *826:A1 0
5 *1130:D *1188:RESET_B 0
6 *1130:D *589:10 0
7 *1130:D *590:8 0
8 *1130:D *691:56 0
9 *1130:D *700:46 0
*RES
1 *826:X *1130:D 41.3726 
*END

*D_NET *15 0.0010698
*CONN
*I *1129:D I *D sky130_fd_sc_hd__dfrtp_1
*I *827:X O *D sky130_fd_sc_hd__mux2_1
*CAP
1 *1129:D 0.000319065
2 *827:X 0.000319065
3 *1129:D *768:A2 0.000114594
4 *1129:D *1129:RESET_B 9.28161e-05
5 *1129:D *625:89 8.19598e-05
6 *1129:D *698:51 0.000142302
*RES
1 *827:X *1129:D 36.7328 
*END

*D_NET *16 0.000623372
*CONN
*I *1127:D I *D sky130_fd_sc_hd__dfrtp_1
*I *832:Y O *D sky130_fd_sc_hd__nand2_1
*CAP
1 *1127:D 0.00019018
2 *832:Y 0.00019018
3 *1127:D *829:A 2.36905e-05
4 *1127:D *832:B 2.65831e-05
5 *1127:D *1127:RESET_B 0.000163986
6 *1127:D *1127:CLK 2.8753e-05
*RES
1 *832:Y *1127:D 31.7175 
*END

*D_NET *17 0.000771258
*CONN
*I *1125:D I *D sky130_fd_sc_hd__dfrtp_1
*I *835:Y O *D sky130_fd_sc_hd__nand2_1
*CAP
1 *1125:D 0.000374372
2 *835:Y 0.000374372
3 *1125:D *1125:RESET_B 3.00174e-06
4 *1125:D *551:12 1.95129e-05
*RES
1 *835:Y *1125:D 36.4302 
*END

*D_NET *18 0.000930804
*CONN
*I *1124:D I *D sky130_fd_sc_hd__dfrtp_1
*I *838:Y O *D sky130_fd_sc_hd__nand2_1
*CAP
1 *1124:D 0.000380863
2 *838:Y 0.000380863
3 *1124:D *106:416 0.000169078
4 *1124:D *693:471 0
*RES
1 *838:Y *1124:D 36.8455 
*END

*D_NET *19 0.00100261
*CONN
*I *1123:D I *D sky130_fd_sc_hd__dfrtp_1
*I *841:Y O *D sky130_fd_sc_hd__nand2_1
*CAP
1 *1123:D 0.000384048
2 *841:Y 0.000384048
3 *1123:D *840:B 5.92039e-05
4 *1123:D *841:A 5.08975e-05
5 *1123:D *1123:RESET_B 0.000124416
*RES
1 *841:Y *1123:D 37.6788 
*END

*D_NET *20 0.00154333
*CONN
*I *1122:D I *D sky130_fd_sc_hd__dfrtp_1
*I *844:Y O *D sky130_fd_sc_hd__nand2_1
*CAP
1 *1122:D 0.000564229
2 *844:Y 0.000564229
3 *1122:D tl_o[30] 2.47295e-05
4 *1122:D tl_o[39] 1.07549e-05
5 *1122:D *844:B 2.57847e-05
6 *1122:D *870:B 0.00016195
7 *1122:D *1116:D 7.26606e-05
8 *1122:D *537:12 0.00011899
*RES
1 *844:Y *1122:D 37.2635 
*END

*D_NET *21 0.000966386
*CONN
*I *1121:D I *D sky130_fd_sc_hd__dfrtp_1
*I *847:Y O *D sky130_fd_sc_hd__nand2_1
*CAP
1 *1121:D 0.0002595
2 *847:Y 0.0002595
3 *1121:D tl_o[51] 6.21669e-05
4 *1121:D *847:B 6.27782e-05
5 *1121:D *1444:A 0.000153578
6 *1121:D *106:108 1.41336e-05
7 *1121:D *106:112 0.000106947
8 *1121:D *693:464 4.77834e-05
*RES
1 *847:Y *1121:D 35.6292 
*END

*D_NET *22 0.00102682
*CONN
*I *1120:D I *D sky130_fd_sc_hd__dfrtp_1
*I *850:Y O *D sky130_fd_sc_hd__nand2_1
*CAP
1 *1120:D 0.000382823
2 *850:Y 0.000382823
3 *1120:D tl_o[52] 7.04109e-05
4 *1120:D *1120:RESET_B 0.000100397
5 *1120:D *1120:CLK 6.11884e-05
6 *1120:D *493:16 2.91752e-05
*RES
1 *850:Y *1120:D 34.0994 
*END

*D_NET *23 0.00129283
*CONN
*I *1119:D I *D sky130_fd_sc_hd__dfrtp_1
*I *853:Y O *D sky130_fd_sc_hd__nand2_1
*CAP
1 *1119:D 0.000575127
2 *853:Y 0.000575127
3 *1119:D *851:B 2.99287e-05
4 *1119:D *853:A 7.47462e-05
5 *1119:D *106:416 0
6 *1119:D *136:36 1.13359e-05
7 *1119:D *544:10 2.65667e-05
*RES
1 *853:Y *1119:D 41.561 
*END

*D_NET *24 0.00097277
*CONN
*I *1117:D I *D sky130_fd_sc_hd__dfrtp_1
*I *863:Y O *D sky130_fd_sc_hd__nand2_1
*CAP
1 *1117:D 0.000390794
2 *863:Y 0.000390794
3 *1117:D *1105:D 0
4 *1117:D *1105:CLK 0
5 *1117:D *1117:CLK 5.04829e-06
6 *1117:D *704:50 7.20028e-05
7 *1117:D *704:61 5.044e-05
8 *1117:D *704:74 6.36909e-05
*RES
1 *863:Y *1117:D 37.8069 
*END

*D_NET *25 0.000948099
*CONN
*I *1116:D I *D sky130_fd_sc_hd__dfrtp_1
*I *865:Y O *D sky130_fd_sc_hd__nand2_1
*CAP
1 *1116:D 0.000309918
2 *865:Y 0.000309918
3 *1116:D tl_o[39] 7.26606e-05
4 *1116:D *865:A 4.29314e-06
5 *1116:D *870:A 2.50929e-05
6 *1116:D *1122:CLK 9.73108e-05
7 *1116:D *166:10 5.62448e-05
8 *1122:D *1116:D 7.26606e-05
*RES
1 *865:Y *1116:D 35.4548 
*END

*D_NET *26 0.000432583
*CONN
*I *1115:D I *D sky130_fd_sc_hd__dfrtp_1
*I *867:Y O *D sky130_fd_sc_hd__nand2_1
*CAP
1 *1115:D 0.00016562
2 *867:Y 0.00016562
3 *1115:D *862:A 8.36586e-06
4 *1115:D *867:B 9.29777e-05
*RES
1 *867:Y *1115:D 30.6083 
*END

*D_NET *27 0.00150279
*CONN
*I *1114:D I *D sky130_fd_sc_hd__dfrtp_1
*I *869:Y O *D sky130_fd_sc_hd__nand2_1
*CAP
1 *1114:D 0.00044539
2 *869:Y 0.00044539
3 *1114:D tl_o[34] 0.000121243
4 *1114:D tl_o[38] 0.000366589
5 *1114:D *872:B 4.55936e-05
6 *1114:D *1112:RESET_B 0
7 *1114:D *161:254 4.66094e-05
8 *1114:D *528:8 0
9 *1114:D *536:8 0
10 *1114:D *691:226 3.19724e-05
11 *1114:D *693:826 0
*RES
1 *869:Y *1114:D 48.7811 
*END

*D_NET *28 0.002462
*CONN
*I *1113:D I *D sky130_fd_sc_hd__dfrtp_1
*I *871:Y O *D sky130_fd_sc_hd__nand2_1
*CAP
1 *1113:D 0.000731899
2 *871:Y 0.000731899
3 *1113:D *801:A 0
4 *1113:D *907:A2 1.32509e-05
5 *1113:D *1068:A0 3.86207e-06
6 *1113:D *1101:D 5.05819e-05
7 *1113:D *1113:RESET_B 6.20356e-05
8 *1113:D *1143:RESET_B 6.79079e-05
9 *1113:D *161:109 0.000337996
10 *1113:D *166:10 0.000238025
11 *1113:D *691:214 7.65207e-05
12 *1113:D *708:22 0.000148017
*RES
1 *871:Y *1113:D 48.3626 
*END

*D_NET *29 0.000402961
*CONN
*I *1112:D I *D sky130_fd_sc_hd__dfrtp_1
*I *873:Y O *D sky130_fd_sc_hd__nand2_1
*CAP
1 *1112:D 9.61711e-05
2 *873:Y 9.61711e-05
3 *1112:D *1112:CLK 0.000107496
4 *1112:D *106:256 0.000103123
*RES
1 *873:Y *1112:D 21.4401 
*END

*D_NET *30 0.00204838
*CONN
*I *1111:D I *D sky130_fd_sc_hd__dfrtp_1
*I *875:Y O *D sky130_fd_sc_hd__nand2_1
*CAP
1 *1111:D 0.000725608
2 *875:Y 0.000725608
3 *1111:D *757:A 0.000200045
4 *1111:D *757:B 0.000117613
5 *1111:D *760:B1 1.13359e-05
6 *1111:D *808:A 4.67686e-05
7 *1111:D *809:A1 6.96846e-05
8 *1111:D *875:B 6.27782e-05
9 *1111:D *88:31 0
10 *1111:D *371:14 8.89373e-05
11 *1111:D *690:350 0
*RES
1 *875:Y *1111:D 45.0056 
*END

*D_NET *31 0.000412718
*CONN
*I *1110:D I *D sky130_fd_sc_hd__dfrtp_1
*I *877:Y O *D sky130_fd_sc_hd__nand2_1
*CAP
1 *1110:D 0.000128582
2 *877:Y 0.000128582
3 *1110:D tl_o[27] 0.000115448
4 *1110:D *877:B 2.21251e-05
5 *1110:D *1211:A 0
6 *1110:D *106:242 1.79807e-05
*RES
1 *877:Y *1110:D 30.4689 
*END

*D_NET *32 0.00104362
*CONN
*I *1109:D I *D sky130_fd_sc_hd__dfrtp_1
*I *879:Y O *D sky130_fd_sc_hd__nand2_1
*CAP
1 *1109:D 0.000354489
2 *879:Y 0.000354489
3 *1109:D *879:B 2.99287e-05
4 *1109:D *1105:CLK 9.05723e-05
5 *1109:D *1109:RESET_B 2.28919e-05
6 *1109:D *1109:CLK 7.246e-05
7 *1109:D *532:8 0.000118792
*RES
1 *879:Y *1109:D 28.65 
*END

*D_NET *33 0.000291292
*CONN
*I *1108:D I *D sky130_fd_sc_hd__dfrtp_1
*I *881:Y O *D sky130_fd_sc_hd__nand2_1
*CAP
1 *1108:D 9.42266e-05
2 *881:Y 9.42266e-05
3 *1108:D *1066:B 3.77804e-05
4 *1108:D *1114:RESET_B 6.50586e-05
5 *1108:D *705:8 0
*RES
1 *881:Y *1108:D 30.0537 
*END

*D_NET *34 0.000462738
*CONN
*I *1107:D I *D sky130_fd_sc_hd__dfrtp_1
*I *883:Y O *D sky130_fd_sc_hd__nand2_1
*CAP
1 *1107:D 6.19372e-05
2 *883:Y 6.19372e-05
3 *1107:D *1107:CLK 5.9036e-05
4 *1107:D *161:56 1.4106e-05
5 *1107:D *493:16 1.04731e-05
6 *1107:D *716:14 0.000255248
*RES
1 *883:Y *1107:D 21.4401 
*END

*D_NET *35 0.000273179
*CONN
*I *1106:D I *D sky130_fd_sc_hd__dfrtp_1
*I *886:Y O *D sky130_fd_sc_hd__nand3_1
*CAP
1 *1106:D 6.43662e-05
2 *886:Y 6.43662e-05
3 *1106:D *1102:D 1.2116e-05
4 *1106:D *179:32 3.91944e-05
5 *1106:D *674:20 9.31362e-05
*RES
1 *886:Y *1106:D 29.3303 
*END

*D_NET *36 0.00190792
*CONN
*I *1105:D I *D sky130_fd_sc_hd__dfrtp_1
*I *889:Y O *D sky130_fd_sc_hd__o211ai_1
*CAP
1 *1105:D 0.000524089
2 *889:Y 0.000524089
3 *1105:D *863:A 6.27782e-05
4 *1105:D *889:A1 2.94933e-05
5 *1105:D *1105:CLK 3.64651e-05
6 *1105:D *1117:RESET_B 2.19131e-05
7 *1105:D *379:10 0.000554384
8 *1105:D *693:855 4.39396e-05
9 *1105:D *693:857 0.000110767
10 *1105:D *704:61 0
11 *1117:D *1105:D 0
*RES
1 *889:Y *1105:D 45.0028 
*END

*D_NET *37 0.0009666
*CONN
*I *1104:D I *D sky130_fd_sc_hd__dfrtp_1
*I *891:Y O *D sky130_fd_sc_hd__o211ai_1
*CAP
1 *1104:D 0.000142
2 *891:Y 0.000142
3 *1104:D *161:169 0.00031073
4 *1104:D *175:48 0.000309099
5 *1104:D *692:227 6.27718e-05
*RES
1 *891:Y *1104:D 33.791 
*END

*D_NET *38 0.00182245
*CONN
*I *1103:D I *D sky130_fd_sc_hd__dfrtp_1
*I *893:Y O *D sky130_fd_sc_hd__o211ai_1
*CAP
1 *1103:D 0.000542891
2 *893:Y 0.000542891
3 *1103:D *892:B 5.53789e-05
4 *1103:D *893:B1 0.000109805
5 *1103:D *106:528 1.72855e-05
6 *1103:D *161:175 0.000445356
7 *1103:D *696:12 0.00010884
*RES
1 *893:Y *1103:D 41.298 
*END

*D_NET *39 0.00124143
*CONN
*I *1102:D I *D sky130_fd_sc_hd__dfrtp_1
*I *896:Y O *D sky130_fd_sc_hd__nand3_1
*CAP
1 *1102:D 0.000407634
2 *896:Y 0.000407634
3 *1102:D *895:A 0
4 *1102:D *1102:RESET_B 3.00829e-05
5 *1102:D *1102:CLK 0
6 *1102:D *112:73 7.98523e-05
7 *1102:D *136:96 1.36611e-05
8 *1102:D *136:100 7.98173e-05
9 *1102:D *179:32 0.000184768
10 *1102:D *419:12 2.58616e-05
11 *1102:D *674:20 0
12 *1106:D *1102:D 1.2116e-05
*RES
1 *896:Y *1102:D 38.2122 
*END

*D_NET *40 0.000622328
*CONN
*I *1101:D I *D sky130_fd_sc_hd__dfrtp_1
*I *898:Y O *D sky130_fd_sc_hd__o211ai_1
*CAP
1 *1101:D 0.000173302
2 *898:Y 0.000173302
3 *1101:D *1098:RESET_B 9.61815e-05
4 *1101:D *1143:RESET_B 0.000120594
5 *1101:D *708:22 8.36586e-06
6 *1113:D *1101:D 5.05819e-05
*RES
1 *898:Y *1101:D 32.6874 
*END

*D_NET *41 0.000563897
*CONN
*I *1100:D I *D sky130_fd_sc_hd__dfrtp_1
*I *900:Y O *D sky130_fd_sc_hd__o211ai_1
*CAP
1 *1100:D 0.000178116
2 *900:Y 0.000178116
3 *1100:D *899:B 0
4 *1100:D *900:A2 3.14978e-05
5 *1100:D *92:6 7.98425e-06
6 *1100:D *175:71 0.000168184
*RES
1 *900:Y *1100:D 31.854 
*END

*D_NET *42 0.000836841
*CONN
*I *1099:D I *D sky130_fd_sc_hd__dfrtp_1
*I *902:Y O *D sky130_fd_sc_hd__o211ai_1
*CAP
1 *1099:D 0.00029046
2 *902:Y 0.00029046
3 *1099:D *902:A1 9.75356e-05
4 *1099:D *902:B1 1.41291e-05
5 *1099:D *911:C1 1.61631e-05
6 *1099:D *1156:RESET_B 1.07248e-05
7 *1099:D *1158:RESET_B 0.000101148
8 *1099:D *175:12 1.62206e-05
*RES
1 *902:Y *1099:D 33.5501 
*END

*D_NET *43 0.000587468
*CONN
*I *1098:D I *D sky130_fd_sc_hd__dfrtp_1
*I *905:Y O *D sky130_fd_sc_hd__o211ai_1
*CAP
1 *1098:D 0.000179351
2 *905:Y 0.000179351
3 *1098:D *898:A2 6.92705e-05
4 *1098:D *1067:B1 0
5 *1098:D *175:90 0.000122378
6 *1098:D *705:16 3.71173e-05
*RES
1 *905:Y *1098:D 31.5781 
*END

*D_NET *44 0.000173667
*CONN
*I *1097:D I *D sky130_fd_sc_hd__dfrtp_1
*I *907:Y O *D sky130_fd_sc_hd__o211ai_1
*CAP
1 *1097:D 7.40586e-05
2 *907:Y 7.40586e-05
3 *1097:D *875:A 2.55493e-05
4 *1097:D *1139:RESET_B 0
5 *1097:D *493:16 0
*RES
1 *907:Y *1097:D 29.3303 
*END

*D_NET *45 0.00048527
*CONN
*I *1096:D I *D sky130_fd_sc_hd__dfrtp_1
*I *909:Y O *D sky130_fd_sc_hd__o211ai_1
*CAP
1 *1096:D 0.000173365
2 *909:Y 0.000173365
3 *1096:D *1043:B 0
4 *1096:D *175:83 6.92705e-05
5 *1096:D *175:90 6.92705e-05
*RES
1 *909:Y *1096:D 31.0235 
*END

*D_NET *46 0.000787344
*CONN
*I *1095:D I *D sky130_fd_sc_hd__dfrtp_1
*I *911:Y O *D sky130_fd_sc_hd__o211ai_1
*CAP
1 *1095:D 0.00018807
2 *911:Y 0.00018807
3 *1095:D *1095:RESET_B 0.000127683
4 *1095:D *175:10 6.50727e-05
5 *1095:D *175:12 0.000164815
6 *1095:D *692:28 5.3633e-05
*RES
1 *911:Y *1095:D 32.1327 
*END

*D_NET *47 0.00116812
*CONN
*I *1094:D I *D sky130_fd_sc_hd__dfrtp_1
*I *919:Y O *D sky130_fd_sc_hd__a21oi_1
*CAP
1 *1094:D 0.000271236
2 *919:Y 0.000271236
3 *1094:D *919:A2 5.85954e-05
4 *1094:D *919:B1 1.96344e-05
5 *1094:D *923:A 1.15781e-05
6 *1094:D *923:B 5.04829e-06
7 *1094:D *924:B1 0.000127719
8 *1094:D *934:B1 0.000160617
9 *1094:D *1091:CLK 4.65895e-05
10 *1094:D *136:162 5.51922e-05
11 *1094:D *515:10 0.000140676
*RES
1 *919:Y *1094:D 37.1158 
*END

*D_NET *48 0.00127276
*CONN
*I *1093:D I *D sky130_fd_sc_hd__dfrtp_1
*I *924:Y O *D sky130_fd_sc_hd__a21oi_1
*CAP
1 *1093:D 0.000599704
2 *924:Y 0.000599704
3 *1093:D *914:A 0
4 *1093:D *924:A1 2.53809e-05
5 *1093:D *1093:CLK 4.79669e-05
6 *1093:D *386:8 0
*RES
1 *924:Y *1093:D 41.1317 
*END

*D_NET *49 0.000435523
*CONN
*I *1092:D I *D sky130_fd_sc_hd__dfrtp_1
*I *929:Y O *D sky130_fd_sc_hd__a21oi_1
*CAP
1 *1092:D 0.000158579
2 *929:Y 0.000158579
3 *1092:D *929:A1 3.25584e-05
4 *1092:D *929:A2 7.04109e-05
5 *1092:D *106:499 0
6 *1092:D *136:158 1.53954e-05
*RES
1 *929:Y *1092:D 31.0235 
*END

*D_NET *50 0.000740695
*CONN
*I *1091:D I *D sky130_fd_sc_hd__dfrtp_1
*I *934:Y O *D sky130_fd_sc_hd__a21oi_1
*CAP
1 *1091:D 0.000226521
2 *934:Y 0.000226521
3 *1091:D *924:A1 2.53809e-05
4 *1091:D *934:A2 2.41056e-05
5 *1091:D *934:B1 0
6 *1091:D *1091:CLK 7.621e-05
7 *1091:D *206:14 0.000161956
*RES
1 *934:Y *1091:D 33.9331 
*END

*D_NET *51 0.000379565
*CONN
*I *1090:D I *D sky130_fd_sc_hd__dfrtp_1
*I *940:Y O *D sky130_fd_sc_hd__a21oi_1
*CAP
1 *1090:D 0.000111876
2 *940:Y 0.000111876
3 *1090:D *136:119 0.000130777
4 *1090:D *190:12 0
5 *1090:D *190:51 2.50363e-05
*RES
1 *940:Y *1090:D 30.4689 
*END

*D_NET *52 0.000482865
*CONN
*I *1089:D I *D sky130_fd_sc_hd__dfrtp_1
*I *946:Y O *D sky130_fd_sc_hd__a21oi_1
*CAP
1 *1089:D 0.00013182
2 *946:Y 0.00013182
3 *1089:D *941:A 2.58616e-05
4 *1089:D *946:A2 8.92568e-06
5 *1089:D *952:A1 0
6 *1089:D *112:45 6.44557e-05
7 *1089:D *136:106 0.000119983
8 *1089:D *387:36 0
*RES
1 *946:Y *1089:D 31.7147 
*END

*D_NET *53 0.00171492
*CONN
*I *1088:D I *D sky130_fd_sc_hd__dfrtp_1
*I *952:Y O *D sky130_fd_sc_hd__a21oi_1
*CAP
1 *1088:D 0.000317938
2 *952:Y 0.000317938
3 *1088:D *789:B 0.000312229
4 *1088:D *952:A2 0.000224395
5 *1088:D *1088:CLK 5.04829e-06
6 *1088:D *111:99 0.000136972
7 *1088:D *112:45 9.75356e-05
8 *1088:D *202:12 7.84712e-05
9 *1088:D *311:39 0
10 *1088:D *701:34 0.000224395
*RES
1 *952:Y *1088:D 40.6122 
*END

*D_NET *54 0.000421091
*CONN
*I *1087:D I *D sky130_fd_sc_hd__dfrtp_1
*I *958:Y O *D sky130_fd_sc_hd__a21oi_1
*CAP
1 *1087:D 0.000153532
2 *958:Y 0.000153532
3 *1087:D *887:A 1.21985e-05
4 *1087:D *951:A 4.77834e-05
5 *1087:D *958:B1 5.01737e-05
6 *1087:D *136:119 3.87022e-06
*RES
1 *958:Y *1087:D 30.9913 
*END

*D_NET *55 0.0012148
*CONN
*I *1083:D I *D sky130_fd_sc_hd__dfrtp_1
*I *961:Y O *D sky130_fd_sc_hd__o21ai_0
*CAP
1 *1083:D 0.000368338
2 *961:Y 0.000368338
3 *1083:D *1083:RESET_B 0
4 *1083:D *1083:CLK 9.70161e-05
5 *1083:D *1084:D 0.000127164
6 *1083:D *1288:A 9.9028e-05
7 *1083:D *424:10 0.000154914
8 *1083:D *425:10 0
*RES
1 *961:Y *1083:D 39.7522 
*END

*D_NET *56 0.00204087
*CONN
*I *1082:D I *D sky130_fd_sc_hd__dfrtp_1
*I *963:Y O *D sky130_fd_sc_hd__o21ai_0
*CAP
1 *1082:D 0.000467414
2 *963:Y 0.000467414
3 *1082:D *826:A0 1.23455e-05
4 *1082:D *925:A 0.000191541
5 *1082:D *962:A 0.000306169
6 *1082:D *963:B1 0.000259158
7 *1082:D *1081:RESET_B 4.32761e-05
8 *1082:D *1082:RESET_B 4.70567e-05
9 *1082:D *1082:CLK 0.000168058
10 *1082:D *421:10 7.8435e-05
*RES
1 *963:Y *1082:D 44.8774 
*END

*D_NET *57 0.000644036
*CONN
*I *1081:D I *D sky130_fd_sc_hd__dfrtp_1
*I *965:Y O *D sky130_fd_sc_hd__o21ai_0
*CAP
1 *1081:D 0.000161139
2 *965:Y 0.000161139
3 *1081:D *1077:D 9.98296e-05
4 *1081:D *1081:RESET_B 3.14978e-05
5 *1081:D *1522:A 9.58304e-05
6 *1081:D *418:16 9.46009e-05
*RES
1 *965:Y *1081:D 33.791 
*END

*D_NET *58 0.000831457
*CONN
*I *1079:D I *D sky130_fd_sc_hd__dfrtp_1
*I *967:Y O *D sky130_fd_sc_hd__o21ai_0
*CAP
1 *1079:D 0.000198528
2 *967:Y 0.000198528
3 *1079:D *944:B1 5.92699e-05
4 *1079:D *967:A1 0.000111477
5 *1079:D *1079:CLK 6.96757e-05
6 *1079:D *192:72 0.000159908
7 *1079:D *625:139 3.40703e-05
*RES
1 *967:Y *1079:D 34.4849 
*END

*D_NET *59 0.00165931
*CONN
*I *1078:D I *D sky130_fd_sc_hd__dfrtp_1
*I *968:X O *D sky130_fd_sc_hd__mux2_1
*CAP
1 *1078:D 0.000363359
2 *968:X 0.000363359
3 *1078:D *948:A2 6.05806e-05
4 *1078:D *955:B 0.000229345
5 *1078:D *968:A1 5.90539e-05
6 *1078:D *1078:RESET_B 8.54603e-05
7 *1078:D *459:47 0.000124362
8 *1078:D *459:55 0.000118485
9 *1078:D *459:57 9.24241e-05
10 *1078:D *459:59 0.000162884
*RES
1 *968:X *1078:D 39.7466 
*END

*D_NET *60 0.000602747
*CONN
*I *1077:D I *D sky130_fd_sc_hd__dfrtp_1
*I *969:X O *D sky130_fd_sc_hd__mux2_1
*CAP
1 *1077:D 0.00016061
2 *969:X 0.00016061
3 *1077:D *965:A2 1.29759e-05
4 *1077:D *1077:RESET_B 7.22498e-05
5 *1077:D *418:16 9.64718e-05
6 *1081:D *1077:D 9.98296e-05
*RES
1 *969:X *1077:D 31.8863 
*END

*D_NET *61 0.00064476
*CONN
*I *1073:D I *D sky130_fd_sc_hd__dfrtp_1
*I *1037:Y O *D sky130_fd_sc_hd__o21ai_0
*CAP
1 *1073:D 0.000157888
2 *1037:Y 0.000157888
3 *1073:D *754:A1 8.72115e-06
4 *1073:D *754:B1 0.000176652
5 *1073:D *1037:A1 2.69569e-05
6 *1073:D *1475:A 0.000116652
*RES
1 *1037:Y *1073:D 33.0676 
*END

*D_NET *62 0.00087401
*CONN
*I *1074:D I *D sky130_fd_sc_hd__dfrtp_1
*I *1041:Y O *D sky130_fd_sc_hd__o21ai_0
*CAP
1 *1074:D 0.000180345
2 *1041:Y 0.000180345
3 *1074:D *1040:B 9.43419e-05
4 *1074:D *1041:A1 6.27782e-05
5 *1074:D *527:16 0.000111159
6 *1074:D *594:10 0.00024504
*RES
1 *1041:Y *1074:D 33.3757 
*END

*D_NET *63 0.00150455
*CONN
*I *1075:D I *D sky130_fd_sc_hd__dfrtp_1
*I *1044:Y O *D sky130_fd_sc_hd__o21ai_0
*CAP
1 *1075:D 0.000570998
2 *1044:Y 0.000570998
3 *1075:D *748:A2 0.000114053
4 *1075:D *1043:A 6.3259e-05
5 *1075:D *78:8 0.000112361
6 *1075:D *161:155 7.28784e-05
7 *1075:D *161:163 0
8 *1075:D *704:26 0
*RES
1 *1044:Y *1075:D 40.7487 
*END

*D_NET *64 0.000646715
*CONN
*I *1076:D I *D sky130_fd_sc_hd__dfrtp_1
*I *1048:Y O *D sky130_fd_sc_hd__o21ai_0
*CAP
1 *1076:D 0.000138666
2 *1048:Y 0.000138666
3 *1076:D *1048:B1 9.12416e-06
4 *1076:D *1076:RESET_B 0.000102658
5 *1076:D *1076:CLK 0.000105182
6 *1076:D *1191:CLK 2.012e-05
7 *1076:D *290:8 0.000112837
8 *1076:D *703:10 1.94615e-05
*RES
1 *1048:Y *1076:D 32.6874 
*END

*D_NET *65 0.000518617
*CONN
*I *1080:D I *D sky130_fd_sc_hd__dfrtp_1
*I *1050:Y O *D sky130_fd_sc_hd__o21ai_0
*CAP
1 *1080:D 0.000254129
2 *1050:Y 0.000254129
3 *1080:D *936:A2 0
4 *1080:D *943:A 0
5 *1080:D *1033:A1 1.03594e-05
6 *1080:D *383:14 0
*RES
1 *1050:Y *1080:D 33.0676 
*END

*D_NET *66 0.000763842
*CONN
*I *1084:D I *D sky130_fd_sc_hd__dfrtp_1
*I *1052:Y O *D sky130_fd_sc_hd__o21ai_0
*CAP
1 *1084:D 0.000189624
2 *1052:Y 0.000189624
3 *1084:D *1083:CLK 3.67528e-06
4 *1084:D *228:100 0.000217937
5 *1084:D *699:39 3.58185e-05
6 *1083:D *1084:D 0.000127164
*RES
1 *1052:Y *1084:D 32.1327 
*END

*D_NET *67 0.000440736
*CONN
*I *1085:D I *D sky130_fd_sc_hd__dfrtp_1
*I *1054:Y O *D sky130_fd_sc_hd__nand2_1
*CAP
1 *1085:D 0.000139935
2 *1054:Y 0.000139935
3 *1085:D *793:B1 0
4 *1085:D *860:A 0.000118166
5 *1085:D *116:18 4.27003e-05
*RES
1 *1054:Y *1085:D 30.6083 
*END

*D_NET *68 0.00153399
*CONN
*I *1086:D I *D sky130_fd_sc_hd__dfrtp_1
*I *1055:Y O *D sky130_fd_sc_hd__o21ai_0
*CAP
1 *1086:D 0.000607306
2 *1055:Y 0.000607306
3 *1086:D *886:B 7.01935e-06
4 *1086:D *1055:A1 2.2111e-05
5 *1086:D *1269:A 0.000150724
6 *1086:D *106:26 8.38209e-05
7 *1086:D *106:32 5.57012e-05
*RES
1 *1055:Y *1086:D 43.0771 
*END

*D_NET *69 0.000365919
*CONN
*I *1118:D I *D sky130_fd_sc_hd__dfrtp_1
*I *1057:Y O *D sky130_fd_sc_hd__nand2_1
*CAP
1 *1118:D 0.000103627
2 *1057:Y 0.000103627
3 *1118:D *1057:B 6.08467e-05
4 *1118:D *161:294 9.78191e-05
*RES
1 *1057:Y *1118:D 30.0537 
*END

*D_NET *70 0.00123278
*CONN
*I *1126:D I *D sky130_fd_sc_hd__dfrtp_1
*I *1060:Y O *D sky130_fd_sc_hd__nand2_1
*CAP
1 *1126:D 0.000447103
2 *1060:Y 0.000447103
3 *1126:D *796:A 2.95424e-06
4 *1126:D *831:A 0.000122992
5 *1126:D *1059:A 0.000109227
6 *1126:D *1060:B 9.75148e-06
7 *1126:D *1063:B 3.18748e-06
8 *1126:D *1126:CLK 5.43124e-05
9 *1126:D *106:443 3.61531e-05
*RES
1 *1060:Y *1126:D 36.015 
*END

*D_NET *71 0.00040735
*CONN
*I *1128:D I *D sky130_fd_sc_hd__dfrtp_1
*I *1063:Y O *D sky130_fd_sc_hd__nand2_1
*CAP
1 *1128:D 0.000146826
2 *1063:Y 0.000146826
3 *1128:D *1063:B 6.46815e-05
4 *1128:D *1126:CLK 0
5 *1128:D *1128:RESET_B 3.67528e-06
6 *1128:D *1450:A 4.53411e-05
*RES
1 *1063:Y *1128:D 30.6083 
*END

*D_NET *72 0.000538218
*CONN
*I *1132:D I *D sky130_fd_sc_hd__dfrtp_1
*I *1064:X O *D sky130_fd_sc_hd__mux2_1
*CAP
1 *1132:D 0.000119739
2 *1064:X 0.000119739
3 *1132:D *1064:A0 0.000205763
4 *1131:D *1132:D 9.29777e-05
*RES
1 *1064:X *1132:D 30.6083 
*END

*D_NET *73 0.000982487
*CONN
*I *1136:D I *D sky130_fd_sc_hd__dfrtp_1
*I *1065:X O *D sky130_fd_sc_hd__mux2_1
*CAP
1 *1136:D 0.000297286
2 *1065:X 0.000297286
3 *1136:D *1065:A0 0.000387915
4 *1136:D *1285:A 0
*RES
1 *1065:X *1136:D 33.3813 
*END

*D_NET *74 0.000964795
*CONN
*I *1140:D I *D sky130_fd_sc_hd__dfrtp_1
*I *1067:Y O *D sky130_fd_sc_hd__a21oi_1
*CAP
1 *1140:D 0.000285148
2 *1067:Y 0.000285148
3 *1140:D intr_gpio_o[3] 0
4 *1140:D *898:A2 0.000111708
5 *1140:D *905:A1 4.89898e-06
6 *1140:D *1005:B 0
7 *1140:D *1066:B 4.07765e-05
8 *1140:D *1067:B1 4.60267e-05
9 *1140:D *161:130 4.69495e-06
10 *1140:D *161:142 3.5047e-05
11 *1140:D *184:6 2.41274e-06
12 *1140:D *318:12 0.000103943
13 *1140:D *690:376 4.49912e-05
*RES
1 *1067:Y *1140:D 35.487 
*END

*D_NET *75 0.00252596
*CONN
*I *1144:D I *D sky130_fd_sc_hd__dfrtp_1
*I *1068:X O *D sky130_fd_sc_hd__mux2_1
*CAP
1 *1144:D 0.000410502
2 *1068:X 0.000410502
3 *1144:D *1031:A 0.000180688
4 *1144:D *1032:B1 0.000347036
5 *1144:D *1068:A1 0.000896167
6 *1144:D *1144:CLK 2.58757e-05
7 *1144:D *1242:A 3.72986e-06
8 *1144:D *376:10 0.000110531
9 *1144:D *571:8 0.000132212
10 *1144:D *693:126 3.00174e-06
11 *1144:D *693:136 5.71941e-06
*RES
1 *1068:X *1144:D 46.6638 
*END

*D_NET *76 0.00170304
*CONN
*I *1148:D I *D sky130_fd_sc_hd__dfrtp_1
*I *1069:X O *D sky130_fd_sc_hd__mux2_1
*CAP
1 *1148:D 0.000650889
2 *1069:X 0.000650889
3 *1148:D *1034:A2 1.33911e-05
4 *1148:D *1191:D 2.57847e-05
5 *1148:D *1242:A 0.000124565
6 *1148:D *319:10 0.000237527
7 *1148:D *571:8 0
*RES
1 *1069:X *1148:D 42.2382 
*END

*D_NET *77 0.00126764
*CONN
*I *1072:D I *D sky130_fd_sc_hd__dfrtp_1
*I *1071:Y O *D sky130_fd_sc_hd__nand2_1
*CAP
1 *1072:D 0.00033971
2 *1071:Y 0.00033971
3 *1072:D *311:39 0.000483488
4 *1072:D *459:14 0.000104731
5 *1072:D *693:414 0
6 *1072:D *693:416 0
*RES
1 *1071:Y *1072:D 34.4905 
*END

*D_NET *78 0.00117958
*CONN
*I *1044:A1 I *D sky130_fd_sc_hd__o21ai_0
*I *748:A2 I *D sky130_fd_sc_hd__o21ai_1
*I *746:Y O *D sky130_fd_sc_hd__inv_1
*CAP
1 *1044:A1 0
2 *748:A2 0.000136218
3 *746:Y 0.000124828
4 *78:8 0.000261045
5 *748:A2 *1008:A 8.36586e-06
6 *748:A2 *1043:A 0.00030245
7 *748:A2 *287:10 1.03594e-05
8 *78:8 *1008:A 7.62471e-05
9 *78:8 *1009:B 3.99086e-06
10 *78:8 *1017:B 2.96676e-05
11 *1075:D *748:A2 0.000114053
12 *1075:D *78:8 0.000112361
*RES
1 *746:Y *78:8 13.047 
2 *78:8 *748:A2 23.8184 
3 *78:8 *1044:A1 9.24915 
*END

*D_NET *79 0.000265862
*CONN
*I *748:B1 I *D sky130_fd_sc_hd__o21ai_1
*I *747:Y O *D sky130_fd_sc_hd__nand2_1
*CAP
1 *748:B1 3.65329e-05
2 *747:Y 3.65329e-05
3 *748:B1 *747:A 9.63981e-05
4 *748:B1 *318:12 9.63981e-05
*RES
1 *747:Y *748:B1 20.8855 
*END

*D_NET *80 0.00120369
*CONN
*I *751:A2 I *D sky130_fd_sc_hd__o21ai_1
*I *1041:A1 I *D sky130_fd_sc_hd__o21ai_0
*I *749:Y O *D sky130_fd_sc_hd__inv_1
*CAP
1 *751:A2 0.000125012
2 *1041:A1 0.000277783
3 *749:Y 0
4 *80:4 0.000402796
5 *751:A2 *285:8 7.43837e-05
6 *1041:A1 *1040:B 1.88563e-05
7 *1041:A1 *1041:A2 1.88987e-05
8 *1041:A1 *1041:B1 7.9359e-05
9 *1041:A1 *285:8 0.000143827
10 *1074:D *1041:A1 6.27782e-05
*RES
1 *749:Y *80:4 9.24915 
2 *80:4 *1041:A1 15.4583 
3 *80:4 *751:A2 20.6666 
*END

*D_NET *81 0.000299116
*CONN
*I *751:B1 I *D sky130_fd_sc_hd__o21ai_1
*I *750:Y O *D sky130_fd_sc_hd__nand2_1
*CAP
1 *751:B1 0.000115071
2 *750:Y 0.000115071
3 *751:B1 *751:A1 6.46815e-05
4 *751:B1 *317:12 4.29314e-06
*RES
1 *750:Y *751:B1 21.4401 
*END

*D_NET *82 0.00172217
*CONN
*I *754:A2 I *D sky130_fd_sc_hd__o21ai_1
*I *1037:A1 I *D sky130_fd_sc_hd__o21ai_0
*I *752:Y O *D sky130_fd_sc_hd__inv_1
*CAP
1 *754:A2 0
2 *1037:A1 0.000159526
3 *752:Y 0.000364541
4 *82:10 0.000524067
5 *1037:A1 *754:A1 8.23577e-05
6 *1037:A1 *996:A 0
7 *1037:A1 *1475:A 0
8 *1037:A1 *247:18 7.09666e-06
9 *82:10 *754:A1 7.26606e-05
10 *82:10 *377:25 0.00048496
11 *1073:D *1037:A1 2.69569e-05
*RES
1 *752:Y *82:10 20.6034 
2 *82:10 *1037:A1 18.0727 
3 *82:10 *754:A2 13.7491 
*END

*D_NET *83 0.00142473
*CONN
*I *754:B1 I *D sky130_fd_sc_hd__o21ai_1
*I *753:Y O *D sky130_fd_sc_hd__nand2_1
*CAP
1 *754:B1 0.000254876
2 *753:Y 0.000254876
3 *754:B1 *753:A 0.000437819
4 *754:B1 *753:B 0
5 *754:B1 *754:A1 0.000126335
6 *754:B1 *692:217 0.000174175
7 *1073:D *754:B1 0.000176652
*RES
1 *753:Y *754:B1 37.6676 
*END

*D_NET *84 0.00395711
*CONN
*I *756:B I *D sky130_fd_sc_hd__nor2_1
*I *798:A1 I *D sky130_fd_sc_hd__a21oi_1
*I *943:A I *D sky130_fd_sc_hd__nand2_1
*I *755:Y O *D sky130_fd_sc_hd__inv_1
*CAP
1 *756:B 0.00027021
2 *798:A1 7.60636e-05
3 *943:A 0.000330674
4 *755:Y 0.000338537
5 *84:14 0.000628347
6 *84:8 0.000830356
7 *756:B *756:A 0.000124086
8 *756:B *760:B1 7.37416e-05
9 *756:B *895:B 3.77804e-05
10 *756:B *895:C 0
11 *756:B *1102:CLK 0
12 *756:B *1190:RESET_B 0.000314643
13 *756:B *707:64 0
14 *798:A1 *798:B1 0.00011307
15 *943:A *935:A 9.35979e-05
16 *943:A *313:10 0.000173772
17 *943:A *690:427 7.1621e-05
18 *84:8 *885:B 5.04423e-06
19 *84:8 *895:C 0.000191397
20 *84:8 *1102:RESET_B 5.79739e-05
21 *84:8 *1190:RESET_B 4.52736e-05
22 *84:14 *885:B 5.08975e-05
23 *84:14 *895:B 4.27717e-05
24 *84:14 *1190:RESET_B 7.07582e-05
25 *84:14 *690:427 1.64983e-05
26 *1080:D *943:A 0
*RES
1 *755:Y *84:8 19.1867 
2 *84:8 *84:14 6.47305 
3 *84:14 *943:A 22.6404 
4 *84:14 *798:A1 15.0271 
5 *84:8 *756:B 22.6404 
*END

*D_NET *85 0.000908075
*CONN
*I *757:B I *D sky130_fd_sc_hd__nor2_1
*I *756:Y O *D sky130_fd_sc_hd__nor2_1
*CAP
1 *757:B 0.000255402
2 *756:Y 0.000255402
3 *757:B *760:A1 6.80033e-05
4 *757:B *760:B1 0.000211656
5 *1111:D *757:B 0.000117613
*RES
1 *756:Y *757:B 35.6182 
*END

*D_NET *86 0.000438377
*CONN
*I *760:A1 I *D sky130_fd_sc_hd__a22oi_1
*I *757:Y O *D sky130_fd_sc_hd__nor2_1
*CAP
1 *760:A1 0.000163843
2 *757:Y 0.000163843
3 *760:A1 *760:A2 8.21935e-06
4 *760:A1 *760:B1 3.44689e-05
5 *757:B *760:A1 6.80033e-05
*RES
1 *757:Y *760:A1 21.4642 
*END

*D_NET *87 0.00212113
*CONN
*I *760:B1 I *D sky130_fd_sc_hd__a22oi_1
*I *758:Y O *D sky130_fd_sc_hd__a21oi_1
*CAP
1 *760:B1 0.000707641
2 *758:Y 0.000707641
3 *760:B1 *756:A 0.000120594
4 *760:B1 *758:A1 1.75155e-06
5 *760:B1 *758:B1 4.30017e-06
6 *760:B1 *760:A2 1.67329e-05
7 *760:B1 *895:B 1.21461e-06
8 *760:B1 *1111:CLK 0.000215682
9 *760:B1 *1486:A 0
10 *760:B1 *161:109 0
11 *760:B1 *707:64 0
12 *760:B1 *716:14 1.43698e-05
13 *756:B *760:B1 7.37416e-05
14 *757:B *760:B1 0.000211656
15 *760:A1 *760:B1 3.44689e-05
16 *1111:D *760:B1 1.13359e-05
*RES
1 *758:Y *760:B1 47.1438 
*END

*D_NET *88 0.00289931
*CONN
*I *898:A1 I *D sky130_fd_sc_hd__o211ai_1
*I *802:A1 I *D sky130_fd_sc_hd__a21oi_1
*I *760:B2 I *D sky130_fd_sc_hd__a22oi_1
*I *759:Y O *D sky130_fd_sc_hd__inv_1
*CAP
1 *898:A1 0
2 *802:A1 0.000124526
3 *760:B2 0.000208558
4 *759:Y 1.89396e-05
5 *88:31 0.000512246
6 *88:8 0.000615218
7 *760:B2 *757:A 0
8 *760:B2 *1243:A 7.09395e-05
9 *760:B2 *161:96 0.000126187
10 *760:B2 *318:20 0
11 *802:A1 *898:B1 1.47978e-05
12 *802:A1 *106:150 5.47093e-05
13 *802:A1 *690:376 6.08467e-05
14 *88:8 *759:A 8.52766e-05
15 *88:8 *907:A2 1.48748e-05
16 *88:8 *690:350 0.000144734
17 *88:31 *801:A 5.50027e-05
18 *88:31 *898:A2 6.08467e-05
19 *88:31 *907:A2 9.12416e-06
20 *88:31 *1143:RESET_B 2.78238e-05
21 *88:31 *1243:A 6.14128e-05
22 *88:31 *106:146 0.000224381
23 *88:31 *106:150 0.000408868
24 *88:31 *690:350 0
25 *1111:D *88:31 0
*RES
1 *759:Y *88:8 15.3044 
2 *88:8 *760:B2 19.2113 
3 *88:8 *88:31 24.8185 
4 *88:31 *802:A1 12.2151 
5 *88:31 *898:A1 9.24915 
*END

*D_NET *89 0.000341151
*CONN
*I *762:A1 I *D sky130_fd_sc_hd__a21oi_1
*I *761:Y O *D sky130_fd_sc_hd__inv_1
*CAP
1 *762:A1 3.05772e-05
2 *761:Y 3.05772e-05
3 *762:A1 *761:A 3.20984e-05
4 *762:A1 *762:A2 4.86342e-05
5 *762:A1 *765:B1 9.75148e-06
6 *762:A1 *1189:D 0.000189512
*RES
1 *761:Y *762:A1 20.6082 
*END

*D_NET *90 0.00018995
*CONN
*I *765:A2 I *D sky130_fd_sc_hd__a22oi_1
*I *762:Y O *D sky130_fd_sc_hd__a21oi_1
*CAP
1 *765:A2 4.53041e-05
2 *762:Y 4.53041e-05
3 *765:A2 *762:A2 3.01683e-06
4 *765:A2 *762:B1 7.34948e-06
5 *765:A2 *765:B1 5.28988e-05
6 *765:A2 *1189:D 3.60771e-05
*RES
1 *762:Y *765:A2 20.982 
*END

*D_NET *91 0.00281888
*CONN
*I *765:B1 I *D sky130_fd_sc_hd__a22oi_1
*I *763:Y O *D sky130_fd_sc_hd__a21oi_1
*CAP
1 *765:B1 0.00102805
2 *763:Y 0.00102805
3 *765:B1 *762:A2 9.98601e-05
4 *765:B1 *762:B1 1.00937e-05
5 *765:B1 *1189:D 6.4143e-06
6 *765:B1 *317:37 0.000583768
7 *762:A1 *765:B1 9.75148e-06
8 *765:A2 *765:B1 5.28988e-05
*RES
1 *763:Y *765:B1 38.0059 
*END

*D_NET *92 0.00265529
*CONN
*I *765:B2 I *D sky130_fd_sc_hd__a22oi_1
*I *900:A1 I *D sky130_fd_sc_hd__o211ai_1
*I *804:A1 I *D sky130_fd_sc_hd__a21oi_1
*I *764:Y O *D sky130_fd_sc_hd__inv_1
*CAP
1 *765:B2 0.000744147
2 *900:A1 1.93962e-05
3 *804:A1 0.000231963
4 *764:Y 0
5 *92:6 0.000424297
6 *92:4 0.000917085
7 *765:B2 *762:B1 0
8 *765:B2 *899:A 9.18685e-05
9 *765:B2 *317:12 3.67528e-06
10 *804:A1 *803:B 6.08467e-05
11 *804:A1 *900:A2 2.65831e-05
12 *900:A1 *900:B1 3.01683e-06
13 *92:6 *764:A 3.21692e-05
14 *92:6 *899:A 4.36228e-05
15 *92:6 *900:A2 2.65667e-05
16 *92:6 *900:B1 1.00937e-05
17 *92:6 *161:163 1.19721e-05
18 *1100:D *92:6 7.98425e-06
*RES
1 *764:Y *92:4 9.24915 
2 *92:4 *92:6 4.32832 
3 *92:6 *804:A1 14.4094 
4 *92:6 *900:A1 9.82786 
5 *92:4 *765:B2 35.3622 
*END

*D_NET *93 0.000377776
*CONN
*I *767:A1 I *D sky130_fd_sc_hd__a21oi_1
*I *766:Y O *D sky130_fd_sc_hd__inv_1
*CAP
1 *767:A1 9.90181e-05
2 *766:Y 9.90181e-05
3 *767:A1 *768:B1 8.75663e-05
4 *767:A1 *625:89 7.26606e-05
5 *767:A1 *698:34 1.95129e-05
*RES
1 *766:Y *767:A1 29.9157 
*END

*D_NET *94 0.000965613
*CONN
*I *770:A2 I *D sky130_fd_sc_hd__a22oi_1
*I *767:Y O *D sky130_fd_sc_hd__a21oi_1
*CAP
1 *770:A2 0.000156526
2 *767:Y 0.000156526
3 *770:A2 *767:B1 2.58757e-05
4 *770:A2 *768:B1 0.000141793
5 *770:A2 *770:B1 0.000141793
6 *770:A2 *813:A 6.27718e-05
7 *770:A2 *1231:A 6.51686e-05
8 *770:A2 *698:34 0.000215159
*RES
1 *767:Y *770:A2 34.3001 
*END

*D_NET *95 0.000901392
*CONN
*I *770:B1 I *D sky130_fd_sc_hd__a22oi_1
*I *768:Y O *D sky130_fd_sc_hd__a21oi_1
*CAP
1 *770:B1 0.000145357
2 *768:Y 0.000145357
3 *770:B1 *766:A 0.000175425
4 *770:B1 *768:B1 6.16586e-05
5 *770:B1 *770:B2 1.05504e-05
6 *770:B1 *690:93 0.000221251
7 *770:A2 *770:B1 0.000141793
*RES
1 *768:Y *770:B1 25.3706 
*END

*D_NET *96 0.00355105
*CONN
*I *770:B2 I *D sky130_fd_sc_hd__a22oi_1
*I *902:A1 I *D sky130_fd_sc_hd__o211ai_1
*I *806:A1 I *D sky130_fd_sc_hd__a21oi_1
*I *769:Y O *D sky130_fd_sc_hd__inv_1
*CAP
1 *770:B2 0.000175751
2 *902:A1 0.000231922
3 *806:A1 0.000339957
4 *769:Y 0
5 *96:8 0.000879477
6 *96:4 0.000483349
7 *770:B2 *690:93 5.69761e-05
8 *806:A1 *806:A2 0.000353694
9 *806:A1 *1099:RESET_B 0
10 *806:A1 *1158:RESET_B 0.000157479
11 *806:A1 *1457:A 1.59966e-05
12 *806:A1 *430:22 0.000436312
13 *902:A1 *901:B 0
14 *902:A1 *1099:RESET_B 0
15 *902:A1 *1156:RESET_B 3.75608e-05
16 *902:A1 *1158:RESET_B 8.96235e-05
17 *902:A1 *161:194 0
18 *96:8 *769:A 0.000184868
19 *770:B1 *770:B2 1.05504e-05
20 *1099:D *902:A1 9.75356e-05
*RES
1 *769:Y *96:4 9.24915 
2 *96:4 *96:8 11.6013 
3 *96:8 *806:A1 27.6235 
4 *96:8 *902:A1 21.0527 
5 *96:4 *770:B2 13.6257 
*END

*D_NET *97 0.00273257
*CONN
*I *1025:C I *D sky130_fd_sc_hd__nor3_1
*I *1027:B1 I *D sky130_fd_sc_hd__a21oi_1
*I *781:A I *D sky130_fd_sc_hd__nor2_1
*I *778:A I *D sky130_fd_sc_hd__nor2_1
*I *771:X O *D sky130_fd_sc_hd__xor2_1
*CAP
1 *1025:C 0
2 *1027:B1 0
3 *781:A 1.00834e-05
4 *778:A 6.23225e-05
5 *771:X 0.00023974
6 *97:18 0.000168745
7 *97:12 0.000166758
8 *97:8 0.000310159
9 *778:A *778:B 0.000178957
10 *778:A *781:B 5.53909e-05
11 *778:A *103:6 2.41483e-05
12 *781:A *780:A 7.32658e-06
13 *781:A *780:B 1.09551e-05
14 *781:A *781:B 4.80635e-06
15 *97:8 *1039:B 4.24488e-05
16 *97:8 *1180:D 6.08467e-05
17 *97:8 *285:8 0.000561457
18 *97:8 *588:18 6.08467e-05
19 *97:12 *1039:A 0.00011911
20 *97:12 *1180:RESET_B 0.000148754
21 *97:12 *588:18 6.01944e-06
22 *97:18 *780:B 2.65667e-05
23 *97:18 *781:B 9.82896e-06
24 *97:18 *1038:A 0.000172691
25 *97:18 *1180:RESET_B 0.0002212
26 *97:18 *103:6 5.0715e-05
27 *97:18 *588:18 1.2693e-05
*RES
1 *771:X *97:8 17.7611 
2 *97:8 *97:12 7.1625 
3 *97:12 *97:18 9.68626 
4 *97:18 *778:A 12.2151 
5 *97:18 *781:A 9.82786 
6 *97:12 *1027:B1 13.7491 
7 *97:8 *1025:C 9.24915 
*END

*D_NET *98 0.000690912
*CONN
*I *777:A1 I *D sky130_fd_sc_hd__a21oi_1
*I *772:X O *D sky130_fd_sc_hd__or2_0
*CAP
1 *777:A1 0.000186346
2 *772:X 0.000186346
3 *777:A1 *772:A 6.50586e-05
4 *777:A1 *779:A 0.000143667
5 *777:A1 *780:A 6.05979e-05
6 *777:A1 *589:14 4.88955e-05
*RES
1 *772:X *777:A1 23.6585 
*END

*D_NET *99 0.000561003
*CONN
*I *777:A2 I *D sky130_fd_sc_hd__a21oi_1
*I *773:Y O *D sky130_fd_sc_hd__nand2_1
*CAP
1 *777:A2 0.000220927
2 *773:Y 0.000220927
3 *777:A2 *773:B 6.78596e-05
4 *777:A2 *1027:A1 8.97566e-06
5 *777:A2 *100:14 6.78364e-06
6 *777:A2 *102:12 3.55296e-05
7 *777:A2 *589:10 0
8 *777:A2 *589:28 0
*RES
1 *773:Y *777:A2 31.9934 
*END

*D_NET *100 0.00102917
*CONN
*I *776:A I *D sky130_fd_sc_hd__nor2_1
*I *1027:A1 I *D sky130_fd_sc_hd__a21oi_1
*I *774:Y O *D sky130_fd_sc_hd__inv_1
*CAP
1 *776:A 1.51894e-05
2 *1027:A1 7.50405e-05
3 *774:Y 0.00021029
4 *100:14 0.00030052
5 *776:A *773:A 7.32658e-06
6 *776:A *773:B 1.09551e-05
7 *1027:A1 *1027:A2 6.50586e-05
8 *1027:A1 *101:8 0.000116764
9 *1027:A1 *102:12 6.12686e-06
10 *100:14 *773:B 1.81626e-05
11 *100:14 *774:A 3.4441e-05
12 *100:14 *1023:B 0
13 *100:14 *1024:A2 3.34833e-05
14 *100:14 *1025:B 5.46773e-06
15 *100:14 *101:8 0.000114584
16 *777:A2 *1027:A1 8.97566e-06
17 *777:A2 *100:14 6.78364e-06
*RES
1 *774:Y *100:14 22.9144 
2 *100:14 *1027:A1 11.6364 
3 *100:14 *776:A 9.82786 
*END

*D_NET *101 0.00155074
*CONN
*I *1023:B I *D sky130_fd_sc_hd__nor2_1
*I *776:B I *D sky130_fd_sc_hd__nor2_1
*I *1027:A2 I *D sky130_fd_sc_hd__a21oi_1
*I *775:Y O *D sky130_fd_sc_hd__nand3_1
*CAP
1 *1023:B 0.00010517
2 *776:B 0
3 *1027:A2 1.12245e-05
4 *775:Y 0.000267408
5 *101:12 5.09023e-05
6 *101:8 0.000412256
7 *1023:B *1025:A 0.000113254
8 *1023:B *1025:B 4.88645e-05
9 *1023:B *1180:RESET_B 3.3442e-05
10 *1027:A2 *102:12 1.84293e-05
11 *101:8 *773:A 0.000164829
12 *101:8 *773:B 7.02172e-06
13 *101:12 *1180:RESET_B 2.15266e-05
14 *1027:A1 *1027:A2 6.50586e-05
15 *1027:A1 *101:8 0.000116764
16 *100:14 *1023:B 0
17 *100:14 *101:8 0.000114584
*RES
1 *775:Y *101:8 18.3548 
2 *101:8 *101:12 5.50149 
3 *101:12 *1027:A2 9.97254 
4 *101:12 *776:B 9.24915 
5 *101:8 *1023:B 17.2744 
*END

*D_NET *102 0.000840485
*CONN
*I *777:B1 I *D sky130_fd_sc_hd__a21oi_1
*I *780:B I *D sky130_fd_sc_hd__nor2_1
*I *776:Y O *D sky130_fd_sc_hd__nor2_1
*CAP
1 *777:B1 0
2 *780:B 7.43175e-05
3 *776:Y 0.000158026
4 *102:12 0.000232343
5 *780:B *780:A 4.63115e-05
6 *780:B *781:B 8.03235e-05
7 *780:B *103:6 4.91225e-06
8 *102:12 *1180:RESET_B 0.000146645
9 *777:A2 *102:12 3.55296e-05
10 *781:A *780:B 1.09551e-05
11 *1027:A1 *102:12 6.12686e-06
12 *1027:A2 *102:12 1.84293e-05
13 *97:18 *780:B 2.65667e-05
*RES
1 *776:Y *102:12 22.1896 
2 *102:12 *780:B 12.2392 
3 *102:12 *777:B1 9.24915 
*END

*D_NET *103 0.00134699
*CONN
*I *1038:B I *D sky130_fd_sc_hd__nor2_1
*I *778:B I *D sky130_fd_sc_hd__nor2_1
*I *777:Y O *D sky130_fd_sc_hd__a21oi_1
*CAP
1 *1038:B 5.14237e-05
2 *778:B 0.000162455
3 *777:Y 0.000185333
4 *103:6 0.000399212
5 *778:B *1178:D 1.10813e-05
6 *1038:B *1038:A 3.74738e-05
7 *1038:B *588:18 6.28168e-05
8 *1038:B *697:45 0.000156823
9 *103:6 *780:A 2.16355e-05
10 *778:A *778:B 0.000178957
11 *778:A *103:6 2.41483e-05
12 *780:B *103:6 4.91225e-06
13 *97:18 *103:6 5.0715e-05
*RES
1 *777:Y *103:6 12.191 
2 *103:6 *778:B 13.7583 
3 *103:6 *1038:B 20.9116 
*END

*D_NET *104 0.000463451
*CONN
*I *780:A I *D sky130_fd_sc_hd__nor2_1
*I *779:Y O *D sky130_fd_sc_hd__inv_1
*CAP
1 *780:A 0.000131787
2 *779:Y 0.000131787
3 *780:A *779:A 6.40059e-05
4 *777:A1 *780:A 6.05979e-05
5 *780:B *780:A 4.63115e-05
6 *781:A *780:A 7.32658e-06
7 *103:6 *780:A 2.16355e-05
*RES
1 *779:Y *780:A 22.8507 
*END

*D_NET *105 0.000854149
*CONN
*I *781:B I *D sky130_fd_sc_hd__nor2_1
*I *1038:A I *D sky130_fd_sc_hd__nor2_1
*I *780:Y O *D sky130_fd_sc_hd__nor2_1
*CAP
1 *781:B 0.00014864
2 *1038:A 6.57189e-05
3 *780:Y 0.000214359
4 *1038:A *588:18 5.92342e-05
5 *1038:A *697:45 5.68225e-06
6 *778:A *781:B 5.53909e-05
7 *780:B *781:B 8.03235e-05
8 *781:A *781:B 4.80635e-06
9 *1038:B *1038:A 3.74738e-05
10 *97:18 *781:B 9.82896e-06
11 *97:18 *1038:A 0.000172691
*RES
1 *780:Y *1038:A 30.576 
2 *780:Y *781:B 22.2117 
*END

*D_NET *106 0.0635912
*CONN
*I *910:A I *D sky130_fd_sc_hd__nand2_1
*I *899:A I *D sky130_fd_sc_hd__nand2_1
*I *890:A I *D sky130_fd_sc_hd__nand2_1
*I *892:A I *D sky130_fd_sc_hd__nand2_1
*I *901:A I *D sky130_fd_sc_hd__nand2_1
*I *840:A I *D sky130_fd_sc_hd__nand2_1
*I *834:A I *D sky130_fd_sc_hd__nand2_1
*I *1059:A I *D sky130_fd_sc_hd__nand2_1
*I *1062:A I *D sky130_fd_sc_hd__nand2_1
*I *831:A I *D sky130_fd_sc_hd__nand2_1
*I *852:A I *D sky130_fd_sc_hd__nand2_1
*I *837:A I *D sky130_fd_sc_hd__nand2_1
*I *882:A I *D sky130_fd_sc_hd__nand2_1
*I *828:A I *D sky130_fd_sc_hd__inv_12
*I *849:A I *D sky130_fd_sc_hd__nand2_1
*I *843:A I *D sky130_fd_sc_hd__nand2_1
*I *870:A I *D sky130_fd_sc_hd__nand2_1
*I *864:A I *D sky130_fd_sc_hd__nand2_1
*I *876:A I *D sky130_fd_sc_hd__nand2_1
*I *1056:A I *D sky130_fd_sc_hd__nand2_1
*I *880:A I *D sky130_fd_sc_hd__nand2_1
*I *868:A I *D sky130_fd_sc_hd__nand2_1
*I *872:A I *D sky130_fd_sc_hd__nand2_1
*I *862:A I *D sky130_fd_sc_hd__nand2_1
*I *866:A I *D sky130_fd_sc_hd__nand2_1
*I *878:A I *D sky130_fd_sc_hd__nand2_1
*I *888:A I *D sky130_fd_sc_hd__nand2_1
*I *874:A I *D sky130_fd_sc_hd__nand2_1
*I *897:A I *D sky130_fd_sc_hd__nand2_1
*I *904:A I *D sky130_fd_sc_hd__nand2_1
*I *908:A I *D sky130_fd_sc_hd__nand2_1
*I *894:A I *D sky130_fd_sc_hd__nand2_1
*I *906:A I *D sky130_fd_sc_hd__nand2_1
*I *846:A I *D sky130_fd_sc_hd__nand2_1
*I *1055:B1 I *D sky130_fd_sc_hd__o21ai_0
*I *913:A I *D sky130_fd_sc_hd__nor2_4
*I *1070:A I *D sky130_fd_sc_hd__nand2_1
*I *784:C I *D sky130_fd_sc_hd__nor3_1
*I *1053:A2 I *D sky130_fd_sc_hd__a21oi_1
*I *884:A I *D sky130_fd_sc_hd__nand2_1
*I *783:Y O *D sky130_fd_sc_hd__nand2_8
*CAP
1 *910:A 2.08696e-05
2 *899:A 0.000396298
3 *890:A 0
4 *892:A 0
5 *901:A 3.12277e-05
6 *840:A 7.99094e-05
7 *834:A 0
8 *1059:A 0.000107031
9 *1062:A 0
10 *831:A 0.0004818
11 *852:A 3.31995e-05
12 *837:A 8.73156e-05
13 *882:A 3.6352e-05
14 *828:A 8.25113e-05
15 *849:A 0
16 *843:A 1.34341e-05
17 *870:A 6.85569e-05
18 *864:A 1.74886e-05
19 *876:A 1.97721e-05
20 *1056:A 9.8625e-05
21 *880:A 3.68165e-05
22 *868:A 3.82475e-05
23 *872:A 0.000127194
24 *862:A 0.000288432
25 *866:A 0.000320437
26 *878:A 1.99296e-05
27 *888:A 0.000352493
28 *874:A 5.17538e-05
29 *897:A 2.09826e-05
30 *904:A 0
31 *908:A 0.00043288
32 *894:A 6.35551e-05
33 *906:A 0
34 *846:A 0.000103557
35 *1055:B1 0
36 *913:A 0.00111928
37 *1070:A 0.000240719
38 *784:C 0
39 *1053:A2 8.0216e-05
40 *884:A 0.00024843
41 *783:Y 0.00024843
42 *106:537 0.000798402
43 *106:528 0.00234635
44 *106:505 0.00210762
45 *106:503 0.00131563
46 *106:499 0.00174025
47 *106:443 0.000547893
48 *106:441 0.000620971
49 *106:435 0.00054044
50 *106:431 0.00026926
51 *106:416 0.000524811
52 *106:401 0.000546925
53 *106:282 0.000698118
54 *106:271 0.000193252
55 *106:256 0.00059133
56 *106:252 0.000625067
57 *106:246 0.000846024
58 *106:242 0.000629588
59 *106:236 0.000392687
60 *106:232 0.00044615
61 *106:230 0.000381581
62 *106:224 0.000774792
63 *106:216 0.00080093
64 *106:212 0.000588236
65 *106:193 0.000604505
66 *106:189 0.000364805
67 *106:150 0.000738548
68 *106:146 0.000969272
69 *106:138 0.000866219
70 *106:120 6.35551e-05
71 *106:118 0.000445011
72 *106:112 0.00148969
73 *106:108 0.00137798
74 *106:93 0.000548161
75 *106:64 0.00108545
76 *106:49 0.000535232
77 *106:32 0.000567989
78 *106:26 0.000604235
79 *106:20 0.000579084
80 *828:A *1205:A 4.69273e-05
81 *828:A *535:10 3.87022e-06
82 *828:A *716:14 0.000198963
83 *831:A *831:B 0.000518497
84 *831:A *1061:A 0.000267306
85 *831:A *1061:B 6.46815e-05
86 *831:A *1062:B 5.03545e-06
87 *831:A *1063:A 6.24474e-06
88 *831:A *1126:CLK 2.16488e-05
89 *837:A *838:A 6.78626e-05
90 *837:A *1447:A 0.000113077
91 *840:A *833:A 1.19084e-06
92 *840:A *136:25 7.58989e-05
93 *843:A *1120:RESET_B 6.04813e-06
94 *846:A *845:B 1.59756e-05
95 *846:A *847:A 7.75949e-05
96 *852:A *853:B 1.55025e-05
97 *862:A *862:B 0.000481213
98 *862:A *867:B 7.41786e-05
99 *862:A *1115:CLK 0.000221534
100 *864:A *864:B 4.80635e-06
101 *864:A *1196:A 4.80635e-06
102 *866:A *866:B 9.38258e-05
103 *866:A *867:B 7.87337e-06
104 *866:A *1105:RESET_B 0.000119733
105 *868:A *881:B 0
106 *870:A tl_o[30] 0.000273809
107 *870:A *166:10 0.000191452
108 *872:A tl_o[38] 1.19856e-05
109 *872:A *872:B 3.73079e-05
110 *872:A *873:B 5.04829e-06
111 *872:A *691:226 8.26059e-05
112 *872:A *693:826 4.97328e-05
113 *874:A *874:B 0.000177515
114 *874:A *1473:A 4.89392e-05
115 *876:A *876:B 4.65954e-06
116 *878:A *879:B 1.41976e-05
117 *878:A *1209:A 6.50727e-05
118 *880:A *1066:A 3.01683e-06
119 *880:A *1110:CLK 5.76608e-05
120 *880:A *161:273 0
121 *888:A *888:B 0.000229746
122 *888:A *1043:B 3.2993e-05
123 *888:A *1115:CLK 8.52802e-05
124 *888:A *161:235 0.000517402
125 *888:A *161:244 2.24484e-05
126 *888:A *704:104 0
127 *894:A *894:B 0.000177096
128 *894:A *906:B 6.15617e-05
129 *894:A *907:B1 7.92757e-06
130 *899:A *764:A 0.000569739
131 *899:A *899:B 0
132 *899:A *161:163 0.000324166
133 *899:A *161:169 0
134 *899:A *175:48 0
135 *901:A *911:C1 4.80142e-05
136 *901:A *175:12 4.76567e-05
137 *908:A *898:A2 0.000141318
138 *908:A *904:B 1.64979e-05
139 *908:A *905:A1 7.97947e-05
140 *908:A *905:B1 0.000120637
141 *908:A *905:C1 1.51352e-05
142 *908:A *979:A 0.000138384
143 *908:A *1004:A 2.6874e-05
144 *908:A *1005:B 6.37652e-06
145 *908:A *1067:B1 6.73329e-06
146 *908:A *161:130 0.000388137
147 *908:A *175:90 0.000590319
148 *908:A *242:14 1.52478e-05
149 *910:A *911:C1 0
150 *913:A tl_o[19] 2.41274e-06
151 *913:A *1237:A 0.000504253
152 *1053:A2 *857:A1 1.61631e-05
153 *1056:A tl_o[43] 0.000136702
154 *1056:A *1056:B 1.03594e-05
155 *1056:A *1211:A 0.000104748
156 *1059:A *796:A 2.40615e-05
157 *1059:A *1060:B 4.04393e-05
158 *1070:A *1071:A 0
159 *1070:A *1452:A 7.45068e-05
160 *1070:A *311:39 0.000116014
161 *1070:A *400:12 0.000399435
162 *1070:A *559:14 1.92758e-05
163 *106:26 *783:A 0.000336399
164 *106:26 *1055:A2 0.000112367
165 *106:26 *1086:RESET_B 0
166 *106:26 *1301:A 2.58616e-05
167 *106:26 *1453:A 0.000130777
168 *106:26 *1512:A 1.00901e-05
169 *106:26 *1523:A 1.93511e-06
170 *106:26 *693:464 0
171 *106:32 cio_gpio_o[3] 0
172 *106:32 *856:A 0
173 *106:32 *1085:RESET_B 0
174 *106:32 *1265:A 3.31882e-05
175 *106:32 *693:412 6.10804e-05
176 *106:49 *786:A 0.000130014
177 *106:49 *856:A 0
178 *106:49 *857:A1 0.000307925
179 *106:49 *1265:A 0
180 *106:64 *784:B 2.57847e-05
181 *106:64 *856:A 0.0001542
182 *106:64 *856:B 2.01179e-05
183 *106:64 *856:C 1.15781e-05
184 *106:64 *107:8 5.04829e-06
185 *106:64 *400:12 0.000139817
186 *106:93 tl_o[51] 3.00174e-06
187 *106:93 *783:A 1.07248e-05
188 *106:93 *856:A 0
189 *106:93 *1453:A 0.000203042
190 *106:93 *136:42 0
191 *106:93 *693:464 0
192 *106:108 tl_o[51] 6.68687e-05
193 *106:108 *846:B 0.000129735
194 *106:108 *136:40 0
195 *106:112 *1121:CLK 8.49133e-05
196 *106:112 *1444:A 6.68457e-06
197 *106:118 *882:B 2.18698e-05
198 *106:118 *883:B 0.000207591
199 *106:118 *1097:RESET_B 9.83825e-05
200 *106:118 *693:505 3.21615e-05
201 *106:118 *716:14 0.000261076
202 *106:138 *1097:RESET_B 5.1573e-05
203 *106:138 *535:10 1.2819e-05
204 *106:138 *716:14 0.000206648
205 *106:146 intr_gpio_o[2] 3.07133e-05
206 *106:146 *808:B 0.000114523
207 *106:146 *809:B1 1.92172e-05
208 *106:146 *1111:CLK 6.08467e-05
209 *106:146 *535:10 2.01653e-05
210 *106:146 *690:350 0.000267404
211 *106:146 *709:22 0.000130641
212 *106:150 *897:B 6.08467e-05
213 *106:150 *898:A2 0.000279297
214 *106:150 *898:B1 7.82594e-05
215 *106:150 *898:C1 6.08467e-05
216 *106:150 *903:A 0.000187816
217 *106:150 *905:B1 6.08467e-05
218 *106:150 *184:6 9.56137e-05
219 *106:150 *690:376 0.000232973
220 *106:189 *535:10 0.000109888
221 *106:189 *716:14 0.000379871
222 *106:193 *874:B 0.000206696
223 *106:212 tl_o[52] 0.000297318
224 *106:212 *1120:CLK 3.61138e-05
225 *106:212 *1284:A 0
226 *106:212 *1494:A 0.000337351
227 *106:212 *493:16 0.00010797
228 *106:216 *842:A 5.7948e-05
229 *106:216 *842:B 6.08467e-05
230 *106:216 *850:B 4.92606e-05
231 *106:216 *1120:RESET_B 4.16407e-05
232 *106:224 *1120:RESET_B 0.000313885
233 *106:224 *540:14 0.00011307
234 *106:230 tl_o[30] 9.64718e-05
235 *106:230 *864:B 2.09985e-05
236 *106:230 *1196:A 5.58226e-05
237 *106:230 *166:10 9.98296e-05
238 *106:230 *540:14 2.15348e-05
239 *106:232 *864:B 5.56461e-05
240 *106:232 *865:B 0.000275256
241 *106:232 *876:B 9.49707e-05
242 *106:232 *1517:A 0.000113968
243 *106:232 *739:12 1.8078e-05
244 *106:236 tl_o[43] 1.03403e-05
245 *106:236 *876:B 4.87439e-05
246 *106:236 *877:A 0.000260374
247 *106:236 *877:B 9.26437e-05
248 *106:242 tl_o[27] 0
249 *106:242 tl_o[43] 8.16827e-05
250 *106:242 *1110:CLK 7.34948e-06
251 *106:242 *1211:A 8.07794e-05
252 *106:246 *881:B 0.000370801
253 *106:246 *1066:A 7.98425e-06
254 *106:246 *161:260 4.1307e-05
255 *106:252 *868:B 2.16355e-05
256 *106:252 *869:B 1.57023e-05
257 *106:252 *1112:RESET_B 0.000216299
258 *106:252 *161:254 0.000358038
259 *106:252 *161:260 7.89768e-05
260 *106:256 *873:B 0.000111722
261 *106:256 *161:254 0.000189753
262 *106:256 *693:826 4.70567e-05
263 *106:271 *867:A 0
264 *106:271 *873:B 1.12605e-05
265 *106:271 *1115:CLK 0.000179318
266 *106:271 *161:244 5.41377e-05
267 *106:271 *161:319 6.43474e-05
268 *106:282 *867:A 0
269 *106:282 *1115:CLK 0.000112153
270 *106:401 *1447:A 1.03594e-05
271 *106:416 tl_o[36] 4.75721e-06
272 *106:416 *796:A 1.03594e-05
273 *106:416 *836:B 0
274 *106:416 *1125:RESET_B 0
275 *106:416 *1447:A 5.0587e-05
276 *106:416 *136:36 0
277 *106:416 *136:38 0
278 *106:416 *544:10 0.000149244
279 *106:416 *550:10 0.000129676
280 *106:416 *693:471 0
281 *106:416 *693:478 0
282 *106:431 *796:A 0.000115976
283 *106:435 *833:A 3.13805e-06
284 *106:435 *835:A 3.16139e-05
285 *106:435 *136:14 5.04423e-06
286 *106:435 *136:25 7.01935e-06
287 *106:441 *796:A 0.000201887
288 *106:441 *833:B 0.000138453
289 *106:441 *1062:B 0
290 *106:441 *1126:RESET_B 0.000150238
291 *106:441 *1128:RESET_B 0
292 *106:441 *1448:A 6.95568e-05
293 *106:441 *551:12 1.03594e-05
294 *106:441 *693:548 0
295 *106:499 *929:A2 0
296 *106:499 *1089:RESET_B 0.000381425
297 *106:499 *1239:A 0.000238964
298 *106:499 *190:12 0.000194594
299 *106:499 *190:18 8.4688e-05
300 *106:499 *211:18 7.03112e-06
301 *106:499 *459:14 0
302 *106:503 *826:A0 1.37189e-05
303 *106:503 *826:A1 6.36477e-05
304 *106:503 *826:S 1.40978e-05
305 *106:503 *887:A 6.79231e-05
306 *106:503 *917:B1 0.000251655
307 *106:503 *919:A2 6.62158e-05
308 *106:503 *929:A1 5.04829e-06
309 *106:503 *953:B 5.03285e-05
310 *106:503 *175:10 0.00248521
311 *106:503 *190:18 4.58003e-05
312 *106:503 *192:10 0.000929161
313 *106:503 *192:14 4.0752e-05
314 *106:503 *192:125 0.000222149
315 *106:503 *690:59 4.22777e-05
316 *106:503 *691:35 5.59646e-05
317 *106:503 *691:39 8.62337e-05
318 *106:505 *911:A1 6.08467e-05
319 *106:505 *911:B1 4.23874e-05
320 *106:505 *911:C1 0.000180473
321 *106:505 *175:10 0.000214745
322 *106:505 *175:12 0.000364437
323 *106:528 *752:A 5.73541e-05
324 *106:528 *892:B 8.62625e-06
325 *106:528 *893:B1 0.000294468
326 *106:528 *997:B 0.000180784
327 *106:528 *1095:RESET_B 4.13804e-05
328 *106:528 *1095:CLK 7.86825e-06
329 *106:528 *161:194 0
330 *106:528 *175:26 0
331 *106:528 *582:19 2.09356e-05
332 *106:528 *691:56 0
333 *106:537 *752:A 5.22654e-06
334 *106:537 *764:A 0.000336193
335 *106:537 *892:B 0.000240119
336 *106:537 *1219:A 6.96592e-05
337 *106:537 *161:175 0
338 *106:537 *696:10 0
339 *765:B2 *899:A 9.18685e-05
340 *802:A1 *106:150 5.47093e-05
341 *1086:D *106:26 8.38209e-05
342 *1086:D *106:32 5.57012e-05
343 *1092:D *106:499 0
344 *1103:D *106:528 1.72855e-05
345 *1110:D *106:242 1.79807e-05
346 *1112:D *106:256 0.000103123
347 *1115:D *862:A 8.36586e-06
348 *1116:D *870:A 2.50929e-05
349 *1119:D *106:416 0
350 *1121:D *106:108 1.41336e-05
351 *1121:D *106:112 0.000106947
352 *1124:D *106:416 0.000169078
353 *1126:D *831:A 0.000122992
354 *1126:D *1059:A 0.000109227
355 *1126:D *106:443 3.61531e-05
356 *1143:D *106:150 0.000118166
357 *88:31 *106:146 0.000224381
358 *88:31 *106:150 0.000408868
359 *92:6 *899:A 4.36228e-05
*RES
1 *783:Y *884:A 24.6472 
2 *783:Y *106:20 13.7491 
3 *106:20 *106:26 15.915 
4 *106:26 *106:32 15.815 
5 *106:32 *1053:A2 11.1059 
6 *106:32 *106:49 15.9894 
7 *106:49 *784:C 9.24915 
8 *106:49 *106:64 13.0816 
9 *106:64 *1070:A 22.2574 
10 *106:64 *913:A 27.8071 
11 *106:26 *1055:B1 9.24915 
12 *106:20 *106:93 5.98452 
13 *106:93 *846:A 16.7392 
14 *106:93 *106:108 5.56926 
15 *106:108 *106:112 20.7523 
16 *106:112 *106:118 13.4263 
17 *106:118 *106:120 4.5 
18 *106:120 *906:A 9.24915 
19 *106:120 *894:A 12.2392 
20 *106:118 *106:138 3.70063 
21 *106:138 *106:146 22.9801 
22 *106:146 *106:150 14.6126 
23 *106:150 *908:A 35.9117 
24 *106:150 *904:A 9.24915 
25 *106:146 *897:A 9.82786 
26 *106:138 *106:189 6.6074 
27 *106:189 *106:193 8.55102 
28 *106:193 *874:A 11.6605 
29 *106:193 *106:212 22.9476 
30 *106:212 *106:216 4.62973 
31 *106:216 *106:224 15.3992 
32 *106:224 *106:230 8.1646 
33 *106:230 *106:232 8.48785 
34 *106:232 *106:236 9.66022 
35 *106:236 *106:242 8.30115 
36 *106:242 *106:246 7.95736 
37 *106:246 *106:252 12.0084 
38 *106:252 *106:256 10.7694 
39 *106:256 *888:A 26.4369 
40 *106:256 *106:271 3.493 
41 *106:271 *878:A 14.4725 
42 *106:271 *106:282 2.24725 
43 *106:282 *866:A 20.2356 
44 *106:282 *862:A 24.6421 
45 *106:252 *872:A 22.4655 
46 *106:246 *868:A 10.2378 
47 *106:242 *880:A 10.6477 
48 *106:236 *1056:A 17.135 
49 *106:232 *876:A 9.82786 
50 *106:230 *864:A 9.82786 
51 *106:224 *870:A 18.4879 
52 *106:216 *843:A 9.82786 
53 *106:212 *849:A 9.24915 
54 *106:189 *828:A 17.2421 
55 *106:112 *882:A 10.2378 
56 *106:108 *106:401 1.41674 
57 *106:401 *837:A 16.7392 
58 *106:401 *106:416 11.3828 
59 *106:416 *852:A 14.4725 
60 *106:416 *106:431 7.32596 
61 *106:431 *106:435 2.41132 
62 *106:435 *106:441 22.4591 
63 *106:441 *106:443 1.8326 
64 *106:443 *831:A 33.8576 
65 *106:443 *1062:A 9.24915 
66 *106:441 *1059:A 13.3484 
67 *106:435 *834:A 9.24915 
68 *106:431 *840:A 11.6605 
69 *913:A *106:499 37.5217 
70 *106:499 *106:503 44.5612 
71 *106:503 *106:505 7.93324 
72 *106:505 *901:A 10.6718 
73 *106:505 *106:528 24.7316 
74 *106:528 *892:A 13.7491 
75 *106:528 *106:537 13.4591 
76 *106:537 *890:A 13.7491 
77 *106:537 *899:A 27.9613 
78 *106:503 *910:A 9.82786 
*END

*D_NET *107 0.00160715
*CONN
*I *854:A I *D sky130_fd_sc_hd__clkinv_1
*I *787:A I *D sky130_fd_sc_hd__nand3_2
*I *784:Y O *D sky130_fd_sc_hd__nor3_1
*CAP
1 *854:A 8.87396e-05
2 *787:A 3.75699e-05
3 *784:Y 0.000304385
4 *107:8 0.000430695
5 *787:A *959:C 2.58757e-05
6 *787:A *459:14 6.08467e-05
7 *854:A *858:B1 5.27224e-05
8 *854:A *912:A 3.87022e-06
9 *854:A *459:14 4.04935e-05
10 *107:8 *786:A 3.0274e-05
11 *107:8 *787:B 2.74557e-05
12 *107:8 *787:C 0.000187897
13 *107:8 *109:6 0.000146431
14 *107:8 *116:27 0
15 *107:8 *157:8 0.000164843
16 *106:64 *107:8 5.04829e-06
*RES
1 *784:Y *107:8 18.171 
2 *107:8 *787:A 10.5271 
3 *107:8 *854:A 21.2198 
*END

*D_NET *108 0.00167203
*CONN
*I *787:B I *D sky130_fd_sc_hd__nand3_2
*I *857:A1 I *D sky130_fd_sc_hd__a21oi_1
*I *785:Y O *D sky130_fd_sc_hd__inv_1
*CAP
1 *787:B 0.000267332
2 *857:A1 0.000572308
3 *785:Y 0.000304975
4 *787:B *787:C 4.7712e-05
5 *857:A1 *785:A 2.01413e-05
6 *857:A1 *786:A 6.08467e-05
7 *857:A1 *1265:A 1.91391e-05
8 *857:A1 *693:412 2.80312e-05
9 *1053:A2 *857:A1 1.61631e-05
10 *106:49 *857:A1 0.000307925
11 *107:8 *787:B 2.74557e-05
*RES
1 *785:Y *857:A1 35.6224 
2 *857:A1 *787:B 22.9833 
*END

*D_NET *109 0.000652876
*CONN
*I *857:A2 I *D sky130_fd_sc_hd__a21oi_1
*I *787:C I *D sky130_fd_sc_hd__nand3_2
*I *786:Y O *D sky130_fd_sc_hd__inv_1
*CAP
1 *857:A2 1.19825e-05
2 *787:C 6.88289e-05
3 *786:Y 2.28331e-05
4 *109:6 0.000103644
5 *109:6 *786:A 6.35467e-05
6 *787:B *787:C 4.7712e-05
7 *107:8 *787:C 0.000187897
8 *107:8 *109:6 0.000146431
*RES
1 *786:Y *109:6 10.8044 
2 *109:6 *787:C 12.3839 
3 *109:6 *857:A2 9.82786 
*END

*D_NET *110 0.00422488
*CONN
*I *793:A2 I *D sky130_fd_sc_hd__o21ai_2
*I *794:A I *D sky130_fd_sc_hd__nor2_1
*I *959:C I *D sky130_fd_sc_hd__nor4_4
*I *787:Y O *D sky130_fd_sc_hd__nand3_2
*CAP
1 *793:A2 8.60368e-05
2 *794:A 0.000362817
3 *959:C 0.000362489
4 *787:Y 0
5 *110:17 0.00065519
6 *110:4 0.000568825
7 *793:A2 *1085:RESET_B 0.000191279
8 *793:A2 *116:18 5.51617e-05
9 *794:A cio_gpio_o[3] 0.000269548
10 *794:A *794:B 2.89547e-05
11 *794:A *1085:CLK 0.000111722
12 *794:A *1246:A 0.000125395
13 *959:C *794:B 0.000116764
14 *959:C *959:B 1.78769e-05
15 *959:C *959:D 0
16 *959:C *115:10 0.000118166
17 *959:C *116:18 1.88422e-05
18 *959:C *116:27 0.000639085
19 *959:C *159:8 0.000111708
20 *959:C *459:14 1.55915e-05
21 *959:C *459:32 2.8212e-05
22 *110:17 *858:B1 0
23 *110:17 *912:A 2.95757e-05
24 *110:17 *1053:A1 0
25 *110:17 *1053:B1 0
26 *110:17 *1085:RESET_B 5.92192e-05
27 *110:17 *116:18 7.8406e-05
28 *110:17 *159:23 0.000148144
29 *110:17 *693:412 0
30 *787:A *959:C 2.58757e-05
*RES
1 *787:Y *110:4 9.24915 
2 *110:4 *959:C 21.4987 
3 *110:4 *110:17 10.8998 
4 *110:17 *794:A 25.5887 
5 *110:17 *793:A2 17.2421 
*END

*D_NET *111 0.0126035
*CONN
*I *916:B1 I *D sky130_fd_sc_hd__o21ai_0
*I *921:B1 I *D sky130_fd_sc_hd__o21ai_0
*I *931:B1 I *D sky130_fd_sc_hd__o21ai_0
*I *789:B I *D sky130_fd_sc_hd__nor2_4
*I *926:B1 I *D sky130_fd_sc_hd__o21ai_0
*I *944:A1 I *D sky130_fd_sc_hd__a32oi_1
*I *937:A1 I *D sky130_fd_sc_hd__a21oi_1
*I *938:A1 I *D sky130_fd_sc_hd__a31oi_1
*I *942:B1 I *D sky130_fd_sc_hd__o21ai_0
*I *948:A1 I *D sky130_fd_sc_hd__a21oi_1
*I *954:A1 I *D sky130_fd_sc_hd__a21oi_1
*I *788:Y O *D sky130_fd_sc_hd__inv_4
*CAP
1 *916:B1 0
2 *921:B1 0
3 *931:B1 0.000382992
4 *789:B 0.000131283
5 *926:B1 3.6352e-05
6 *944:A1 0.000318574
7 *937:A1 0
8 *938:A1 3.37551e-05
9 *942:B1 0.000142046
10 *948:A1 8.33201e-05
11 *954:A1 0
12 *788:Y 0.000231362
13 *111:120 0.000525808
14 *111:116 0.000555136
15 *111:99 0.00117345
16 *111:74 0.000489647
17 *111:55 0.00030293
18 *111:40 0.000316358
19 *111:29 0.00028026
20 *111:20 0.000312717
21 *111:14 0.000348309
22 *111:12 0.000981173
23 *789:B *952:A1 0
24 *789:B *952:B1 8.15814e-05
25 *789:B *387:36 0
26 *931:B1 *921:A1 6.08467e-05
27 *931:B1 *922:B1 7.01935e-06
28 *931:B1 *932:B1 6.98337e-06
29 *931:B1 *1064:A0 0.000357395
30 *931:B1 *1064:A1 8.60162e-05
31 *931:B1 *1478:A 6.27782e-05
32 *931:B1 *690:39 0.000623686
33 *938:A1 *938:A2 2.16355e-05
34 *942:B1 *942:A1 0.000346887
35 *942:B1 *968:A1 0.000112367
36 *942:B1 *213:8 5.31465e-05
37 *942:B1 *228:14 0.000314162
38 *942:B1 *228:18 8.85317e-05
39 *944:A1 *937:A2 6.5568e-05
40 *944:A1 *944:B2 0.000210844
41 *944:A1 *459:32 0.00023711
42 *948:A1 *948:A2 2.77625e-06
43 *948:A1 *948:B1 5.04829e-06
44 *948:A1 *968:A0 6.50727e-05
45 *111:12 *112:21 0
46 *111:12 *192:40 0
47 *111:12 *311:6 1.71948e-05
48 *111:14 *202:12 1.04291e-05
49 *111:20 *927:B1 6.27718e-05
50 *111:20 *955:B 0.000111768
51 *111:20 *192:40 0.000262843
52 *111:20 *202:12 3.01368e-06
53 *111:29 *955:B 1.23455e-05
54 *111:29 *968:A0 3.31733e-05
55 *111:29 *968:A1 0.000259516
56 *111:29 *192:40 0.000244342
57 *111:29 *192:42 7.8756e-07
58 *111:40 *968:A0 7.04109e-05
59 *111:40 *968:A1 6.17846e-05
60 *111:40 *192:42 3.87022e-06
61 *111:40 *192:57 3.87022e-06
62 *111:40 *459:47 2.44579e-05
63 *111:55 *936:A1 0.0001195
64 *111:55 *192:57 4.59656e-05
65 *111:55 *459:47 2.6655e-05
66 *111:74 *936:A1 0.000124804
67 *111:74 *938:B1 5.96611e-05
68 *111:74 *192:57 5.18062e-06
69 *111:74 *459:32 1.97124e-05
70 *111:99 *1088:CLK 2.26941e-05
71 *111:99 *202:12 2.19798e-05
72 *111:116 *952:B1 8.10199e-05
73 *111:116 *202:12 1.52614e-05
74 *111:116 *387:21 1.07248e-05
75 *111:116 *387:36 0.000407635
76 *111:116 *699:16 0
77 *111:120 *921:A2 0.000162673
78 *111:120 *387:21 0.000393329
79 *111:120 *699:16 0
80 *1088:D *789:B 0.000312229
81 *1088:D *111:99 0.000136972
*RES
1 *788:Y *111:12 23.023 
2 *111:12 *111:14 1.8326 
3 *111:14 *111:20 10.5168 
4 *111:20 *954:A1 13.7491 
5 *111:20 *111:29 5.56926 
6 *111:29 *948:A1 15.0271 
7 *111:29 *111:40 2.24725 
8 *111:40 *942:B1 21.8753 
9 *111:40 *111:55 3.493 
10 *111:55 *938:A1 14.4725 
11 *111:55 *111:74 8.78968 
12 *111:74 *937:A1 9.24915 
13 *111:74 *944:A1 17.7852 
14 *111:14 *926:B1 10.2378 
15 *111:12 *111:99 9.59705 
16 *111:99 *789:B 23.8184 
17 *111:99 *111:116 15.0873 
18 *111:116 *111:120 11.315 
19 *111:120 *931:B1 23.6688 
20 *111:120 *921:B1 9.24915 
21 *111:116 *916:B1 13.7491 
*END

*D_NET *112 0.0102517
*CONN
*I *885:C I *D sky130_fd_sc_hd__nand3_1
*I *895:C I *D sky130_fd_sc_hd__nand3_1
*I *791:A1 I *D sky130_fd_sc_hd__a21boi_0
*I *795:B I *D sky130_fd_sc_hd__nand2_1
*I *956:A2 I *D sky130_fd_sc_hd__a21oi_1
*I *887:B I *D sky130_fd_sc_hd__nand2_4
*I *950:A2 I *D sky130_fd_sc_hd__a21oi_1
*I *789:Y O *D sky130_fd_sc_hd__nor2_4
*CAP
1 *885:C 1.96082e-05
2 *895:C 0.00018588
3 *791:A1 0.000911822
4 *795:B 2.43095e-05
5 *956:A2 0
6 *887:B 0.000123238
7 *950:A2 5.11244e-05
8 *789:Y 0
9 *112:73 0.000357497
10 *112:56 0.00115907
11 *112:45 0.00104735
12 *112:21 0.000477291
13 *112:8 0.000630354
14 *112:4 0.00115298
15 *791:A1 *793:A1 0.000112367
16 *791:A1 *1102:RESET_B 0.000298797
17 *791:A1 *1292:A 0.00079922
18 *791:A1 *419:12 2.69346e-05
19 *791:A1 *693:357 9.65701e-05
20 *795:B *1033:A1 6.27782e-05
21 *885:C *885:B 2.58757e-05
22 *885:C *136:96 1.61631e-05
23 *887:B *953:A 0.00014612
24 *887:B *956:A1 0.000198788
25 *887:B *192:10 6.50727e-05
26 *895:C *755:A 0.000136138
27 *895:C *758:A2 2.65667e-05
28 *895:C *885:B 1.94203e-05
29 *895:C *895:B 6.50586e-05
30 *895:C *1102:RESET_B 1.77537e-06
31 *895:C *1102:CLK 3.76685e-05
32 *895:C *136:96 1.09551e-05
33 *950:A2 *789:A 2.57847e-05
34 *950:A2 *950:A1 0
35 *950:A2 *954:A2 0
36 *112:8 *789:A 0.000122239
37 *112:8 *952:A2 7.6719e-06
38 *112:8 *1480:A 6.50586e-05
39 *112:8 *311:39 0.000134659
40 *112:21 *947:B 9.04668e-05
41 *112:21 *953:A 0.000155629
42 *112:21 *192:40 0
43 *112:21 *460:72 1.75024e-05
44 *112:21 *625:132 0
45 *112:45 *795:A 1.74019e-05
46 *112:45 *941:A 4.52923e-05
47 *112:45 *952:A1 0
48 *112:45 *1454:A 6.23488e-05
49 *112:45 *136:100 0
50 *112:45 *136:106 0
51 *112:45 *228:14 0.000276111
52 *112:45 *228:160 0.000257388
53 *112:45 *311:39 3.28727e-05
54 *112:45 *460:38 9.97824e-05
55 *112:45 *625:139 0
56 *112:45 *701:40 9.19273e-06
57 *112:45 *701:64 3.07997e-05
58 *112:56 *795:A 1.59362e-06
59 *112:73 *1102:CLK 7.98523e-05
60 *756:B *895:C 0
61 *1088:D *112:45 9.75356e-05
62 *1089:D *112:45 6.44557e-05
63 *1102:D *112:73 7.98523e-05
64 *84:8 *895:C 0.000191397
65 *111:12 *112:21 0
*RES
1 *789:Y *112:4 9.24915 
2 *112:4 *112:8 6.29355 
3 *112:8 *950:A2 10.5513 
4 *112:8 *112:21 13.8065 
5 *112:21 *887:B 18.3808 
6 *112:21 *956:A2 13.7491 
7 *112:4 *112:45 29.8943 
8 *112:45 *795:B 14.4725 
9 *112:45 *112:56 2.24725 
10 *112:56 *791:A1 34.0766 
11 *112:56 *112:73 9.23876 
12 *112:73 *895:C 24.601 
13 *112:73 *885:C 9.97254 
*END

*D_NET *113 0.00158443
*CONN
*I *791:A2 I *D sky130_fd_sc_hd__a21boi_0
*I *790:Y O *D sky130_fd_sc_hd__nand2_1
*CAP
1 *791:A2 0.000644565
2 *790:Y 0.000644565
3 *791:A2 *1268:A 0
4 *791:A2 *1292:A 0.000213488
5 *791:A2 *1301:A 8.1808e-05
*RES
1 *790:Y *791:A2 41.3145 
*END

*D_NET *114 0.000540514
*CONN
*I *793:A1 I *D sky130_fd_sc_hd__o21ai_2
*I *791:Y O *D sky130_fd_sc_hd__a21boi_0
*CAP
1 *793:A1 0.000155747
2 *791:Y 0.000155747
3 *793:A1 *1085:RESET_B 0.000116652
4 *791:A1 *793:A1 0.000112367
*RES
1 *791:Y *793:A1 31.0235 
*END

*D_NET *115 0.00226308
*CONN
*I *793:B1 I *D sky130_fd_sc_hd__o21ai_2
*I *860:C I *D sky130_fd_sc_hd__nand3_1
*I *792:Y O *D sky130_fd_sc_hd__nand2_1
*CAP
1 *793:B1 0.000407687
2 *860:C 0
3 *792:Y 0.000172868
4 *115:10 0.000580555
5 *793:B1 *794:B 0
6 *793:B1 *1085:CLK 0.000237521
7 *793:B1 *1512:A 0.000602401
8 *793:B1 *116:18 2.44599e-05
9 *793:B1 *734:16 5.13389e-05
10 *115:10 *794:B 0
11 *115:10 *860:B 6.80864e-05
12 *115:10 *116:18 0
13 *959:C *115:10 0.000118166
14 *1085:D *793:B1 0
*RES
1 *792:Y *115:10 18.1049 
2 *115:10 *860:C 13.7491 
3 *115:10 *793:B1 27.3882 
*END

*D_NET *116 0.00375073
*CONN
*I *959:D I *D sky130_fd_sc_hd__nor4_4
*I *794:B I *D sky130_fd_sc_hd__nor2_1
*I *859:B I *D sky130_fd_sc_hd__nand2_1
*I *793:Y O *D sky130_fd_sc_hd__o21ai_2
*CAP
1 *959:D 2.11312e-05
2 *794:B 0.000312504
3 *859:B 0
4 *793:Y 0.000451265
5 *116:27 0.000433932
6 *116:18 0.000551561
7 *794:B *795:A 1.21461e-06
8 *794:B *1246:A 0.000278783
9 *794:B *386:36 9.77204e-05
10 *794:B *459:32 5.30717e-05
11 *116:18 *792:A 5.03545e-06
12 *116:18 *859:A 8.36586e-06
13 *116:18 *860:B 7.66102e-06
14 *116:18 *912:A 5.33395e-05
15 *116:18 *159:23 0.000139517
16 *116:18 *459:14 6.46815e-05
17 *116:27 *792:B 3.13805e-06
18 *116:27 *459:14 5.62568e-05
19 *116:27 *459:32 0.000207179
20 *793:A2 *116:18 5.51617e-05
21 *793:B1 *794:B 0
22 *793:B1 *116:18 2.44599e-05
23 *794:A *794:B 2.89547e-05
24 *959:C *794:B 0.000116764
25 *959:C *959:D 0
26 *959:C *116:18 1.88422e-05
27 *959:C *116:27 0.000639085
28 *1085:D *116:18 4.27003e-05
29 *107:8 *116:27 0
30 *110:17 *116:18 7.8406e-05
31 *115:10 *794:B 0
32 *115:10 *116:18 0
*RES
1 *793:Y *116:18 30.8761 
2 *116:18 *859:B 9.24915 
3 *116:18 *116:27 7.40275 
4 *116:27 *794:B 28.4776 
5 *116:27 *959:D 9.82786 
*END

*D_NET *117 0.000836819
*CONN
*I *795:A I *D sky130_fd_sc_hd__nand2_1
*I *794:Y O *D sky130_fd_sc_hd__nor2_1
*CAP
1 *795:A 0.0002729
2 *794:Y 0.0002729
3 *795:A *1246:A 6.02078e-06
4 *795:A *1454:A 7.73661e-05
5 *795:A *136:100 0.000144269
6 *795:A *734:16 4.31539e-05
7 *794:B *795:A 1.21461e-06
8 *112:45 *795:A 1.74019e-05
9 *112:56 *795:A 1.59362e-06
*RES
1 *794:Y *795:A 33.1026 
*END

*D_NET *118 0.00056905
*CONN
*I *1454:A I *D sky130_fd_sc_hd__buf_4
*I *795:Y O *D sky130_fd_sc_hd__nand2_1
*CAP
1 *1454:A 8.37433e-05
2 *795:Y 8.37433e-05
3 *1454:A *136:100 2.97007e-05
4 *1454:A *690:6 0.00011818
5 *1454:A *734:16 0.000113968
6 *795:A *1454:A 7.73661e-05
7 *112:45 *1454:A 6.23488e-05
*RES
1 *795:Y *1454:A 31.4388 
*END

*D_NET *120 0.000503431
*CONN
*I *798:B1 I *D sky130_fd_sc_hd__a21oi_1
*I *797:Y O *D sky130_fd_sc_hd__nor2_1
*CAP
1 *798:B1 0.000113449
2 *797:Y 0.000113449
3 *798:B1 *798:A2 0.000112228
4 *798:B1 *885:B 5.12333e-05
5 *798:A1 *798:B1 0.00011307
*RES
1 *797:Y *798:B1 21.9947 
*END

*D_NET *121 0.00074472
*CONN
*I *802:B1 I *D sky130_fd_sc_hd__a21oi_1
*I *801:Y O *D sky130_fd_sc_hd__nor2_1
*CAP
1 *802:B1 0.00020474
2 *801:Y 0.00020474
3 *802:B1 *801:B 2.41274e-06
4 *802:B1 *903:A 1.4476e-05
5 *802:B1 *1032:B1 7.50722e-05
6 *802:B1 *1143:CLK 0.000143886
7 *802:B1 *690:338 2.29287e-05
8 *1143:D *802:B1 7.64641e-05
*RES
1 *801:Y *802:B1 33.3757 
*END

*D_NET *122 0.00042446
*CONN
*I *804:B1 I *D sky130_fd_sc_hd__a21oi_1
*I *803:Y O *D sky130_fd_sc_hd__nor2_1
*CAP
1 *804:B1 6.244e-05
2 *803:Y 6.244e-05
3 *804:B1 *803:A 2.99287e-05
4 *804:B1 *803:B 0.000265476
5 *1142:D *804:B1 4.17531e-06
*RES
1 *803:Y *804:B1 21.4401 
*END

*D_NET *123 0.000693582
*CONN
*I *806:B1 I *D sky130_fd_sc_hd__a21oi_1
*I *805:Y O *D sky130_fd_sc_hd__nor2_1
*CAP
1 *806:B1 0.000167453
2 *805:Y 0.000167453
3 *806:B1 *1149:CLK 0
4 *806:B1 *1158:RESET_B 0.000103412
5 *806:B1 *1503:A 0.00013214
6 *806:B1 *430:22 0.000108726
7 *1141:D *806:B1 1.43983e-05
*RES
1 *805:Y *806:B1 34.2062 
*END

*D_NET *124 0.000985471
*CONN
*I *907:A1 I *D sky130_fd_sc_hd__o211ai_1
*I *809:A1 I *D sky130_fd_sc_hd__a21oi_1
*I *807:Y O *D sky130_fd_sc_hd__inv_1
*CAP
1 *907:A1 9.64805e-05
2 *809:A1 0.000212424
3 *807:Y 0
4 *124:4 0.000308904
5 *809:A1 *757:A 2.20593e-05
6 *809:A1 *809:B1 0.000159719
7 *809:A1 *161:96 7.06457e-06
8 *809:A1 *371:14 8.10303e-05
9 *907:A1 *161:96 2.81043e-05
10 *1111:D *809:A1 6.96846e-05
*RES
1 *807:Y *124:4 9.24915 
2 *124:4 *809:A1 22.4992 
3 *124:4 *907:A1 11.2385 
*END

*D_NET *125 0.000621007
*CONN
*I *809:B1 I *D sky130_fd_sc_hd__a21oi_1
*I *808:Y O *D sky130_fd_sc_hd__nor2_1
*CAP
1 *809:B1 8.73688e-05
2 *808:Y 8.73688e-05
3 *809:B1 *808:B 9.90203e-05
4 *809:B1 *690:350 0.000168313
5 *809:A1 *809:B1 0.000159719
6 *106:146 *809:B1 1.92172e-05
*RES
1 *808:Y *809:B1 21.9947 
*END

*D_NET *126 0.00340102
*CONN
*I *909:A1 I *D sky130_fd_sc_hd__o211ai_1
*I *812:A1 I *D sky130_fd_sc_hd__a21oi_1
*I *810:Y O *D sky130_fd_sc_hd__inv_1
*CAP
1 *909:A1 0.00118377
2 *812:A1 0.000157194
3 *810:Y 0
4 *126:4 0.00134096
5 *812:A1 *1162:CLK 0.000134222
6 *812:A1 *690:166 9.81288e-06
7 *812:A1 *690:184 3.23546e-05
8 *909:A1 *977:A 0
9 *909:A1 *1075:RESET_B 0
10 *909:A1 *1160:RESET_B 0.000127179
11 *909:A1 *1162:CLK 7.43837e-05
12 *909:A1 *1166:RESET_B 0
13 *909:A1 *161:142 0
14 *909:A1 *603:14 5.11107e-05
15 *909:A1 *690:166 1.4106e-05
16 *909:A1 *691:310 0.000218951
17 *909:A1 *691:332 5.69809e-05
18 *909:A1 *703:52 0
19 *909:A1 *703:73 0
*RES
1 *810:Y *126:4 9.24915 
2 *126:4 *812:A1 11.9137 
3 *126:4 *909:A1 48.6278 
*END

*D_NET *127 0.00246518
*CONN
*I *812:B1 I *D sky130_fd_sc_hd__a21oi_1
*I *811:Y O *D sky130_fd_sc_hd__nor2_1
*CAP
1 *812:B1 0.000889447
2 *811:Y 0.000889447
3 *812:B1 *690:166 7.62098e-06
4 *812:B1 *690:184 0.000671645
5 *812:B1 *690:186 7.01935e-06
*RES
1 *811:Y *812:B1 37.0413 
*END

*D_NET *128 0.002937
*CONN
*I *815:A1 I *D sky130_fd_sc_hd__a21oi_1
*I *911:A1 I *D sky130_fd_sc_hd__o211ai_1
*I *813:Y O *D sky130_fd_sc_hd__inv_1
*CAP
1 *815:A1 0
2 *911:A1 0.000261828
3 *813:Y 0.000245069
4 *128:8 0.000506897
5 *911:A1 *901:B 0.000197539
6 *911:A1 *911:C1 6.08467e-05
7 *911:A1 *1095:RESET_B 1.90335e-05
8 *911:A1 *1227:A 0.00052407
9 *911:A1 *690:93 1.80303e-05
10 *911:A1 *692:28 0.000709075
11 *128:8 *813:A 3.20544e-05
12 *128:8 *1129:RESET_B 0.000147061
13 *128:8 *690:93 6.27718e-05
14 *128:8 *690:97 2.43327e-05
15 *128:8 *692:28 6.75398e-05
16 *106:505 *911:A1 6.08467e-05
*RES
1 *813:Y *128:8 16.3746 
2 *128:8 *911:A1 32.4316 
3 *128:8 *815:A1 9.24915 
*END

*D_NET *129 0.000442858
*CONN
*I *815:B1 I *D sky130_fd_sc_hd__a21oi_1
*I *814:Y O *D sky130_fd_sc_hd__nor2_1
*CAP
1 *815:B1 3.94359e-05
2 *814:Y 3.94359e-05
3 *815:B1 *814:A 0.000114584
4 *815:B1 *1186:RESET_B 3.95326e-05
5 *815:B1 *690:97 0.000209869
*RES
1 *814:Y *815:B1 20.8855 
*END

*D_NET *130 0.0011965
*CONN
*I *889:A1 I *D sky130_fd_sc_hd__o211ai_1
*I *818:A1 I *D sky130_fd_sc_hd__a21oi_1
*I *816:Y O *D sky130_fd_sc_hd__inv_1
*CAP
1 *889:A1 0.000135467
2 *818:A1 0.00026692
3 *816:Y 5.6662e-05
4 *130:6 0.000459049
5 *818:A1 *818:A2 6.78549e-05
6 *889:A1 *1011:B 0
7 *889:A1 *175:83 7.40084e-05
8 *889:A1 *379:10 1.77631e-05
9 *889:A1 *379:16 1.82832e-05
10 *130:6 *816:A 6.54015e-05
11 *130:6 *175:83 5.59543e-06
12 *1105:D *889:A1 2.94933e-05
*RES
1 *816:Y *130:6 10.8044 
2 *130:6 *818:A1 14.964 
3 *130:6 *889:A1 22.5727 
*END

*D_NET *131 0.00110972
*CONN
*I *818:B1 I *D sky130_fd_sc_hd__a21oi_1
*I *817:Y O *D sky130_fd_sc_hd__nor2_1
*CAP
1 *818:B1 0.000341248
2 *817:Y 0.000341248
3 *818:B1 *1168:RESET_B 0.000314112
4 *818:B1 *1168:CLK 1.19751e-05
5 *818:B1 *1169:D 0.000101133
6 *818:B1 *175:71 0
*RES
1 *817:Y *818:B1 33.9359 
*END

*D_NET *132 0.00140351
*CONN
*I *891:A1 I *D sky130_fd_sc_hd__o211ai_1
*I *821:A1 I *D sky130_fd_sc_hd__a21oi_1
*I *819:Y O *D sky130_fd_sc_hd__inv_1
*CAP
1 *891:A1 7.89011e-05
2 *821:A1 0.000527932
3 *819:Y 0
4 *132:4 0.000606833
5 *821:A1 *819:A 9.65956e-06
6 *821:A1 *820:A 3.44412e-06
7 *821:A1 *1174:D 6.32762e-05
8 *821:A1 *1175:RESET_B 2.22749e-05
9 *821:A1 *692:227 1.58236e-05
10 *891:A1 *692:227 7.53632e-05
*RES
1 *819:Y *132:4 9.24915 
2 *132:4 *821:A1 26.9038 
3 *132:4 *891:A1 12.1548 
*END

*D_NET *133 0.000178272
*CONN
*I *821:B1 I *D sky130_fd_sc_hd__a21oi_1
*I *820:Y O *D sky130_fd_sc_hd__nor2_1
*CAP
1 *821:B1 3.44057e-05
2 *820:Y 3.44057e-05
3 *821:B1 *820:A 6.27718e-05
4 *821:B1 *820:B 4.66889e-05
*RES
1 *820:Y *821:B1 19.7763 
*END

*D_NET *134 0.00267673
*CONN
*I *824:A1 I *D sky130_fd_sc_hd__a21oi_1
*I *893:A1 I *D sky130_fd_sc_hd__o211ai_1
*I *822:Y O *D sky130_fd_sc_hd__inv_1
*CAP
1 *824:A1 0.00080217
2 *893:A1 0
3 *822:Y 0.000165437
4 *134:12 0.000967606
5 *824:A1 *1133:RESET_B 0
6 *824:A1 *1181:CLK 5.40632e-05
7 *824:A1 *175:37 0
8 *824:A1 *582:10 7.29927e-06
9 *824:A1 *690:245 0.000305881
10 *824:A1 *692:198 9.43419e-05
11 *824:A1 *696:20 0.000199426
12 *134:12 *822:A 7.0148e-05
13 *134:12 *893:A2 1.03594e-05
14 *134:12 *692:189 0
*RES
1 *822:Y *134:12 21.9123 
2 *134:12 *893:A1 9.24915 
3 *134:12 *824:A1 34.846 
*END

*D_NET *135 0.000135525
*CONN
*I *824:B1 I *D sky130_fd_sc_hd__a21oi_1
*I *823:Y O *D sky130_fd_sc_hd__nor2_1
*CAP
1 *824:B1 3.99396e-05
2 *823:Y 3.99396e-05
3 *824:B1 *823:B 5.56461e-05
*RES
1 *823:Y *824:B1 19.7763 
*END

*D_NET *136 0.0338542
*CONN
*I *829:A I *D sky130_fd_sc_hd__nand2_1
*I *1061:A I *D sky130_fd_sc_hd__nand2_1
*I *848:A I *D sky130_fd_sc_hd__nand2_1
*I *842:A I *D sky130_fd_sc_hd__nand2_1
*I *1058:A I *D sky130_fd_sc_hd__nand2_1
*I *851:A I *D sky130_fd_sc_hd__nand2_1
*I *836:A I *D sky130_fd_sc_hd__nand2_1
*I *845:A I *D sky130_fd_sc_hd__nand2_1
*I *885:A I *D sky130_fd_sc_hd__nand3_1
*I *861:B I *D sky130_fd_sc_hd__nand2_8
*I *939:B I *D sky130_fd_sc_hd__nor2_1
*I *928:B I *D sky130_fd_sc_hd__nor2_1
*I *918:B I *D sky130_fd_sc_hd__nor2_1
*I *933:B I *D sky130_fd_sc_hd__nor2_1
*I *923:B I *D sky130_fd_sc_hd__nor2_1
*I *957:B I *D sky130_fd_sc_hd__nor2_1
*I *951:B I *D sky130_fd_sc_hd__nor2_1
*I *887:A I *D sky130_fd_sc_hd__nand2_4
*I *945:B I *D sky130_fd_sc_hd__nor2_1
*I *895:A I *D sky130_fd_sc_hd__nand3_1
*I *856:A I *D sky130_fd_sc_hd__nand3_1
*I *839:A I *D sky130_fd_sc_hd__nand2_1
*I *833:A I *D sky130_fd_sc_hd__nand2_1
*I *828:Y O *D sky130_fd_sc_hd__inv_12
*CAP
1 *829:A 0.000167506
2 *1061:A 0.000530773
3 *848:A 4.17153e-05
4 *842:A 0.000238647
5 *1058:A 0.000649466
6 *851:A 3.35793e-05
7 *836:A 2.85639e-05
8 *845:A 3.71157e-05
9 *885:A 0
10 *861:B 0
11 *939:B 9.60253e-05
12 *928:B 0.000130765
13 *918:B 0.000119658
14 *933:B 9.1056e-06
15 *923:B 1.81016e-05
16 *957:B 2.12819e-05
17 *951:B 1.48222e-05
18 *887:A 0.000368818
19 *945:B 2.06324e-05
20 *895:A 0.00026281
21 *856:A 0.00102321
22 *839:A 0
23 *833:A 1.78413e-05
24 *828:Y 0
25 *136:284 0.000629148
26 *136:269 0.000448467
27 *136:263 0.000545945
28 *136:173 0.000167366
29 *136:162 0.000264093
30 *136:158 0.000679395
31 *136:145 0.000628422
32 *136:134 0.000280722
33 *136:119 0.000832012
34 *136:115 0.000597448
35 *136:106 0.00054008
36 *136:100 0.000878486
37 *136:96 0.000525487
38 *136:65 0.00159977
39 *136:42 0.00240749
40 *136:40 0.000533899
41 *136:38 0.000651393
42 *136:36 0.000595551
43 *136:34 0.000942966
44 *136:25 0.000191657
45 *136:14 0.001431
46 *136:6 0.0014799
47 *829:A *832:A 5.57842e-05
48 *829:A *832:B 6.92705e-05
49 *829:A *1127:RESET_B 2.65831e-05
50 *836:A tl_o[26] 2.82242e-05
51 *836:A *1447:A 4.88507e-05
52 *842:A *850:B 7.92757e-06
53 *842:A *1120:RESET_B 3.5063e-05
54 *845:A *845:B 0.000113244
55 *851:A *851:B 0.000116755
56 *851:A *853:A 4.17531e-06
57 *856:A cio_gpio_o[2] 0.000112228
58 *856:A cio_gpio_o[3] 0.000406614
59 *856:A tl_o[1] 0
60 *856:A tl_o[65] 6.04121e-05
61 *856:A *855:B 2.82673e-05
62 *856:A *856:C 0.00013898
63 *856:A *1267:A 0
64 *856:A *1268:A 6.7224e-05
65 *856:A *1292:A 1.69657e-06
66 *856:A *1297:A 4.81207e-05
67 *856:A *1301:A 0
68 *856:A *1504:A 0
69 *887:A *917:B1 5.41227e-05
70 *887:A *919:A2 6.92705e-05
71 *887:A *924:A1 0
72 *887:A *951:A 8.36586e-06
73 *887:A *190:18 0
74 *887:A *192:6 3.01683e-06
75 *887:A *192:10 7.22498e-05
76 *887:A *192:125 7.65564e-05
77 *887:A *202:12 3.32755e-05
78 *887:A *386:32 2.19276e-05
79 *887:A *386:36 1.19122e-05
80 *887:A *459:84 6.92705e-05
81 *887:A *459:93 0.000504318
82 *895:A *758:A2 2.15184e-05
83 *895:A *896:C 6.50586e-05
84 *895:A *1102:CLK 1.9101e-05
85 *895:A *691:276 0
86 *895:A *707:49 6.08467e-05
87 *918:B *919:B1 5.57138e-05
88 *918:B *933:A 0.00016386
89 *918:B *934:B1 7.34948e-06
90 *923:B *919:B1 6.27782e-05
91 *923:B *934:B1 5.51483e-06
92 *928:B *929:B1 0.000482072
93 *939:B *939:A 1.64789e-05
94 *939:B *940:B1 7.92757e-06
95 *939:B *945:A 0.000269574
96 *939:B *1238:A 0.000141444
97 *939:B *190:49 4.21625e-05
98 *939:B *190:51 8.44502e-05
99 *939:B *211:18 6.36477e-05
100 *945:B *940:A1 0
101 *945:B *946:A1 0
102 *945:B *946:B1 0
103 *951:B *952:B1 2.08133e-05
104 *951:B *958:A2 2.58616e-05
105 *1058:A tl_o[56] 0.000245361
106 *1058:A *796:A 0
107 *1058:A *839:B 1.60278e-05
108 *1058:A *841:A 0.000519843
109 *1058:A *1060:A 3.82612e-05
110 *1058:A *1498:A 0
111 *1058:A *552:8 2.58757e-05
112 *1061:A *831:B 3.76645e-05
113 *1061:A *832:B 0.000135361
114 *1061:A *1061:B 6.46815e-05
115 *1061:A *1063:A 3.00829e-05
116 *1061:A *1495:A 0.000211539
117 *136:14 *835:A 0.00025233
118 *136:14 *835:B 2.09463e-05
119 *136:14 *709:8 3.17192e-06
120 *136:14 *709:77 1.63652e-05
121 *136:14 *716:14 3.17869e-05
122 *136:25 *841:A 3.00084e-05
123 *136:25 *841:B 2.99287e-05
124 *136:36 *839:B 3.28433e-06
125 *136:36 *853:A 6.29501e-05
126 *136:36 *1499:A 0
127 *136:38 tl_o[54] 0
128 *136:38 *836:B 0
129 *136:38 *1497:A 0
130 *136:40 *846:B 0
131 *136:40 *1447:A 0
132 *136:40 *1496:A 0
133 *136:65 *783:B 0.000104864
134 *136:65 *1154:RESET_B 0.000237192
135 *136:65 *1215:A 0.000383717
136 *136:65 *1223:A 0.000410874
137 *136:65 *1453:A 0.000263116
138 *136:65 *161:27 2.09786e-05
139 *136:65 *161:56 0.000113967
140 *136:65 *179:32 0.000207362
141 *136:65 *693:335 8.71534e-05
142 *136:96 *885:B 3.30022e-05
143 *136:96 *886:C 2.71182e-05
144 *136:96 *1102:CLK 6.57819e-06
145 *136:100 *674:20 0.00037011
146 *136:100 *734:16 0.000120779
147 *136:106 *941:A 0.000164842
148 *136:106 *946:A1 5.0715e-05
149 *136:106 *946:A2 0.000164648
150 *136:106 *946:B1 0.000253916
151 *136:106 *190:51 3.82228e-05
152 *136:106 *674:20 0.000327093
153 *136:115 *945:A 6.08467e-05
154 *136:115 *946:B1 6.50727e-05
155 *136:115 *190:51 6.49003e-05
156 *136:119 *940:B1 1.69261e-05
157 *136:119 *945:A 3.31733e-05
158 *136:119 *951:A 0.000109951
159 *136:119 *1087:CLK 0.00010291
160 *136:119 *190:12 0
161 *136:119 *202:12 4.28054e-05
162 *136:119 *211:18 0
163 *136:119 *386:36 7.34868e-05
164 *136:119 *701:23 6.66393e-05
165 *136:145 *952:B1 1.41976e-05
166 *136:145 *958:A1 0.000113244
167 *136:145 *958:A2 0.000104198
168 *136:145 *958:B1 0.000135606
169 *136:158 *929:A2 0.000124637
170 *136:158 *693:418 7.41826e-05
171 *136:162 *919:A2 0.000122811
172 *136:162 *923:A 8.36586e-06
173 *136:162 *929:A2 5.22654e-06
174 *136:162 *693:418 0.000105824
175 *136:173 *919:B1 3.96696e-05
176 *136:173 *934:B1 5.07314e-05
177 *136:263 tl_o[40] 0
178 *136:263 *1127:CLK 4.58259e-05
179 *136:263 *1493:A 0
180 *136:263 *709:77 8.78688e-05
181 *136:263 *716:14 8.71681e-05
182 *136:269 tl_o[40] 0.000223906
183 *136:269 *1127:RESET_B 8.77922e-05
184 *136:269 *493:16 0.000227488
185 *136:269 *546:10 0.000113002
186 *136:284 tl_o[40] 0.000194842
187 *136:284 *493:16 0.000186476
188 *795:A *136:100 0.000144269
189 *831:A *1061:A 0.000267306
190 *840:A *833:A 1.19084e-06
191 *840:A *136:25 7.58989e-05
192 *885:C *136:96 1.61631e-05
193 *895:C *136:96 1.09551e-05
194 *1087:D *887:A 1.21985e-05
195 *1087:D *136:119 3.87022e-06
196 *1089:D *136:106 0.000119983
197 *1090:D *136:119 0.000130777
198 *1092:D *136:158 1.53954e-05
199 *1094:D *923:B 5.04829e-06
200 *1094:D *136:162 5.51922e-05
201 *1102:D *895:A 0
202 *1102:D *136:96 1.36611e-05
203 *1102:D *136:100 7.98173e-05
204 *1119:D *136:36 1.13359e-05
205 *1127:D *829:A 2.36905e-05
206 *1454:A *136:100 2.97007e-05
207 *106:32 *856:A 0
208 *106:49 *856:A 0
209 *106:64 *856:A 0.0001542
210 *106:93 *856:A 0
211 *106:93 *136:42 0
212 *106:108 *136:40 0
213 *106:216 *842:A 5.7948e-05
214 *106:416 *136:36 0
215 *106:416 *136:38 0
216 *106:435 *833:A 3.13805e-06
217 *106:435 *136:14 5.04423e-06
218 *106:435 *136:25 7.01935e-06
219 *106:503 *887:A 6.79231e-05
220 *112:45 *136:100 0
221 *112:45 *136:106 0
*RES
1 *828:Y *136:6 13.7491 
2 *136:6 *136:14 24.2669 
3 *136:14 *833:A 9.82786 
4 *136:14 *136:25 4.62973 
5 *136:25 *839:A 9.24915 
6 *136:25 *136:34 5.2234 
7 *136:34 *136:36 6.81502 
8 *136:36 *136:38 6.81502 
9 *136:38 *136:40 6.81502 
10 *136:40 *136:42 3.493 
11 *136:42 *856:A 41.359 
12 *136:42 *136:65 39.3108 
13 *136:65 *895:A 19.5906 
14 *136:65 *136:96 11.2374 
15 *136:96 *136:100 17.9591 
16 *136:100 *136:106 20.4856 
17 *136:106 *945:B 9.82786 
18 *136:106 *136:115 1.8326 
19 *136:115 *136:119 18.3743 
20 *136:119 *887:A 26.5846 
21 *136:119 *136:134 4.5 
22 *136:134 *951:B 9.97254 
23 *136:134 *136:145 7.40275 
24 *136:145 *957:B 9.82786 
25 *136:145 *136:158 13.9837 
26 *136:158 *136:162 11.315 
27 *136:162 *923:B 9.97254 
28 *136:162 *136:173 1.85672 
29 *136:173 *933:B 9.82786 
30 *136:173 *918:B 13.3243 
31 *136:158 *928:B 18.9094 
32 *136:115 *939:B 14.4335 
33 *136:100 *861:B 13.7491 
34 *136:96 *885:A 9.24915 
35 *136:40 *845:A 15.0271 
36 *136:38 *836:A 15.0271 
37 *136:36 *851:A 15.0271 
38 *136:34 *1058:A 33.4961 
39 *136:6 *136:263 12.1455 
40 *136:263 *136:269 11.9047 
41 *136:269 *842:A 18.9335 
42 *136:269 *136:284 7.993 
43 *136:284 *848:A 9.97254 
44 *136:284 *1061:A 25.1639 
45 *136:263 *829:A 14.4335 
*END

*D_NET *137 0.000180575
*CONN
*I *832:A I *D sky130_fd_sc_hd__nand2_1
*I *829:Y O *D sky130_fd_sc_hd__nand2_1
*CAP
1 *832:A 6.23955e-05
2 *829:Y 6.23955e-05
3 *829:A *832:A 5.57842e-05
*RES
1 *829:Y *832:A 20.355 
*END

*D_NET *139 0.000965109
*CONN
*I *832:B I *D sky130_fd_sc_hd__nand2_1
*I *831:Y O *D sky130_fd_sc_hd__nand2_1
*CAP
1 *832:B 0.000308755
2 *831:Y 0.000308755
3 *832:B *829:B 0
4 *832:B *1127:RESET_B 0.000116385
5 *832:B *1127:CLK 0
6 *829:A *832:B 6.92705e-05
7 *1061:A *832:B 0.000135361
8 *1127:D *832:B 2.65831e-05
*RES
1 *831:Y *832:B 36.0388 
*END

*D_NET *140 0.00051989
*CONN
*I *835:A I *D sky130_fd_sc_hd__nand2_1
*I *833:Y O *D sky130_fd_sc_hd__nand2_1
*CAP
1 *835:A 0.000101354
2 *833:Y 0.000101354
3 *835:A *835:B 3.32374e-05
4 *106:435 *835:A 3.16139e-05
5 *136:14 *835:A 0.00025233
*RES
1 *833:Y *835:A 22.4287 
*END

*D_NET *141 0.000287633
*CONN
*I *835:B I *D sky130_fd_sc_hd__nand2_1
*I *834:Y O *D sky130_fd_sc_hd__nand2_1
*CAP
1 *835:B 0.000116725
2 *834:Y 0.000116725
3 *835:A *835:B 3.32374e-05
4 *136:14 *835:B 2.09463e-05
*RES
1 *834:Y *835:B 21.4642 
*END

*D_NET *142 0.000436737
*CONN
*I *838:A I *D sky130_fd_sc_hd__nand2_1
*I *836:Y O *D sky130_fd_sc_hd__nand2_1
*CAP
1 *838:A 7.77259e-05
2 *836:Y 7.77259e-05
3 *838:A tl_o[26] 6.2497e-05
4 *838:A *838:B 0.000125948
5 *838:A *1447:A 2.49771e-05
6 *837:A *838:A 6.78626e-05
*RES
1 *836:Y *838:A 22.0188 
*END

*D_NET *143 0.000503025
*CONN
*I *838:B I *D sky130_fd_sc_hd__nand2_1
*I *837:Y O *D sky130_fd_sc_hd__nand2_1
*CAP
1 *838:B 8.46303e-05
2 *837:Y 8.46303e-05
3 *838:B tl_o[26] 0.000207816
4 *838:A *838:B 0.000125948
*RES
1 *837:Y *838:B 21.8741 
*END

*D_NET *144 0.00141104
*CONN
*I *841:A I *D sky130_fd_sc_hd__nand2_1
*I *839:Y O *D sky130_fd_sc_hd__nand2_1
*CAP
1 *841:A 0.000391675
2 *839:Y 0.000391675
3 *841:A *839:B 2.69435e-05
4 *1058:A *841:A 0.000519843
5 *1123:D *841:A 5.08975e-05
6 *136:25 *841:A 3.00084e-05
*RES
1 *839:Y *841:A 38.261 
*END

*D_NET *145 0.00142268
*CONN
*I *841:B I *D sky130_fd_sc_hd__nand2_1
*I *840:Y O *D sky130_fd_sc_hd__nand2_1
*CAP
1 *841:B 0.000420668
2 *840:Y 0.000420668
3 *841:B *796:A 0.000119987
4 *841:B *840:B 0.000250395
5 *841:B *1062:B 0.000114594
6 *841:B *1451:A 6.64392e-05
7 *136:25 *841:B 2.99287e-05
*RES
1 *840:Y *841:B 39.3608 
*END

*D_NET *146 0.00116527
*CONN
*I *844:A I *D sky130_fd_sc_hd__nand2_1
*I *842:Y O *D sky130_fd_sc_hd__nand2_1
*CAP
1 *844:A 0.000343756
2 *842:Y 0.000343756
3 *844:A *844:B 0.000353811
4 *844:A *1120:RESET_B 8.35605e-05
5 *844:A *1508:A 4.94e-06
6 *844:A *548:10 3.54461e-05
*RES
1 *842:Y *844:A 34.7664 
*END

*D_NET *147 0.000926742
*CONN
*I *844:B I *D sky130_fd_sc_hd__nand2_1
*I *843:Y O *D sky130_fd_sc_hd__nand2_1
*CAP
1 *844:B 0.000157522
2 *843:Y 0.000157522
3 *844:B intr_gpio_o[2] 5.297e-05
4 *844:B *1120:RESET_B 0.000179133
5 *844:A *844:B 0.000353811
6 *1122:D *844:B 2.57847e-05
*RES
1 *843:Y *844:B 34.2412 
*END

*D_NET *148 0.000563568
*CONN
*I *847:A I *D sky130_fd_sc_hd__nand2_1
*I *845:Y O *D sky130_fd_sc_hd__nand2_1
*CAP
1 *847:A 0.00011316
2 *845:Y 0.00011316
3 *847:A *845:B 6.64392e-05
4 *847:A *847:B 0.000193213
5 *846:A *847:A 7.75949e-05
*RES
1 *845:Y *847:A 23.2305 
*END

*D_NET *149 0.000480575
*CONN
*I *847:B I *D sky130_fd_sc_hd__nand2_1
*I *846:Y O *D sky130_fd_sc_hd__nand2_1
*CAP
1 *847:B 0.000111685
2 *846:Y 0.000111685
3 *847:B tl_o[51] 1.21461e-06
4 *847:A *847:B 0.000193213
5 *1121:D *847:B 6.27782e-05
*RES
1 *846:Y *847:B 21.8741 
*END

*D_NET *150 0.000329688
*CONN
*I *850:A I *D sky130_fd_sc_hd__nand2_1
*I *848:Y O *D sky130_fd_sc_hd__nand2_1
*CAP
1 *850:A 5.98461e-05
2 *848:Y 5.98461e-05
3 *850:A tl_o[52] 6.34773e-05
4 *850:A *493:16 0.000146519
*RES
1 *848:Y *850:A 30.1608 
*END

*D_NET *151 0.000218427
*CONN
*I *850:B I *D sky130_fd_sc_hd__nand2_1
*I *849:Y O *D sky130_fd_sc_hd__nand2_1
*CAP
1 *850:B 8.06197e-05
2 *849:Y 8.06197e-05
3 *842:A *850:B 7.92757e-06
4 *106:216 *850:B 4.92606e-05
*RES
1 *849:Y *850:B 20.2103 
*END

*D_NET *152 0.000413434
*CONN
*I *853:A I *D sky130_fd_sc_hd__nand2_1
*I *851:Y O *D sky130_fd_sc_hd__nand2_1
*CAP
1 *853:A 0.000132389
2 *851:Y 0.000132389
3 *853:A *851:B 6.78364e-06
4 *851:A *853:A 4.17531e-06
5 *1119:D *853:A 7.47462e-05
6 *136:36 *853:A 6.29501e-05
*RES
1 *851:Y *853:A 30.8842 
*END

*D_NET *153 0.000254779
*CONN
*I *853:B I *D sky130_fd_sc_hd__nand2_1
*I *852:Y O *D sky130_fd_sc_hd__nand2_1
*CAP
1 *853:B 0.000119638
2 *852:Y 0.000119638
3 *852:A *853:B 1.55025e-05
*RES
1 *852:Y *853:B 21.4883 
*END

*D_NET *154 0.00214221
*CONN
*I *858:A1 I *D sky130_fd_sc_hd__a21oi_1
*I *857:B1 I *D sky130_fd_sc_hd__a21oi_1
*I *912:B I *D sky130_fd_sc_hd__nand2_1
*I *860:B I *D sky130_fd_sc_hd__nand3_1
*I *854:Y O *D sky130_fd_sc_hd__clkinv_1
*CAP
1 *858:A1 2.47152e-05
2 *857:B1 7.72294e-05
3 *912:B 0
4 *860:B 0.000271935
5 *854:Y 0
6 *154:28 0.000192343
7 *154:8 0.000467505
8 *154:4 0.000285968
9 *857:B1 *693:412 0.000118017
10 *858:A1 cio_gpio_o[2] 2.30636e-05
11 *860:B cio_gpio_o[2] 6.27718e-05
12 *860:B *792:A 4.39919e-05
13 *860:B *460:20 0.0001195
14 *154:8 cio_gpio_o[2] 0.000122668
15 *154:8 *912:A 0.000109421
16 *154:28 cio_gpio_o[2] 3.68716e-05
17 *154:28 *858:B1 0.000110458
18 *115:10 *860:B 6.80864e-05
19 *116:18 *860:B 7.66102e-06
*RES
1 *854:Y *154:4 9.24915 
2 *154:4 *154:8 5.18434 
3 *154:8 *860:B 25.7876 
4 *154:8 *912:B 9.24915 
5 *154:4 *154:28 2.38721 
6 *154:28 *857:B1 20.4964 
7 *154:28 *858:A1 9.97254 
*END

*D_NET *155 0.000910092
*CONN
*I *856:C I *D sky130_fd_sc_hd__nand3_1
*I *855:Y O *D sky130_fd_sc_hd__nor2_1
*CAP
1 *856:C 0.000209241
2 *855:Y 0.000209241
3 *856:C cio_gpio_o[2] 0.000140498
4 *856:C *855:B 4.11367e-05
5 *856:C *156:6 6.64392e-05
6 *856:C *400:12 9.29777e-05
7 *856:A *856:C 0.00013898
8 *106:64 *856:C 1.15781e-05
*RES
1 *855:Y *856:C 34.0725 
*END

*D_NET *156 0.00172131
*CONN
*I *1071:A I *D sky130_fd_sc_hd__nand2_1
*I *858:A2 I *D sky130_fd_sc_hd__a21oi_1
*I *856:Y O *D sky130_fd_sc_hd__nand3_1
*CAP
1 *1071:A 0.000518349
2 *858:A2 0.000117978
3 *856:Y 0.000143048
4 *156:6 0.000779375
5 *858:A2 cio_gpio_o[2] 2.84758e-05
6 *1071:A tl_o[18] 2.02035e-05
7 *1071:A *1070:B 1.24633e-05
8 *1071:A *1452:A 0
9 *1071:A *693:412 0
10 *156:6 cio_gpio_o[2] 3.49805e-05
11 *856:C *156:6 6.64392e-05
12 *1070:A *1071:A 0
*RES
1 *856:Y *156:6 11.6364 
2 *156:6 *858:A2 11.5158 
3 *156:6 *1071:A 29.6319 
*END

*D_NET *157 0.00134895
*CONN
*I *1053:B1 I *D sky130_fd_sc_hd__a21oi_1
*I *858:B1 I *D sky130_fd_sc_hd__a21oi_1
*I *857:Y O *D sky130_fd_sc_hd__a21oi_1
*CAP
1 *1053:B1 9.13232e-05
2 *858:B1 0.000176818
3 *857:Y 0.000106116
4 *157:8 0.000374257
5 *858:B1 cio_gpio_o[2] 0.000112361
6 *858:B1 *912:A 0
7 *858:B1 *693:412 9.6868e-05
8 *1053:B1 *693:412 6.31809e-05
9 *854:A *858:B1 5.27224e-05
10 *107:8 *157:8 0.000164843
11 *110:17 *858:B1 0
12 *110:17 *1053:B1 0
13 *154:28 *858:B1 0.000110458
*RES
1 *857:Y *157:8 15.5817 
2 *157:8 *858:B1 19.3507 
3 *157:8 *1053:B1 16.4116 
*END

*D_NET *158 0.00143164
*CONN
*I *859:A I *D sky130_fd_sc_hd__nand2_1
*I *858:Y O *D sky130_fd_sc_hd__a21oi_1
*CAP
1 *859:A 0.000195545
2 *858:Y 0.000195545
3 *859:A cio_gpio_o[2] 0.000405074
4 *859:A *792:A 9.05084e-06
5 *859:A *912:A 0.000163359
6 *859:A *459:14 1.45799e-05
7 *859:A *460:16 0.000406978
8 *859:A *460:20 3.31432e-05
9 *116:18 *859:A 8.36586e-06
*RES
1 *858:Y *859:A 36.0122 
*END

*D_NET *159 0.00189733
*CONN
*I *860:A I *D sky130_fd_sc_hd__nand3_1
*I *1054:A I *D sky130_fd_sc_hd__nand2_1
*I *912:A I *D sky130_fd_sc_hd__nand2_1
*I *859:Y O *D sky130_fd_sc_hd__nand2_1
*CAP
1 *860:A 0.000111335
2 *1054:A 0
3 *912:A 0.000132461
4 *859:Y 7.65377e-05
5 *159:23 0.000159635
6 *159:8 0.000257298
7 *860:A *1054:B 3.19251e-05
8 *912:A cio_gpio_o[2] 0.000111352
9 *912:A *459:14 0.000139684
10 *854:A *912:A 3.87022e-06
11 *858:B1 *912:A 0
12 *859:A *912:A 0.000163359
13 *959:C *159:8 0.000111708
14 *1085:D *860:A 0.000118166
15 *110:17 *912:A 2.95757e-05
16 *110:17 *159:23 0.000148144
17 *116:18 *912:A 5.33395e-05
18 *116:18 *159:23 0.000139517
19 *154:8 *912:A 0.000109421
*RES
1 *859:Y *159:8 15.0271 
2 *159:8 *912:A 19.3507 
3 *159:8 *159:23 7.1625 
4 *159:23 *1054:A 9.24915 
5 *159:23 *860:A 12.7938 
*END

*D_NET *160 0.00065998
*CONN
*I *861:A I *D sky130_fd_sc_hd__nand2_8
*I *860:Y O *D sky130_fd_sc_hd__nand3_1
*CAP
1 *861:A 0.00032999
2 *860:Y 0.00032999
*RES
1 *860:Y *861:A 23.538 
*END

*D_NET *161 0.0457491
*CONN
*I *875:A I *D sky130_fd_sc_hd__nand2_1
*I *905:C1 I *D sky130_fd_sc_hd__o211ai_1
*I *867:A I *D sky130_fd_sc_hd__nand2_1
*I *863:A I *D sky130_fd_sc_hd__nand2_1
*I *879:A I *D sky130_fd_sc_hd__nand2_1
*I *869:A I *D sky130_fd_sc_hd__nand2_1
*I *865:A I *D sky130_fd_sc_hd__nand2_1
*I *1057:A I *D sky130_fd_sc_hd__nand2_1
*I *877:A I *D sky130_fd_sc_hd__nand2_1
*I *881:A I *D sky130_fd_sc_hd__nand2_1
*I *873:A I *D sky130_fd_sc_hd__nand2_1
*I *889:C1 I *D sky130_fd_sc_hd__o211ai_1
*I *900:C1 I *D sky130_fd_sc_hd__o211ai_1
*I *891:C1 I *D sky130_fd_sc_hd__o211ai_1
*I *902:C1 I *D sky130_fd_sc_hd__o211ai_1
*I *911:C1 I *D sky130_fd_sc_hd__o211ai_1
*I *893:C1 I *D sky130_fd_sc_hd__o211ai_1
*I *909:C1 I *D sky130_fd_sc_hd__o211ai_1
*I *898:C1 I *D sky130_fd_sc_hd__o211ai_1
*I *871:A I *D sky130_fd_sc_hd__nand2_1
*I *907:C1 I *D sky130_fd_sc_hd__o211ai_1
*I *883:A I *D sky130_fd_sc_hd__nand2_1
*I *896:A I *D sky130_fd_sc_hd__nand3_1
*I *886:A I *D sky130_fd_sc_hd__nand3_1
*I *861:Y O *D sky130_fd_sc_hd__nand2_8
*CAP
1 *875:A 0.000347042
2 *905:C1 2.06285e-05
3 *867:A 0.000404495
4 *863:A 0.000591966
5 *879:A 0
6 *869:A 0
7 *865:A 0.00055738
8 *1057:A 0
9 *877:A 0.000406468
10 *881:A 0
11 *873:A 0
12 *889:C1 7.37348e-05
13 *900:C1 0
14 *891:C1 0
15 *902:C1 0
16 *911:C1 0.000277086
17 *893:C1 2.12792e-05
18 *909:C1 0
19 *898:C1 1.98947e-05
20 *871:A 0
21 *907:C1 0
22 *883:A 3.39972e-05
23 *896:A 0.000323223
24 *886:A 0
25 *861:Y 0.000367452
26 *161:325 0.00083268
27 *161:319 0.00067828
28 *161:294 0.000908629
29 *161:273 0.000941039
30 *161:260 0.000452598
31 *161:254 0.00110658
32 *161:244 0.000909031
33 *161:235 0.00043397
34 *161:194 0.00173178
35 *161:175 0.00204004
36 *161:169 0.00100516
37 *161:163 0.00155482
38 *161:155 0.00133458
39 *161:151 0.000790965
40 *161:142 0.00127917
41 *161:130 0.00208117
42 *161:109 0.00128304
43 *161:96 0.000681375
44 *161:80 0.000869698
45 *161:71 0.000229047
46 *161:56 0.00104323
47 *161:27 0.00134836
48 *161:12 0.00053787
49 *863:A *1115:CLK 2.93493e-05
50 *863:A *693:855 0.000162843
51 *863:A *693:857 0
52 *865:A *830:A 0.000208627
53 *865:A *1057:B 6.46827e-05
54 *867:A *867:B 0.000130813
55 *867:A *873:B 0.000124942
56 *867:A *1195:A 0.000114626
57 *867:A *1209:A 1.65872e-05
58 *867:A *541:10 0.000498011
59 *875:A *808:A 0.000153473
60 *875:A *1111:CLK 0.000174175
61 *875:A *1139:RESET_B 0
62 *875:A *493:16 0
63 *875:A *691:258 8.44482e-07
64 *877:A tl_o[27] 5.05252e-05
65 *877:A *1118:RESET_B 5.41227e-05
66 *889:C1 *379:10 0.000158979
67 *889:C1 *704:35 6.91172e-05
68 *896:A *1106:CLK 3.02288e-05
69 *896:A *179:32 2.47875e-05
70 *896:A *707:32 5.37805e-05
71 *896:A *707:49 1.48114e-05
72 *898:C1 *898:B1 2.16355e-05
73 *905:C1 *898:A2 9.51757e-06
74 *905:C1 *905:A1 2.4968e-05
75 *911:C1 *901:B 0.000310711
76 *911:C1 *902:B1 7.246e-05
77 *911:C1 *911:B1 6.50727e-05
78 *911:C1 *175:12 8.73563e-06
79 *161:12 *386:36 0.000749662
80 *161:12 *387:36 0.000359439
81 *161:12 *674:20 0.000172059
82 *161:27 *886:B 0.000160617
83 *161:27 *386:36 8.23973e-05
84 *161:27 *693:335 2.01274e-05
85 *161:56 *882:B 0.000109951
86 *161:56 *894:B 0
87 *161:56 *1107:CLK 0.000196324
88 *161:56 *1154:RESET_B 1.45944e-05
89 *161:56 *386:36 0.000191624
90 *161:56 *493:16 6.50727e-05
91 *161:56 *674:20 4.3116e-06
92 *161:56 *691:276 0
93 *161:56 *716:14 4.76104e-05
94 *161:71 *907:B1 0.000224381
95 *161:71 *1111:CLK 0
96 *161:71 *179:32 7.77309e-06
97 *161:71 *493:16 0.000111897
98 *161:80 *894:B 0
99 *161:80 *907:B1 3.51034e-05
100 *161:96 *757:A 0.000150398
101 *161:96 *760:A2 5.04551e-05
102 *161:96 *907:A2 0.000621229
103 *161:96 *907:B1 4.80635e-06
104 *161:96 *1243:A 4.04463e-05
105 *161:96 *371:14 1.44314e-05
106 *161:96 *690:350 1.43983e-05
107 *161:109 *801:A 0
108 *161:109 *1068:A0 4.29314e-06
109 *161:109 *166:10 0.000341836
110 *161:130 *905:B1 0.000433804
111 *161:130 *1067:B1 0
112 *161:130 *691:258 0
113 *161:142 *905:B1 9.63474e-06
114 *161:142 *908:B 0
115 *161:142 *1004:A 0
116 *161:142 *1140:CLK 0.000100493
117 *161:142 *1484:A 0.000349883
118 *161:142 *318:12 9.77611e-06
119 *161:151 *909:B1 2.53399e-05
120 *161:151 *175:83 0.000360444
121 *161:151 *175:90 0.000159322
122 *161:151 *608:8 6.47133e-05
123 *161:155 *175:83 0.000226633
124 *161:163 *899:B 8.46353e-05
125 *161:163 *900:B1 0.000388369
126 *161:163 *1011:B 0
127 *161:163 *1016:A 0.000120544
128 *161:163 *1017:A 0.000418004
129 *161:163 *1018:B 0.000132826
130 *161:163 *1019:A1 4.34904e-05
131 *161:163 *1104:RESET_B 0.000165488
132 *161:163 *1171:D 0
133 *161:163 *1171:RESET_B 0.000198319
134 *161:163 *262:21 1.75614e-05
135 *161:163 *263:21 7.50872e-05
136 *161:163 *266:20 4.90621e-05
137 *161:163 *266:32 0.000176116
138 *161:163 *379:10 1.07248e-05
139 *161:163 *379:16 0.000200251
140 *161:163 *602:8 0
141 *161:163 *604:33 1.24195e-05
142 *161:163 *619:14 7.28994e-06
143 *161:163 *693:195 0.000111135
144 *161:163 *704:26 5.88662e-05
145 *161:163 *704:35 9.22013e-06
146 *161:169 *1219:A 1.47251e-05
147 *161:169 *175:48 0.000102879
148 *161:175 *822:A 0.000375247
149 *161:175 *892:B 3.54274e-05
150 *161:175 *893:B1 3.94206e-05
151 *161:175 *1219:A 5.99695e-05
152 *161:175 *175:37 0.000318536
153 *161:175 *175:48 2.59855e-05
154 *161:175 *582:10 6.46815e-05
155 *161:194 *893:B1 5.31465e-05
156 *161:194 *901:B 5.22654e-06
157 *161:194 *989:A 6.08467e-05
158 *161:194 *990:B 0.00016386
159 *161:194 *1095:RESET_B 0
160 *161:194 *1156:RESET_B 0
161 *161:194 *175:26 2.291e-05
162 *161:194 *247:18 4.12665e-05
163 *161:194 *345:20 9.43222e-06
164 *161:194 *582:10 0.000243096
165 *161:194 *625:12 5.04829e-06
166 *161:235 *1043:A 0.00018308
167 *161:235 *1112:CLK 5.41377e-05
168 *161:235 *528:8 0
169 *161:235 *704:35 0
170 *161:244 *873:B 2.95757e-05
171 *161:244 *1112:CLK 1.07248e-05
172 *161:244 *541:10 0
173 *161:254 tl_o[34] 9.98511e-06
174 *161:254 *873:B 6.08467e-05
175 *161:254 *1230:A 0
176 *161:260 *868:B 6.08467e-05
177 *161:260 *869:B 0.000328682
178 *161:260 *881:B 3.30646e-05
179 *161:260 *1066:A 1.03434e-05
180 *161:273 *881:B 0.000128998
181 *161:273 *1066:A 3.01683e-06
182 *161:273 *1067:B1 4.30017e-06
183 *161:273 *1118:CLK 0
184 *161:273 *1283:A 0.000237307
185 *161:273 *705:8 0
186 *161:294 tl_o[25] 5.04829e-06
187 *161:294 *1057:B 6.27782e-05
188 *161:294 *1118:CLK 0
189 *161:294 *1211:A 8.36429e-06
190 *161:294 *1283:A 7.37686e-05
191 *161:319 *873:B 7.14746e-05
192 *161:325 *1115:CLK 1.88131e-05
193 *161:325 *1209:A 5.23916e-05
194 *161:325 *532:8 0.00011492
195 *161:325 *693:857 0
196 tl_o[47] *865:A 0.000117356
197 *760:B1 *161:109 0
198 *760:B2 *161:96 0.000126187
199 *809:A1 *161:96 7.06457e-06
200 *880:A *161:273 0
201 *888:A *161:235 0.000517402
202 *888:A *161:244 2.24484e-05
203 *899:A *161:163 0.000324166
204 *899:A *161:169 0
205 *901:A *911:C1 4.80142e-05
206 *902:A1 *161:194 0
207 *907:A1 *161:96 2.81043e-05
208 *908:A *905:C1 1.51352e-05
209 *908:A *161:130 0.000388137
210 *909:A1 *161:142 0
211 *910:A *911:C1 0
212 *911:A1 *911:C1 6.08467e-05
213 *1075:D *161:155 7.28784e-05
214 *1075:D *161:163 0
215 *1097:D *875:A 2.55493e-05
216 *1099:D *911:C1 1.61631e-05
217 *1103:D *161:175 0.000445356
218 *1104:D *161:169 0.00031073
219 *1105:D *863:A 6.27782e-05
220 *1107:D *161:56 1.4106e-05
221 *1113:D *161:109 0.000337996
222 *1114:D *161:254 4.66094e-05
223 *1116:D *865:A 4.29314e-06
224 *1118:D *161:294 9.78191e-05
225 *1140:D *161:130 4.69495e-06
226 *1140:D *161:142 3.5047e-05
227 *92:6 *161:163 1.19721e-05
228 *106:150 *898:C1 6.08467e-05
229 *106:236 *877:A 0.000260374
230 *106:246 *161:260 4.1307e-05
231 *106:252 *161:254 0.000358038
232 *106:252 *161:260 7.89768e-05
233 *106:256 *161:254 0.000189753
234 *106:271 *867:A 0
235 *106:271 *161:244 5.41377e-05
236 *106:271 *161:319 6.43474e-05
237 *106:282 *867:A 0
238 *106:505 *911:C1 0.000180473
239 *106:528 *161:194 0
240 *106:537 *161:175 0
241 *136:65 *161:27 2.09786e-05
242 *136:65 *161:56 0.000113967
*RES
1 *861:Y *161:12 33.5408 
2 *161:12 *886:A 9.24915 
3 *161:12 *161:27 9.48363 
4 *161:27 *896:A 20.0186 
5 *161:27 *161:56 25.9431 
6 *161:56 *883:A 10.2378 
7 *161:56 *161:71 14.0497 
8 *161:71 *907:C1 9.24915 
9 *161:71 *161:80 2.41132 
10 *161:80 *161:96 24.296 
11 *161:96 *871:A 9.24915 
12 *161:96 *161:109 13.3111 
13 *161:109 *898:C1 14.4725 
14 *161:109 *161:130 10.0406 
15 *161:130 *161:142 31.4738 
16 *161:142 *909:C1 9.24915 
17 *161:142 *161:151 9.62117 
18 *161:151 *161:155 10.2148 
19 *161:155 *161:163 42.5156 
20 *161:163 *161:169 16.4935 
21 *161:169 *161:175 25.7417 
22 *161:175 *893:C1 9.82786 
23 *161:175 *161:194 34.2083 
24 *161:194 *911:C1 18.8944 
25 *161:194 *902:C1 9.24915 
26 *161:169 *891:C1 13.7491 
27 *161:163 *900:C1 9.24915 
28 *161:155 *889:C1 16.8269 
29 *161:151 *161:235 17.5438 
30 *161:235 *873:A 13.7491 
31 *161:235 *161:244 1.41674 
32 *161:244 *161:254 27.8414 
33 *161:254 *161:260 9.09068 
34 *161:260 *881:A 9.24915 
35 *161:260 *161:273 10.6802 
36 *161:273 *877:A 29.4655 
37 *161:273 *161:294 14.1147 
38 *161:294 *1057:A 9.24915 
39 *161:294 *865:A 23.8859 
40 *161:254 *869:A 9.24915 
41 *161:244 *161:319 5.91674 
42 *161:319 *161:325 8.85855 
43 *161:325 *879:A 13.7491 
44 *161:325 *863:A 23.9945 
45 *161:319 *867:A 31.0493 
46 *161:130 *905:C1 14.4725 
47 *161:80 *875:A 27.9709 
*END

*D_NET *162 0.000870722
*CONN
*I *863:B I *D sky130_fd_sc_hd__nand2_1
*I *862:Y O *D sky130_fd_sc_hd__nand2_1
*CAP
1 *863:B 0.000432842
2 *862:Y 0.000432842
3 *863:B *862:B 5.03748e-06
*RES
1 *862:Y *863:B 34.7664 
*END

*D_NET *163 0.00181326
*CONN
*I *865:B I *D sky130_fd_sc_hd__nand2_1
*I *864:Y O *D sky130_fd_sc_hd__nand2_1
*CAP
1 *865:B 0.000333317
2 *864:Y 0.000333317
3 *865:B *1122:CLK 4.81927e-05
4 *865:B *1207:A 0.000327388
5 *865:B *1517:A 0.000495794
6 *106:232 *865:B 0.000275256
*RES
1 *864:Y *865:B 39.3314 
*END

*D_NET *164 0.00113722
*CONN
*I *867:B I *D sky130_fd_sc_hd__nand2_1
*I *866:Y O *D sky130_fd_sc_hd__nand2_1
*CAP
1 *867:B 0.000386093
2 *866:Y 0.000386093
3 *867:B *866:B 1.70053e-05
4 *867:B *1105:RESET_B 4.21844e-05
5 *862:A *867:B 7.41786e-05
6 *866:A *867:B 7.87337e-06
7 *867:A *867:B 0.000130813
8 *1115:D *867:B 9.29777e-05
*RES
1 *866:Y *867:B 36.564 
*END

*D_NET *165 0.000969148
*CONN
*I *869:B I *D sky130_fd_sc_hd__nand2_1
*I *868:Y O *D sky130_fd_sc_hd__nand2_1
*CAP
1 *869:B 0.000312382
2 *868:Y 0.000312382
3 *106:252 *869:B 1.57023e-05
4 *161:260 *869:B 0.000328682
*RES
1 *868:Y *869:B 24.0926 
*END

*D_NET *166 0.00333591
*CONN
*I *871:B I *D sky130_fd_sc_hd__nand2_1
*I *870:Y O *D sky130_fd_sc_hd__nand2_1
*CAP
1 *871:B 0
2 *870:Y 0.000857283
3 *166:10 0.000857283
4 *166:10 tl_o[30] 0.00024842
5 *166:10 *897:B 0.000262546
6 *166:10 *1207:A 0
7 *166:10 *1225:A 0.000115976
8 *166:10 *1243:A 0
9 *166:10 *318:20 5.79203e-05
10 *166:10 *533:8 0
11 *166:10 *691:214 9.09774e-06
12 *166:10 *708:12 0
13 *166:10 *739:12 0
14 *870:A *166:10 0.000191452
15 *1113:D *166:10 0.000238025
16 *1116:D *166:10 5.62448e-05
17 *106:230 *166:10 9.98296e-05
18 *161:109 *166:10 0.000341836
*RES
1 *870:Y *166:10 47.4878 
2 *166:10 *871:B 9.24915 
*END

*D_NET *167 0.00136111
*CONN
*I *873:B I *D sky130_fd_sc_hd__nand2_1
*I *872:Y O *D sky130_fd_sc_hd__nand2_1
*CAP
1 *873:B 0.000391725
2 *872:Y 0.000391725
3 *873:B tl_o[38] 0.000118166
4 *873:B *872:B 7.97098e-06
5 *873:B *1112:CLK 3.99086e-06
6 *873:B *1209:A 1.41976e-05
7 *873:B *541:10 1.72464e-05
8 *873:B *704:104 1.21461e-06
9 *867:A *873:B 0.000124942
10 *872:A *873:B 5.04829e-06
11 *106:256 *873:B 0.000111722
12 *106:271 *873:B 1.12605e-05
13 *161:244 *873:B 2.95757e-05
14 *161:254 *873:B 6.08467e-05
15 *161:319 *873:B 7.14746e-05
*RES
1 *872:Y *873:B 37.727 
*END

*D_NET *168 0.000327281
*CONN
*I *875:B I *D sky130_fd_sc_hd__nand2_1
*I *874:Y O *D sky130_fd_sc_hd__nand2_1
*CAP
1 *875:B 0.000121786
2 *874:Y 0.000121786
3 *875:B *874:B 2.09306e-05
4 *1111:D *875:B 6.27782e-05
*RES
1 *874:Y *875:B 21.4642 
*END

*D_NET *169 0.000490233
*CONN
*I *877:B I *D sky130_fd_sc_hd__nand2_1
*I *876:Y O *D sky130_fd_sc_hd__nand2_1
*CAP
1 *877:B 0.000150732
2 *876:Y 0.000150732
3 *877:B *876:B 7.40004e-05
4 *1110:D *877:B 2.21251e-05
5 *106:236 *877:B 9.26437e-05
*RES
1 *876:Y *877:B 22.5975 
*END

*D_NET *170 0.000511188
*CONN
*I *879:B I *D sky130_fd_sc_hd__nand2_1
*I *878:Y O *D sky130_fd_sc_hd__nand2_1
*CAP
1 *879:B 0.000179558
2 *878:Y 0.000179558
3 *879:B *878:B 6.50586e-05
4 *879:B *1209:A 1.15389e-05
5 *879:B *532:8 3.1348e-05
6 *878:A *879:B 1.41976e-05
7 *1109:D *879:B 2.99287e-05
*RES
1 *878:Y *879:B 23.1521 
*END

*D_NET *171 0.000772697
*CONN
*I *881:B I *D sky130_fd_sc_hd__nand2_1
*I *880:Y O *D sky130_fd_sc_hd__nand2_1
*CAP
1 *881:B 9.91348e-05
2 *880:Y 9.91348e-05
3 *881:B *880:B 2.65667e-05
4 *881:B *1066:A 1.00981e-05
5 *881:B *1067:B1 4.89898e-06
6 *868:A *881:B 0
7 *106:246 *881:B 0.000370801
8 *161:260 *881:B 3.30646e-05
9 *161:273 *881:B 0.000128998
*RES
1 *880:Y *881:B 23.538 
*END

*D_NET *172 0.00137015
*CONN
*I *883:B I *D sky130_fd_sc_hd__nand2_1
*I *882:Y O *D sky130_fd_sc_hd__nand2_1
*CAP
1 *883:B 0.000476596
2 *882:Y 0.000476596
3 *883:B *882:B 6.08467e-05
4 *883:B *693:505 0.000148524
5 *106:118 *883:B 0.000207591
*RES
1 *882:Y *883:B 37.3171 
*END

*D_NET *173 0.00124446
*CONN
*I *886:B I *D sky130_fd_sc_hd__nand3_1
*I *884:Y O *D sky130_fd_sc_hd__nand2_1
*CAP
1 *886:B 0.000524952
2 *884:Y 0.000524952
3 *886:B *707:10 2.692e-05
4 *1086:D *886:B 7.01935e-06
5 *161:27 *886:B 0.000160617
*RES
1 *884:Y *886:B 38.9273 
*END

*D_NET *174 0.000164221
*CONN
*I *886:C I *D sky130_fd_sc_hd__nand3_1
*I *885:Y O *D sky130_fd_sc_hd__nand3_1
*CAP
1 *886:C 6.85516e-05
2 *885:Y 6.85516e-05
3 *136:96 *886:C 2.71182e-05
*RES
1 *885:Y *886:C 19.8004 
*END

*D_NET *175 0.0299997
*CONN
*I *907:A2 I *D sky130_fd_sc_hd__o211ai_1
*I *911:A2 I *D sky130_fd_sc_hd__o211ai_1
*I *902:A2 I *D sky130_fd_sc_hd__o211ai_1
*I *889:A2 I *D sky130_fd_sc_hd__o211ai_1
*I *898:A2 I *D sky130_fd_sc_hd__o211ai_1
*I *905:A2 I *D sky130_fd_sc_hd__o211ai_1
*I *909:A2 I *D sky130_fd_sc_hd__o211ai_1
*I *900:A2 I *D sky130_fd_sc_hd__o211ai_1
*I *891:A2 I *D sky130_fd_sc_hd__o211ai_1
*I *893:A2 I *D sky130_fd_sc_hd__o211ai_1
*I *887:Y O *D sky130_fd_sc_hd__nand2_4
*CAP
1 *907:A2 0.000506494
2 *911:A2 0
3 *902:A2 0
4 *889:A2 0
5 *898:A2 0.00147417
6 *905:A2 0
7 *909:A2 0
8 *900:A2 3.41703e-05
9 *891:A2 5.56756e-05
10 *893:A2 8.42404e-05
11 *887:Y 0.00175699
12 *175:90 0.00135931
13 *175:83 0.00129088
14 *175:71 0.0023927
15 *175:48 0.00180121
16 *175:37 0.000746612
17 *175:26 0.00167588
18 *175:12 0.00144392
19 *175:10 0.00202663
20 *891:A2 *692:227 5.20546e-06
21 *893:A2 *822:A 0.000122978
22 *898:A2 *905:A1 1.75637e-06
23 *898:A2 *905:B1 0.000111708
24 *898:A2 *184:6 1.89968e-05
25 *907:A2 *759:A 3.57699e-05
26 *907:A2 *760:A2 0.000466387
27 *907:A2 *801:A 7.3125e-05
28 *907:A2 *1140:RESET_B 2.52414e-06
29 *907:A2 *1143:RESET_B 0.000141497
30 *907:A2 *318:14 0.000185297
31 *907:A2 *690:350 0.000104802
32 *175:12 *902:B1 0.000216391
33 *175:26 *754:A1 0.000112228
34 *175:26 *997:B 0.00012494
35 *175:26 *1095:CLK 0
36 *175:26 *1156:RESET_B 8.31793e-05
37 *175:26 *1183:D 1.06974e-05
38 *175:26 *1183:RESET_B 5.37479e-05
39 *175:26 *1475:A 6.27782e-05
40 *175:26 *327:6 0.000894093
41 *175:26 *691:98 0
42 *175:37 *822:A 0.000213809
43 *175:37 *1133:RESET_B 3.07997e-05
44 *175:37 *693:253 0.000280545
45 *175:37 *693:255 0.000276874
46 *175:48 *690:235 0
47 *175:48 *690:237 0
48 *175:48 *693:253 0.000485144
49 *175:71 *811:A 2.18741e-05
50 *175:71 *899:B 0
51 *175:71 *1011:B 0.000711055
52 *175:71 *1012:A 6.84737e-05
53 *175:71 *1013:B1 2.01503e-05
54 *175:71 *1020:A1 0
55 *175:71 *1100:CLK 8.44703e-05
56 *175:71 *1169:D 0
57 *175:71 *1170:D 5.78637e-05
58 *175:71 *1170:RESET_B 0
59 *175:71 *1171:D 0
60 *175:71 *1173:D 0.00010729
61 *175:71 *268:10 0.000323651
62 *175:71 *314:26 0.000115056
63 *175:71 *690:235 0
64 *175:71 *691:351 7.36077e-05
65 *175:71 *692:274 0
66 *175:83 *816:A 2.06815e-05
67 *175:83 *379:10 2.57102e-05
68 *175:90 *909:B1 7.44972e-05
69 *804:A1 *900:A2 2.65831e-05
70 *818:B1 *175:71 0
71 *824:A1 *175:37 0
72 *889:A1 *175:83 7.40084e-05
73 *899:A *175:48 0
74 *901:A *175:12 4.76567e-05
75 *905:C1 *898:A2 9.51757e-06
76 *908:A *898:A2 0.000141318
77 *908:A *175:90 0.000590319
78 *911:C1 *175:12 8.73563e-06
79 *1095:D *175:10 6.50727e-05
80 *1095:D *175:12 0.000164815
81 *1096:D *175:83 6.92705e-05
82 *1096:D *175:90 6.92705e-05
83 *1098:D *898:A2 6.92705e-05
84 *1098:D *175:90 0.000122378
85 *1099:D *175:12 1.62206e-05
86 *1100:D *900:A2 3.14978e-05
87 *1100:D *175:71 0.000168184
88 *1104:D *175:48 0.000309099
89 *1113:D *907:A2 1.32509e-05
90 *1135:D *175:71 0
91 *1140:D *898:A2 0.000111708
92 *1143:D *898:A2 0.000113968
93 *88:8 *907:A2 1.48748e-05
94 *88:31 *898:A2 6.08467e-05
95 *88:31 *907:A2 9.12416e-06
96 *92:6 *900:A2 2.65667e-05
97 *106:150 *898:A2 0.000279297
98 *106:503 *175:10 0.00248521
99 *106:505 *175:10 0.000214745
100 *106:505 *175:12 0.000364437
101 *106:528 *175:26 0
102 *130:6 *175:83 5.59543e-06
103 *134:12 *893:A2 1.03594e-05
104 *161:96 *907:A2 0.000621229
105 *161:151 *175:83 0.000360444
106 *161:151 *175:90 0.000159322
107 *161:155 *175:83 0.000226633
108 *161:169 *175:48 0.000102879
109 *161:175 *175:37 0.000318536
110 *161:175 *175:48 2.59855e-05
111 *161:194 *175:26 2.291e-05
*RES
1 *887:Y *175:10 41.2232 
2 *175:10 *175:12 8.48785 
3 *175:12 *175:26 41.6151 
4 *175:26 *893:A2 15.9964 
5 *175:26 *175:37 16.7811 
6 *175:37 *891:A2 14.4725 
7 *175:37 *175:48 11.3828 
8 *175:48 *900:A2 15.0271 
9 *175:48 *175:71 45.826 
10 *175:71 *175:83 25.7527 
11 *175:83 *909:A2 9.24915 
12 *175:83 *175:90 12.9247 
13 *175:90 *905:A2 9.24915 
14 *175:90 *898:A2 26.249 
15 *175:71 *889:A2 9.24915 
16 *175:12 *902:A2 9.24915 
17 *175:10 *911:A2 9.24915 
18 *898:A2 *907:A2 46.3273 
*END

*D_NET *176 0.000365685
*CONN
*I *889:B1 I *D sky130_fd_sc_hd__o211ai_1
*I *888:Y O *D sky130_fd_sc_hd__nand2_1
*CAP
1 *889:B1 0.000176483
2 *888:Y 0.000176483
3 *889:B1 *888:B 1.27193e-05
*RES
1 *888:Y *889:B1 22.0188 
*END

*D_NET *177 0.000302701
*CONN
*I *891:B1 I *D sky130_fd_sc_hd__o211ai_1
*I *890:Y O *D sky130_fd_sc_hd__nand2_1
*CAP
1 *891:B1 0.000128474
2 *890:Y 0.000128474
3 *891:B1 *527:16 1.43832e-05
4 *891:B1 *692:227 3.13704e-05
*RES
1 *890:Y *891:B1 21.4642 
*END

*D_NET *178 0.000887067
*CONN
*I *893:B1 I *D sky130_fd_sc_hd__o211ai_1
*I *892:Y O *D sky130_fd_sc_hd__nand2_1
*CAP
1 *893:B1 0.000193291
2 *892:Y 0.000193291
3 *893:B1 *997:B 3.64497e-06
4 *1103:D *893:B1 0.000109805
5 *106:528 *893:B1 0.000294468
6 *161:175 *893:B1 3.94206e-05
7 *161:194 *893:B1 5.31465e-05
*RES
1 *892:Y *893:B1 34.9002 
*END

*D_NET *179 0.0028073
*CONN
*I *896:B I *D sky130_fd_sc_hd__nand3_1
*I *894:Y O *D sky130_fd_sc_hd__nand2_1
*CAP
1 *896:B 0
2 *894:Y 0.000784526
3 *179:32 0.000784526
4 *179:32 *758:A2 1.79672e-05
5 *179:32 *896:C 1.30021e-05
6 *179:32 *1102:CLK 1.05746e-05
7 *179:32 *1111:RESET_B 0.000169924
8 *179:32 *1111:CLK 0
9 *179:32 *1486:A 0
10 *179:32 *493:16 7.50872e-05
11 *179:32 *535:10 0.000312995
12 *179:32 *674:20 4.58666e-05
13 *179:32 *691:276 0.000111495
14 *179:32 *707:49 1.74507e-05
15 *179:32 *707:64 0
16 *896:A *179:32 2.47875e-05
17 *1102:D *179:32 0.000184768
18 *1106:D *179:32 3.91944e-05
19 *136:65 *179:32 0.000207362
20 *161:71 *179:32 7.77309e-06
*RES
1 *894:Y *179:32 46.8814 
2 *179:32 *896:B 9.24915 
*END

*D_NET *180 0.000161681
*CONN
*I *896:C I *D sky130_fd_sc_hd__nand3_1
*I *895:Y O *D sky130_fd_sc_hd__nand3_1
*CAP
1 *896:C 4.18101e-05
2 *895:Y 4.18101e-05
3 *895:A *896:C 6.50586e-05
4 *179:32 *896:C 1.30021e-05
*RES
1 *895:Y *896:C 19.8004 
*END

*D_NET *181 0.000607398
*CONN
*I *898:B1 I *D sky130_fd_sc_hd__o211ai_1
*I *897:Y O *D sky130_fd_sc_hd__nand2_1
*CAP
1 *898:B1 0.000233061
2 *897:Y 0.000233061
3 *898:B1 *897:B 2.65831e-05
4 *802:A1 *898:B1 1.47978e-05
5 *898:C1 *898:B1 2.16355e-05
6 *106:150 *898:B1 7.82594e-05
*RES
1 *897:Y *898:B1 23.1521 
*END

*D_NET *182 0.000929993
*CONN
*I *900:B1 I *D sky130_fd_sc_hd__o211ai_1
*I *899:Y O *D sky130_fd_sc_hd__nand2_1
*CAP
1 *900:B1 0.000264257
2 *899:Y 0.000264257
3 *900:A1 *900:B1 3.01683e-06
4 *92:6 *900:B1 1.00937e-05
5 *161:163 *900:B1 0.000388369
*RES
1 *899:Y *900:B1 23.9479 
*END

*D_NET *183 0.000370409
*CONN
*I *902:B1 I *D sky130_fd_sc_hd__o211ai_1
*I *901:Y O *D sky130_fd_sc_hd__nand2_1
*CAP
1 *902:B1 3.3714e-05
2 *901:Y 3.3714e-05
3 *911:C1 *902:B1 7.246e-05
4 *1099:D *902:B1 1.41291e-05
5 *175:12 *902:B1 0.000216391
*RES
1 *901:Y *902:B1 20.8855 
*END

*D_NET *184 0.00160555
*CONN
*I *1067:A1 I *D sky130_fd_sc_hd__a21oi_1
*I *905:A1 I *D sky130_fd_sc_hd__o211ai_1
*I *903:Y O *D sky130_fd_sc_hd__inv_1
*CAP
1 *1067:A1 0
2 *905:A1 0.000302755
3 *903:Y 0.000101817
4 *184:6 0.000404572
5 *905:A1 *1067:B1 4.2577e-05
6 *184:6 *903:A 6.32655e-05
7 *184:6 *905:B1 1.41291e-05
8 *184:6 *690:376 0.000447989
9 *898:A2 *905:A1 1.75637e-06
10 *898:A2 *184:6 1.89968e-05
11 *905:C1 *905:A1 2.4968e-05
12 *908:A *905:A1 7.97947e-05
13 *1140:D *905:A1 4.89898e-06
14 *1140:D *184:6 2.41274e-06
15 *106:150 *184:6 9.56137e-05
*RES
1 *903:Y *184:6 14.6867 
2 *184:6 *905:A1 15.3618 
3 *184:6 *1067:A1 9.24915 
*END

*D_NET *185 0.00177872
*CONN
*I *905:B1 I *D sky130_fd_sc_hd__o211ai_1
*I *904:Y O *D sky130_fd_sc_hd__nand2_1
*CAP
1 *905:B1 0.000505078
2 *904:Y 0.000505078
3 *905:B1 intr_gpio_o[3] 1.51956e-05
4 *905:B1 *904:B 2.60879e-06
5 *905:B1 *1004:A 0
6 *898:A2 *905:B1 0.000111708
7 *908:A *905:B1 0.000120637
8 *106:150 *905:B1 6.08467e-05
9 *161:130 *905:B1 0.000433804
10 *161:142 *905:B1 9.63474e-06
11 *184:6 *905:B1 1.41291e-05
*RES
1 *904:Y *905:B1 39.4116 
*END

*D_NET *186 0.000837891
*CONN
*I *907:B1 I *D sky130_fd_sc_hd__o211ai_1
*I *906:Y O *D sky130_fd_sc_hd__nand2_1
*CAP
1 *907:B1 0.000243251
2 *906:Y 0.000243251
3 *907:B1 *894:B 1.40978e-05
4 *907:B1 *906:B 6.50727e-05
5 *894:A *907:B1 7.92757e-06
6 *161:71 *907:B1 0.000224381
7 *161:80 *907:B1 3.51034e-05
8 *161:96 *907:B1 4.80635e-06
*RES
1 *906:Y *907:B1 24.7918 
*END

*D_NET *187 0.000821406
*CONN
*I *909:B1 I *D sky130_fd_sc_hd__o211ai_1
*I *908:Y O *D sky130_fd_sc_hd__nand2_1
*CAP
1 *909:B1 0.000360784
2 *908:Y 0.000360784
3 *161:151 *909:B1 2.53399e-05
4 *175:90 *909:B1 7.44972e-05
*RES
1 *908:Y *909:B1 24.6472 
*END

*D_NET *188 0.000508003
*CONN
*I *911:B1 I *D sky130_fd_sc_hd__o211ai_1
*I *910:Y O *D sky130_fd_sc_hd__nand2_1
*CAP
1 *911:B1 0.000183817
2 *910:Y 0.000183817
3 *911:B1 *910:B 7.20173e-06
4 *911:B1 *327:14 2.57071e-05
5 *911:C1 *911:B1 6.50727e-05
6 *106:505 *911:B1 4.23874e-05
*RES
1 *910:Y *911:B1 30.887 
*END

*D_NET *189 0.000231318
*CONN
*I *913:B I *D sky130_fd_sc_hd__nor2_4
*I *912:Y O *D sky130_fd_sc_hd__nand2_1
*CAP
1 *913:B 0.000115659
2 *912:Y 0.000115659
*RES
1 *912:Y *913:B 30.1608 
*END

*D_NET *190 0.00653444
*CONN
*I *919:A1 I *D sky130_fd_sc_hd__a21oi_1
*I *934:A1 I *D sky130_fd_sc_hd__a21oi_1
*I *940:A1 I *D sky130_fd_sc_hd__a21oi_1
*I *952:A1 I *D sky130_fd_sc_hd__a21oi_1
*I *946:A1 I *D sky130_fd_sc_hd__a21oi_1
*I *958:A1 I *D sky130_fd_sc_hd__a21oi_1
*I *929:A1 I *D sky130_fd_sc_hd__a21oi_1
*I *924:A1 I *D sky130_fd_sc_hd__a21oi_1
*I *913:Y O *D sky130_fd_sc_hd__nor2_4
*CAP
1 *919:A1 0.000161885
2 *934:A1 0
3 *940:A1 2.12094e-05
4 *952:A1 0.00011267
5 *946:A1 6.18107e-05
6 *958:A1 7.38799e-05
7 *929:A1 0.000112211
8 *924:A1 0.000407266
9 *913:Y 0.000196138
10 *190:85 0.000302404
11 *190:51 0.000342913
12 *190:49 0.00021189
13 *190:18 0.000591009
14 *190:12 0.000696526
15 *190:10 0.000628983
16 *919:A1 *919:B1 0.000112361
17 *919:A1 *934:B1 0.000127397
18 *924:A1 *919:A2 0
19 *924:A1 *934:B1 0
20 *929:A1 *919:A2 0.000159075
21 *929:A1 *929:B1 0.000122378
22 *952:A1 *387:36 0.000195139
23 *190:10 *1089:RESET_B 0.000199217
24 *190:10 *211:18 0.00011231
25 *190:12 *1089:RESET_B 0.000226267
26 *190:18 *919:A2 5.0715e-05
27 *190:18 *958:B1 8.18344e-06
28 *190:49 *940:B1 0.000152189
29 *190:49 *211:18 6.78596e-05
30 *190:51 *940:B1 6.3657e-05
31 *190:85 *924:A2 6.46815e-05
32 *190:85 *924:B1 7.66391e-06
33 *190:85 *934:B1 0.000112367
34 *789:B *952:A1 0
35 *887:A *924:A1 0
36 *887:A *190:18 0
37 *939:B *190:49 4.21625e-05
38 *939:B *190:51 8.44502e-05
39 *945:B *940:A1 0
40 *945:B *946:A1 0
41 *1089:D *952:A1 0
42 *1090:D *190:12 0
43 *1090:D *190:51 2.50363e-05
44 *1091:D *924:A1 2.53809e-05
45 *1092:D *929:A1 3.25584e-05
46 *1093:D *924:A1 2.53809e-05
47 *106:499 *190:12 0.000194594
48 *106:499 *190:18 8.4688e-05
49 *106:503 *929:A1 5.04829e-06
50 *106:503 *190:18 4.58003e-05
51 *112:45 *952:A1 0
52 *136:106 *946:A1 5.0715e-05
53 *136:106 *190:51 3.82228e-05
54 *136:115 *190:51 6.49003e-05
55 *136:119 *190:12 0
56 *136:145 *958:A1 0.000113244
*RES
1 *913:Y *190:10 18.2442 
2 *190:10 *190:12 12.2133 
3 *190:12 *190:18 10.5168 
4 *190:18 *924:A1 25.0642 
5 *190:18 *929:A1 14.4094 
6 *190:12 *958:A1 15.0271 
7 *190:10 *190:49 6.3326 
8 *190:49 *190:51 5.16022 
9 *190:51 *946:A1 11.1059 
10 *190:51 *952:A1 21.7421 
11 *190:49 *940:A1 9.82786 
12 *924:A1 *190:85 11.6364 
13 *190:85 *934:A1 9.24915 
14 *190:85 *919:A1 12.191 
*END

*D_NET *191 0.00320877
*CONN
*I *916:A1 I *D sky130_fd_sc_hd__o21ai_0
*I *1052:A1 I *D sky130_fd_sc_hd__o21ai_0
*I *914:Y O *D sky130_fd_sc_hd__inv_1
*CAP
1 *916:A1 0.000330911
2 *1052:A1 0.000292898
3 *914:Y 0.000152406
4 *191:8 0.000776215
5 *916:A1 *825:S 7.45365e-06
6 *916:A1 *921:A1 0.000294253
7 *916:A1 *921:A2 0.000387803
8 *916:A1 *1132:RESET_B 0
9 *916:A1 *699:16 0.000109033
10 *1052:A1 *920:A 0.000122842
11 *1052:A1 *921:A1 3.20407e-05
12 *1052:A1 *960:A 9.82896e-06
13 *1052:A1 *961:A1 0.00028076
14 *1052:A1 *961:B1 2.65667e-05
15 *1052:A1 *1052:B1 0.000111562
16 *1052:A1 *228:96 6.92705e-05
17 *1052:A1 *228:100 4.81626e-05
18 *191:8 *196:8 8.75727e-05
19 *191:8 *699:67 6.91907e-05
*RES
1 *914:Y *191:8 16.4137 
2 *191:8 *1052:A1 23.7286 
3 *191:8 *916:A1 25.9624 
*END

*D_NET *192 0.011883
*CONN
*I *916:A2 I *D sky130_fd_sc_hd__o21ai_0
*I *921:A2 I *D sky130_fd_sc_hd__o21ai_0
*I *953:C I *D sky130_fd_sc_hd__nor3_1
*I *947:C I *D sky130_fd_sc_hd__nor3_1
*I *943:B I *D sky130_fd_sc_hd__nand2_1
*I *959:B I *D sky130_fd_sc_hd__nor4_4
*I *944:A2 I *D sky130_fd_sc_hd__a32oi_1
*I *938:A2 I *D sky130_fd_sc_hd__a31oi_1
*I *942:A1 I *D sky130_fd_sc_hd__o21ai_0
*I *926:A2 I *D sky130_fd_sc_hd__o21ai_0
*I *931:A1 I *D sky130_fd_sc_hd__o21ai_0
*I *915:Y O *D sky130_fd_sc_hd__lpflow_clkinvkapwr_1
*CAP
1 *916:A2 0
2 *921:A2 0.000142144
3 *953:C 0
4 *947:C 3.137e-05
5 *943:B 0.000294976
6 *959:B 0.000416271
7 *944:A2 0
8 *938:A2 0.000141128
9 *942:A1 0.000153496
10 *926:A2 1.68812e-05
11 *931:A1 0.000249546
12 *915:Y 1.93962e-05
13 *192:125 0.000192117
14 *192:81 0.000764993
15 *192:72 0.000579572
16 *192:57 0.000878355
17 *192:42 0.000459399
18 *192:40 0.000517855
19 *192:25 0.000681222
20 *192:14 0.000543867
21 *192:10 0.000200102
22 *192:6 0.000247507
23 *921:A2 *387:21 7.17398e-06
24 *926:A2 *927:B1 2.58616e-05
25 *926:A2 *202:12 2.58616e-05
26 *931:A1 *800:A1 5.39608e-05
27 *931:A1 *932:A2 0
28 *931:A1 *953:B 0
29 *931:A1 *955:A 2.22198e-05
30 *931:A1 *956:A1 0
31 *931:A1 *699:22 0
32 *938:A2 *938:B1 6.27718e-05
33 *938:A2 *211:18 6.24474e-06
34 *942:A1 *213:8 3.5063e-05
35 *943:B *935:A 5.20665e-05
36 *943:B *967:A2 3.37731e-05
37 *943:B *967:B1 0.000118166
38 *943:B *1050:A1 0
39 *943:B *1050:B1 0
40 *943:B *228:160 2.86977e-05
41 *943:B *625:139 9.04083e-05
42 *947:C *625:132 2.09072e-05
43 *959:B *946:A2 0.000513008
44 *959:B *459:32 3.99086e-06
45 *192:10 *953:A 8.17142e-05
46 *192:10 *953:B 3.17054e-05
47 *192:10 *459:84 0.000104131
48 *192:14 *953:B 0.000113968
49 *192:25 *932:A2 0
50 *192:25 *955:A 8.56543e-05
51 *192:25 *955:B 4.07982e-05
52 *192:40 *949:B 0.000143032
53 *192:40 *955:B 1.71187e-05
54 *192:40 *625:132 5.88662e-05
55 *192:42 *936:A1 0
56 *192:42 *968:A0 3.69482e-05
57 *192:42 *625:132 1.5147e-05
58 *192:57 *938:B1 2.86829e-05
59 *192:72 *944:A3 7.26748e-05
60 *192:72 *1079:CLK 8.52374e-05
61 *192:72 *211:18 8.58818e-06
62 *192:72 *625:139 7.26748e-05
63 *192:81 *944:A3 6.06764e-05
64 *192:81 *228:160 1.41284e-05
65 *192:81 *625:139 0.000108276
66 *887:A *192:6 3.01683e-06
67 *887:A *192:10 7.22498e-05
68 *887:A *192:125 7.65564e-05
69 *887:B *192:10 6.50727e-05
70 *916:A1 *921:A2 0.000387803
71 *938:A1 *938:A2 2.16355e-05
72 *942:B1 *942:A1 0.000346887
73 *959:C *959:B 1.78769e-05
74 *1079:D *192:72 0.000159908
75 *106:503 *192:10 0.000929161
76 *106:503 *192:14 4.0752e-05
77 *106:503 *192:125 0.000222149
78 *111:12 *192:40 0
79 *111:20 *192:40 0.000262843
80 *111:29 *192:40 0.000244342
81 *111:29 *192:42 7.8756e-07
82 *111:40 *192:42 3.87022e-06
83 *111:40 *192:57 3.87022e-06
84 *111:55 *192:57 4.59656e-05
85 *111:74 *192:57 5.18062e-06
86 *111:120 *921:A2 0.000162673
87 *112:21 *192:40 0
*RES
1 *915:Y *192:6 9.82786 
2 *192:6 *192:10 10.7304 
3 *192:10 *192:14 5.778 
4 *192:14 *931:A1 20.1489 
5 *192:14 *192:25 6.81502 
6 *192:25 *926:A2 14.4725 
7 *192:25 *192:40 12.2255 
8 *192:40 *192:42 2.45487 
9 *192:42 *942:A1 18.3789 
10 *192:42 *192:57 9.23876 
11 *192:57 *938:A2 12.191 
12 *192:57 *192:72 13.8741 
13 *192:72 *944:A2 13.7491 
14 *192:72 *192:81 2.24725 
15 *192:81 *959:B 21.4171 
16 *192:81 *943:B 21.73 
17 *192:40 *947:C 14.8606 
18 *192:10 *953:C 9.24915 
19 *192:6 *192:125 2.96592 
20 *192:125 *921:A2 25.0642 
21 *192:125 *916:A2 9.24915 
*END

*D_NET *193 0.000747654
*CONN
*I *917:B1 I *D sky130_fd_sc_hd__o21ai_0
*I *916:Y O *D sky130_fd_sc_hd__o21ai_0
*CAP
1 *917:B1 0.000203759
2 *916:Y 0.000203759
3 *917:B1 *386:32 2.26985e-05
4 *917:B1 *386:36 1.16596e-05
5 *887:A *917:B1 5.41227e-05
6 *106:503 *917:B1 0.000251655
*RES
1 *916:Y *917:B1 31.4416 
*END

*D_NET *194 0.0024308
*CONN
*I *919:A2 I *D sky130_fd_sc_hd__a21oi_1
*I *917:Y O *D sky130_fd_sc_hd__o21ai_0
*CAP
1 *919:A2 0.000842376
2 *917:Y 0.000842376
3 *919:A2 *924:B1 3.25494e-05
4 *919:A2 *929:B1 0.000171273
5 *919:A2 *934:B1 1.55462e-05
6 *887:A *919:A2 6.92705e-05
7 *924:A1 *919:A2 0
8 *929:A1 *919:A2 0.000159075
9 *1094:D *919:A2 5.85954e-05
10 *106:503 *919:A2 6.62158e-05
11 *136:162 *919:A2 0.000122811
12 *190:18 *919:A2 5.0715e-05
*RES
1 *917:Y *919:A2 44.7437 
*END

*D_NET *195 0.00136587
*CONN
*I *919:B1 I *D sky130_fd_sc_hd__a21oi_1
*I *918:Y O *D sky130_fd_sc_hd__nor2_1
*CAP
1 *919:B1 0.000155949
2 *918:Y 0.000155949
3 *919:B1 *924:B1 0.000130195
4 *919:B1 *933:A 0.00016386
5 *919:B1 *934:B1 6.46815e-05
6 *919:B1 *1233:A 0.000405074
7 *918:B *919:B1 5.57138e-05
8 *919:A1 *919:B1 0.000112361
9 *923:B *919:B1 6.27782e-05
10 *1094:D *919:B1 1.96344e-05
11 *136:173 *919:B1 3.96696e-05
*RES
1 *918:Y *919:B1 26.4315 
*END

*D_NET *196 0.00196772
*CONN
*I *921:A1 I *D sky130_fd_sc_hd__o21ai_0
*I *961:A1 I *D sky130_fd_sc_hd__o21ai_0
*I *920:Y O *D sky130_fd_sc_hd__inv_1
*CAP
1 *921:A1 0.000158471
2 *961:A1 0.000161711
3 *920:Y 3.82167e-05
4 *196:8 0.0003584
5 *921:A1 *825:S 0.000137934
6 *921:A1 *1064:A1 2.16355e-05
7 *961:A1 *825:A0 9.54187e-05
8 *961:A1 *825:S 1.72644e-05
9 *961:A1 *920:A 1.5254e-05
10 *961:A1 *960:A 3.14978e-05
11 *961:A1 *960:B 1.07248e-05
12 *961:A1 *228:100 3.14978e-05
13 *196:8 *699:67 0.000134222
14 *916:A1 *921:A1 0.000294253
15 *931:B1 *921:A1 6.08467e-05
16 *1052:A1 *921:A1 3.20407e-05
17 *1052:A1 *961:A1 0.00028076
18 *191:8 *196:8 8.75727e-05
*RES
1 *920:Y *196:8 15.3044 
2 *196:8 *961:A1 19.6682 
3 *196:8 *921:A1 20.4571 
*END

*D_NET *197 0.000434681
*CONN
*I *922:B1 I *D sky130_fd_sc_hd__o21ai_0
*I *921:Y O *D sky130_fd_sc_hd__o21ai_0
*CAP
1 *922:B1 0.00011967
2 *921:Y 0.00011967
3 *922:B1 *922:A1 0.000110458
4 *922:B1 *924:A2 1.50924e-05
5 *922:B1 *1064:A1 6.27718e-05
6 *931:B1 *922:B1 7.01935e-06
*RES
1 *921:Y *922:B1 21.8741 
*END

*D_NET *198 0.00097209
*CONN
*I *924:A2 I *D sky130_fd_sc_hd__a21oi_1
*I *922:Y O *D sky130_fd_sc_hd__o21ai_0
*CAP
1 *924:A2 0.000412971
2 *922:Y 0.000412971
3 *924:A2 *924:B1 6.63746e-05
4 *922:B1 *924:A2 1.50924e-05
5 *190:85 *924:A2 6.46815e-05
*RES
1 *922:Y *924:A2 26.094 
*END

*D_NET *199 0.00132649
*CONN
*I *924:B1 I *D sky130_fd_sc_hd__a21oi_1
*I *923:Y O *D sky130_fd_sc_hd__nor2_1
*CAP
1 *924:B1 0.000369444
2 *923:Y 0.000369444
3 *924:B1 *934:B1 0.000223097
4 *919:A2 *924:B1 3.25494e-05
5 *919:B1 *924:B1 0.000130195
6 *924:A2 *924:B1 6.63746e-05
7 *1094:D *924:B1 0.000127719
8 *190:85 *924:B1 7.66391e-06
*RES
1 *923:Y *924:B1 37.774 
*END

*D_NET *200 0.00423843
*CONN
*I *926:A1 I *D sky130_fd_sc_hd__o21ai_0
*I *963:A1 I *D sky130_fd_sc_hd__o21ai_0
*I *925:Y O *D sky130_fd_sc_hd__inv_1
*CAP
1 *926:A1 0.0010742
2 *963:A1 7.9162e-05
3 *925:Y 0.000229121
4 *200:12 0.00138249
5 *926:A1 *927:A1 7.74477e-05
6 *926:A1 *927:B1 1.43832e-05
7 *926:A1 *1145:RESET_B 5.52256e-05
8 *926:A1 *1145:CLK 0
9 *926:A1 *1152:CLK 5.05364e-05
10 *926:A1 *202:12 6.27782e-05
11 *926:A1 *384:12 2.91598e-05
12 *926:A1 *418:16 0
13 *926:A1 *690:76 0.00031669
14 *926:A1 *691:29 1.64347e-05
15 *926:A1 *691:35 6.49544e-05
16 *926:A1 *691:56 1.32509e-05
17 *963:A1 *767:A2 0.000206718
18 *963:A1 *964:B 0.000112367
19 *963:A1 *228:47 1.88563e-05
20 *200:12 *826:A0 6.1096e-05
21 *200:12 *962:B 4.17481e-05
22 *200:12 *963:B1 0.000110626
23 *200:12 *964:B 3.52873e-06
24 *200:12 *1522:A 5.41627e-05
25 *200:12 *384:12 0.000163492
*RES
1 *925:Y *200:12 21.3278 
2 *200:12 *963:A1 16.7151 
3 *200:12 *926:A1 38.6833 
*END

*D_NET *201 0.000275436
*CONN
*I *927:B1 I *D sky130_fd_sc_hd__o21ai_0
*I *926:Y O *D sky130_fd_sc_hd__o21ai_0
*CAP
1 *927:B1 8.25667e-05
2 *926:Y 8.25667e-05
3 *927:B1 *202:12 7.28567e-06
4 *926:A1 *927:B1 1.43832e-05
5 *926:A2 *927:B1 2.58616e-05
6 *111:20 *927:B1 6.27718e-05
*RES
1 *926:Y *927:B1 20.9096 
*END

*D_NET *202 0.00573984
*CONN
*I *929:A2 I *D sky130_fd_sc_hd__a21oi_1
*I *927:Y O *D sky130_fd_sc_hd__o21ai_0
*CAP
1 *929:A2 0.000794567
2 *927:Y 0.00127374
3 *202:12 0.0020683
4 *929:A2 *958:A2 0.000245561
5 *929:A2 *958:B1 0.000406266
6 *202:12 *1087:RESET_B 0.000100397
7 *202:12 *1088:CLK 0.000160942
8 *202:12 *386:36 0.000188637
9 *887:A *202:12 3.32755e-05
10 *926:A1 *202:12 6.27782e-05
11 *926:A2 *202:12 2.58616e-05
12 *927:B1 *202:12 7.28567e-06
13 *1088:D *202:12 7.84712e-05
14 *1092:D *929:A2 7.04109e-05
15 *106:499 *929:A2 0
16 *111:14 *202:12 1.04291e-05
17 *111:20 *202:12 3.01368e-06
18 *111:99 *202:12 2.19798e-05
19 *111:116 *202:12 1.52614e-05
20 *136:119 *202:12 4.28054e-05
21 *136:158 *929:A2 0.000124637
22 *136:162 *929:A2 5.22654e-06
*RES
1 *927:Y *202:12 39.6583 
2 *202:12 *929:A2 32.7271 
*END

*D_NET *203 0.00132715
*CONN
*I *929:B1 I *D sky130_fd_sc_hd__a21oi_1
*I *928:Y O *D sky130_fd_sc_hd__nor2_1
*CAP
1 *929:B1 0.000244039
2 *928:Y 0.000244039
3 *929:B1 *1235:A 6.33469e-05
4 *919:A2 *929:B1 0.000171273
5 *928:B *929:B1 0.000482072
6 *929:A1 *929:B1 0.000122378
*RES
1 *928:Y *929:B1 26.9861 
*END

*D_NET *204 0.0020909
*CONN
*I *931:A2 I *D sky130_fd_sc_hd__o21ai_0
*I *965:A1 I *D sky130_fd_sc_hd__o21ai_0
*I *930:Y O *D sky130_fd_sc_hd__inv_1
*CAP
1 *931:A2 0.000201701
2 *965:A1 0.000541462
3 *930:Y 5.61928e-05
4 *204:6 0.000799356
5 *931:A2 *800:A1 0.000138334
6 *931:A2 *206:14 2.83365e-05
7 *931:A2 *228:73 3.82612e-05
8 *965:A1 *965:A2 0.000180675
9 *965:A1 *228:92 7.20028e-05
10 *204:6 *228:92 3.45797e-05
*RES
1 *930:Y *204:6 10.2498 
2 *204:6 *965:A1 18.171 
3 *204:6 *931:A2 23.8184 
*END

*D_NET *205 0.000343046
*CONN
*I *932:B1 I *D sky130_fd_sc_hd__o21ai_0
*I *931:Y O *D sky130_fd_sc_hd__o21ai_0
*CAP
1 *932:B1 0.000146058
2 *931:Y 0.000146058
3 *932:B1 *690:39 4.39461e-05
4 *931:B1 *932:B1 6.98337e-06
*RES
1 *931:Y *932:B1 21.8741 
*END

*D_NET *206 0.00433515
*CONN
*I *934:A2 I *D sky130_fd_sc_hd__a21oi_1
*I *932:Y O *D sky130_fd_sc_hd__o21ai_0
*CAP
1 *934:A2 0.000105907
2 *932:Y 0.00180878
3 *206:14 0.00191469
4 *934:A2 *934:B1 3.44412e-06
5 *206:14 *800:A0 3.00174e-06
6 *206:14 *800:A1 0.00015901
7 *206:14 *953:B 1.47716e-05
8 *206:14 *387:10 1.43832e-05
9 *206:14 *699:37 9.67661e-05
10 *931:A2 *206:14 2.83365e-05
11 *1091:D *934:A2 2.41056e-05
12 *1091:D *206:14 0.000161956
*RES
1 *932:Y *206:14 49.8464 
2 *206:14 *934:A2 15.9964 
*END

*D_NET *207 0.0014594
*CONN
*I *934:B1 I *D sky130_fd_sc_hd__a21oi_1
*I *933:Y O *D sky130_fd_sc_hd__nor2_1
*CAP
1 *934:B1 0.000344327
2 *933:Y 0.000344327
3 *918:B *934:B1 7.34948e-06
4 *919:A1 *934:B1 0.000127397
5 *919:A2 *934:B1 1.55462e-05
6 *919:B1 *934:B1 6.46815e-05
7 *923:B *934:B1 5.51483e-06
8 *924:A1 *934:B1 0
9 *924:B1 *934:B1 0.000223097
10 *934:A2 *934:B1 3.44412e-06
11 *1091:D *934:B1 0
12 *1094:D *934:B1 0.000160617
13 *136:173 *934:B1 5.07314e-05
14 *190:85 *934:B1 0.000112367
*RES
1 *933:Y *934:B1 36.6554 
*END

*D_NET *208 0.00082007
*CONN
*I *937:A2 I *D sky130_fd_sc_hd__a21oi_1
*I *1050:A1 I *D sky130_fd_sc_hd__o21ai_0
*I *935:Y O *D sky130_fd_sc_hd__inv_1
*CAP
1 *937:A2 0.000141222
2 *1050:A1 0.00011191
3 *935:Y 3.8054e-05
4 *208:6 0.000291186
5 *937:A2 *936:A2 0
6 *937:A2 *938:B1 2.18935e-05
7 *937:A2 *459:32 6.27718e-05
8 *1050:A1 *1050:A2 3.14978e-05
9 *1050:A1 *1050:B1 3.12751e-05
10 *208:6 *935:A 2.46912e-05
11 *943:B *1050:A1 0
12 *944:A1 *937:A2 6.5568e-05
*RES
1 *935:Y *208:6 10.2498 
2 *208:6 *1050:A1 12.2151 
3 *208:6 *937:A2 22.0503 
*END

*D_NET *209 0.000366188
*CONN
*I *937:B1 I *D sky130_fd_sc_hd__a21oi_1
*I *936:Y O *D sky130_fd_sc_hd__a21oi_1
*CAP
1 *937:B1 0.000105541
2 *936:Y 0.000105541
3 *937:B1 *936:B1 4.89251e-05
4 *937:B1 *938:B1 1.61631e-05
5 *937:B1 *459:32 8.52561e-05
6 *937:B1 *459:47 4.76161e-06
*RES
1 *936:Y *937:B1 22.0429 
*END

*D_NET *210 0.0007615
*CONN
*I *938:B1 I *D sky130_fd_sc_hd__a31oi_1
*I *937:Y O *D sky130_fd_sc_hd__a21oi_1
*CAP
1 *938:B1 0.000231263
2 *937:Y 0.000231263
3 *938:B1 *936:A2 1.65315e-05
4 *938:B1 *211:18 1.83992e-05
5 *938:B1 *459:32 7.48715e-05
6 *937:A2 *938:B1 2.18935e-05
7 *937:B1 *938:B1 1.61631e-05
8 *938:A2 *938:B1 6.27718e-05
9 *111:74 *938:B1 5.96611e-05
10 *192:57 *938:B1 2.86829e-05
*RES
1 *937:Y *938:B1 33.4079 
*END

*D_NET *211 0.00380399
*CONN
*I *940:A2 I *D sky130_fd_sc_hd__a21oi_1
*I *938:Y O *D sky130_fd_sc_hd__a31oi_1
*CAP
1 *940:A2 0
2 *938:Y 0.00144601
3 *211:18 0.00144601
4 *211:18 cio_gpio_o[2] 0.000165521
5 *211:18 *940:B1 3.28433e-06
6 *211:18 *941:A 7.93654e-05
7 *211:18 *944:A3 1.2936e-05
8 *211:18 *1079:CLK 0.000236674
9 *211:18 *1089:RESET_B 7.28994e-06
10 *211:18 *1247:A 5.62568e-05
11 *211:18 *510:12 6.65668e-05
12 *938:A2 *211:18 6.24474e-06
13 *938:B1 *211:18 1.83992e-05
14 *939:B *211:18 6.36477e-05
15 *106:499 *211:18 7.03112e-06
16 *136:119 *211:18 0
17 *190:10 *211:18 0.00011231
18 *190:49 *211:18 6.78596e-05
19 *192:72 *211:18 8.58818e-06
*RES
1 *938:Y *211:18 46.3937 
2 *211:18 *940:A2 9.24915 
*END

*D_NET *212 0.000674823
*CONN
*I *940:B1 I *D sky130_fd_sc_hd__a21oi_1
*I *939:Y O *D sky130_fd_sc_hd__nor2_1
*CAP
1 *940:B1 0.000215419
2 *939:Y 0.000215419
3 *939:B *940:B1 7.92757e-06
4 *136:119 *940:B1 1.69261e-05
5 *190:49 *940:B1 0.000152189
6 *190:51 *940:B1 6.3657e-05
7 *211:18 *940:B1 3.28433e-06
*RES
1 *939:Y *940:B1 32.1744 
*END

*D_NET *213 0.00149344
*CONN
*I *942:A2 I *D sky130_fd_sc_hd__o21ai_0
*I *967:A1 I *D sky130_fd_sc_hd__o21ai_0
*I *941:Y O *D sky130_fd_sc_hd__inv_1
*CAP
1 *942:A2 0
2 *967:A1 0.000447783
3 *941:Y 0.000108095
4 *213:8 0.000555878
5 *967:A1 *936:A1 4.75615e-05
6 *967:A1 *944:B2 5.77383e-05
7 *967:A1 *625:139 0
8 *213:8 *941:A 5.90681e-05
9 *213:8 *228:14 1.76325e-05
10 *942:A1 *213:8 3.5063e-05
11 *942:B1 *213:8 5.31465e-05
12 *1079:D *967:A1 0.000111477
*RES
1 *941:Y *213:8 12.4924 
2 *213:8 *967:A1 29.29 
3 *213:8 *942:A2 9.24915 
*END

*D_NET *214 0.00102778
*CONN
*I *944:B1 I *D sky130_fd_sc_hd__a32oi_1
*I *942:Y O *D sky130_fd_sc_hd__o21ai_0
*CAP
1 *944:B1 0.000269206
2 *942:Y 0.000269206
3 *944:B1 *228:14 0.000114271
4 *944:B1 *625:132 0.000163492
5 *944:B1 *625:139 0.000152338
6 *1079:D *944:B1 5.92699e-05
*RES
1 *942:Y *944:B1 34.7608 
*END

*D_NET *215 0.000758211
*CONN
*I *944:B2 I *D sky130_fd_sc_hd__a32oi_1
*I *943:Y O *D sky130_fd_sc_hd__nand2_1
*CAP
1 *944:B2 0.000140783
2 *943:Y 0.000140783
3 *944:B2 *459:32 0.000208062
4 *944:A1 *944:B2 0.000210844
5 *967:A1 *944:B2 5.77383e-05
*RES
1 *943:Y *944:B2 32.548 
*END

*D_NET *216 0.00273285
*CONN
*I *946:A2 I *D sky130_fd_sc_hd__a21oi_1
*I *944:Y O *D sky130_fd_sc_hd__a32oi_1
*CAP
1 *946:A2 0.000410185
2 *944:Y 0.000410185
3 *946:A2 *387:36 0.000574411
4 *946:A2 *459:32 0.00048994
5 *946:A2 *674:20 0.000161545
6 *959:B *946:A2 0.000513008
7 *1089:D *946:A2 8.92568e-06
8 *136:106 *946:A2 0.000164648
*RES
1 *944:Y *946:A2 45.4292 
*END

*D_NET *217 0.000859699
*CONN
*I *946:B1 I *D sky130_fd_sc_hd__a21oi_1
*I *945:Y O *D sky130_fd_sc_hd__nor2_1
*CAP
1 *946:B1 0.000270355
2 *945:Y 0.000270355
3 *945:B *946:B1 0
4 *136:106 *946:B1 0.000253916
5 *136:115 *946:B1 6.50727e-05
*RES
1 *945:Y *946:B1 23.128 
*END

*D_NET *218 0.00038645
*CONN
*I *949:A I *D sky130_fd_sc_hd__nor2_1
*I *947:Y O *D sky130_fd_sc_hd__nor3_1
*CAP
1 *949:A 9.37801e-05
2 *947:Y 9.37801e-05
3 *949:A *949:B 6.3152e-05
4 *949:A *625:132 0.000135738
*RES
1 *947:Y *949:A 30.1608 
*END

*D_NET *219 0.000603578
*CONN
*I *949:B I *D sky130_fd_sc_hd__nor2_1
*I *948:Y O *D sky130_fd_sc_hd__a21oi_1
*CAP
1 *949:B 0.000144949
2 *948:Y 0.000144949
3 *949:B *948:A2 0.000107496
4 *949:A *949:B 6.3152e-05
5 *192:40 *949:B 0.000143032
*RES
1 *948:Y *949:B 31.4388 
*END

*D_NET *220 0.000196789
*CONN
*I *950:B1 I *D sky130_fd_sc_hd__a21oi_1
*I *949:Y O *D sky130_fd_sc_hd__nor2_1
*CAP
1 *950:B1 2.47937e-05
2 *949:Y 2.47937e-05
3 *950:B1 *789:A 3.57594e-05
4 *950:B1 *950:A1 0.000111442
*RES
1 *949:Y *950:B1 19.7763 
*END

*D_NET *221 0.00204852
*CONN
*I *952:A2 I *D sky130_fd_sc_hd__a21oi_1
*I *950:Y O *D sky130_fd_sc_hd__a21oi_1
*CAP
1 *952:A2 0.000399442
2 *950:Y 0.000399442
3 *952:A2 *789:A 0.000568122
4 *952:A2 *311:39 0.000206073
5 *952:A2 *701:34 0.000243374
6 *1088:D *952:A2 0.000224395
7 *112:8 *952:A2 7.6719e-06
*RES
1 *950:Y *952:A2 32.7492 
*END

*D_NET *222 0.00142797
*CONN
*I *952:B1 I *D sky130_fd_sc_hd__a21oi_1
*I *951:Y O *D sky130_fd_sc_hd__nor2_1
*CAP
1 *952:B1 0.000556726
2 *951:Y 0.000556726
3 *952:B1 *958:A2 3.69222e-05
4 *952:B1 *387:36 7.99878e-05
5 *789:B *952:B1 8.15814e-05
6 *951:B *952:B1 2.08133e-05
7 *111:116 *952:B1 8.10199e-05
8 *136:145 *952:B1 1.41976e-05
*RES
1 *951:Y *952:B1 40.0253 
*END

*D_NET *223 0.000649805
*CONN
*I *955:A I *D sky130_fd_sc_hd__nor2_1
*I *953:Y O *D sky130_fd_sc_hd__nor3_1
*CAP
1 *955:A 0.000198047
2 *953:Y 0.000198047
3 *955:A *956:B1 6.3657e-05
4 *955:A *459:84 8.21793e-05
5 *931:A1 *955:A 2.22198e-05
6 *192:25 *955:A 8.56543e-05
*RES
1 *953:Y *955:A 32.9604 
*END

*D_NET *224 0.00146191
*CONN
*I *955:B I *D sky130_fd_sc_hd__nor2_1
*I *954:Y O *D sky130_fd_sc_hd__a21oi_1
*CAP
1 *955:B 0.000391975
2 *954:Y 0.000391975
3 *955:B *968:A1 5.41377e-05
4 *955:B *459:59 6.99617e-05
5 *955:B *459:61 8.79352e-05
6 *955:B *459:84 5.45523e-05
7 *1078:D *955:B 0.000229345
8 *111:20 *955:B 0.000111768
9 *111:29 *955:B 1.23455e-05
10 *192:25 *955:B 4.07982e-05
11 *192:40 *955:B 1.71187e-05
*RES
1 *954:Y *955:B 40.4378 
*END

*D_NET *225 0.0002694
*CONN
*I *956:B1 I *D sky130_fd_sc_hd__a21oi_1
*I *955:Y O *D sky130_fd_sc_hd__nor2_1
*CAP
1 *956:B1 9.77863e-05
2 *955:Y 9.77863e-05
3 *956:B1 *958:A2 4.17531e-06
4 *956:B1 *459:84 5.99529e-06
5 *955:A *956:B1 6.3657e-05
*RES
1 *955:Y *956:B1 20.9096 
*END

*D_NET *226 0.00220025
*CONN
*I *958:A2 I *D sky130_fd_sc_hd__a21oi_1
*I *956:Y O *D sky130_fd_sc_hd__a21oi_1
*CAP
1 *958:A2 0.000723914
2 *956:Y 0.000723914
3 *958:A2 *958:B1 0.000145263
4 *958:A2 *1463:A 2.84892e-05
5 *958:A2 *699:16 0.000161956
6 *929:A2 *958:A2 0.000245561
7 *951:B *958:A2 2.58616e-05
8 *952:B1 *958:A2 3.69222e-05
9 *956:B1 *958:A2 4.17531e-06
10 *136:145 *958:A2 0.000104198
*RES
1 *956:Y *958:A2 37.7527 
*END

*D_NET *227 0.00103368
*CONN
*I *958:B1 I *D sky130_fd_sc_hd__a21oi_1
*I *957:Y O *D sky130_fd_sc_hd__nor2_1
*CAP
1 *958:B1 0.000144094
2 *957:Y 0.000144094
3 *929:A2 *958:B1 0.000406266
4 *958:A2 *958:B1 0.000145263
5 *1087:D *958:B1 5.01737e-05
6 *136:145 *958:B1 0.000135606
7 *190:18 *958:B1 8.18344e-06
*RES
1 *957:Y *958:B1 33.8288 
*END

*D_NET *228 0.0168146
*CONN
*I *967:A2 I *D sky130_fd_sc_hd__o21ai_0
*I *966:A I *D sky130_fd_sc_hd__nand2_1
*I *968:S I *D sky130_fd_sc_hd__mux2_1
*I *1050:A2 I *D sky130_fd_sc_hd__o21ai_0
*I *1049:A I *D sky130_fd_sc_hd__nand2_1
*I *969:S I *D sky130_fd_sc_hd__mux2_1
*I *1051:A I *D sky130_fd_sc_hd__nand2_1
*I *1052:A2 I *D sky130_fd_sc_hd__o21ai_0
*I *960:A I *D sky130_fd_sc_hd__nand2_1
*I *961:A2 I *D sky130_fd_sc_hd__o21ai_0
*I *965:A2 I *D sky130_fd_sc_hd__o21ai_0
*I *963:A2 I *D sky130_fd_sc_hd__o21ai_0
*I *962:A I *D sky130_fd_sc_hd__nand2_1
*I *964:A I *D sky130_fd_sc_hd__nand2_1
*I *959:Y O *D sky130_fd_sc_hd__nor4_4
*CAP
1 *967:A2 0.000144841
2 *966:A 0
3 *968:S 2.1308e-05
4 *1050:A2 0.000115738
5 *1049:A 0
6 *969:S 0
7 *1051:A 0
8 *1052:A2 0
9 *960:A 0.000141454
10 *961:A2 9.05956e-06
11 *965:A2 0.000197576
12 *963:A2 0
13 *962:A 0.000126395
14 *964:A 6.01071e-06
15 *959:Y 5.0318e-05
16 *228:160 0.000356003
17 *228:135 0.000288434
18 *228:100 0.00021515
19 *228:96 0.000114857
20 *228:92 0.000487241
21 *228:73 0.000843997
22 *228:47 0.000372106
23 *228:28 0.000297536
24 *228:24 0.000816947
25 *228:18 0.00097975
26 *228:14 0.000593408
27 *228:8 0.000588258
28 *960:A cio_gpio_en_o[3] 1.41976e-05
29 *960:A *961:B1 0.000111708
30 *962:A *962:B 6.08467e-05
31 *962:A *963:B1 2.09356e-05
32 *962:A *421:10 0.000360083
33 *962:A *698:68 6.50586e-05
34 *965:A2 *969:A1 2.41961e-05
35 *965:A2 *310:29 5.31465e-05
36 *967:A2 *967:B1 5.0715e-05
37 *1050:A2 *1050:B1 0.000423922
38 *228:8 *460:38 2.16355e-05
39 *228:14 *936:A1 0.000267394
40 *228:14 *941:A 0.000184886
41 *228:14 *460:38 0.000279468
42 *228:18 *936:A1 0.00025808
43 *228:18 *968:A1 3.99086e-06
44 *228:24 *799:A0 0.000829045
45 *228:24 *800:S 8.3179e-05
46 *228:24 *1294:A 0.000101177
47 *228:24 *381:16 0.000283455
48 *228:24 *381:50 0.000174403
49 *228:24 *385:10 0
50 *228:24 *418:16 2.60419e-05
51 *228:24 *690:12 0.000408969
52 *228:24 *690:14 0.000791424
53 *228:24 *690:16 0.00027839
54 *228:28 *767:A2 4.19058e-05
55 *228:47 *767:A2 0.000113558
56 *228:47 *964:B 0.000300073
57 *228:73 *767:A2 0.000168646
58 *228:73 *800:A0 0.000205839
59 *228:73 *800:A1 0.000107496
60 *228:73 *800:S 1.65872e-05
61 *228:92 *930:A 8.16436e-05
62 *228:92 *1052:B1 1.82696e-05
63 *228:92 *1064:A0 9.11986e-05
64 *228:92 *310:29 5.11469e-05
65 *228:92 *425:10 5.22654e-06
66 *228:92 *699:39 0
67 *228:96 *1052:B1 1.41291e-05
68 *228:100 *1052:B1 6.50586e-05
69 *228:135 *763:A2 0
70 *228:135 *1049:B 5.22654e-06
71 *228:135 *381:50 0.000406868
72 *228:135 *690:12 0.000559848
73 *228:160 *460:38 4.68256e-05
74 *228:160 *625:139 0
75 *931:A2 *228:73 3.82612e-05
76 *942:B1 *228:14 0.000314162
77 *942:B1 *228:18 8.85317e-05
78 *943:B *967:A2 3.37731e-05
79 *943:B *228:160 2.86977e-05
80 *944:B1 *228:14 0.000114271
81 *961:A1 *960:A 3.14978e-05
82 *961:A1 *228:100 3.14978e-05
83 *963:A1 *228:47 1.88563e-05
84 *965:A1 *965:A2 0.000180675
85 *965:A1 *228:92 7.20028e-05
86 *1050:A1 *1050:A2 3.14978e-05
87 *1052:A1 *960:A 9.82896e-06
88 *1052:A1 *228:96 6.92705e-05
89 *1052:A1 *228:100 4.81626e-05
90 *1077:D *965:A2 1.29759e-05
91 *1082:D *962:A 0.000306169
92 *1084:D *228:100 0.000217937
93 *1131:D *228:92 5.04829e-06
94 *1145:D *228:24 0.000319366
95 *112:45 *228:14 0.000276111
96 *112:45 *228:160 0.000257388
97 *192:81 *228:160 1.41284e-05
98 *204:6 *228:92 3.45797e-05
99 *213:8 *228:14 1.76325e-05
*RES
1 *959:Y *228:8 14.4725 
2 *228:8 *228:14 18.1419 
3 *228:14 *228:18 10.7694 
4 *228:18 *228:24 35.1479 
5 *228:24 *228:28 1.45885 
6 *228:28 *964:A 9.56865 
7 *228:28 *228:47 7.77651 
8 *228:47 *962:A 25.3723 
9 *228:47 *963:A2 9.24915 
10 *228:24 *228:73 15.9894 
11 *228:73 *965:A2 15.7115 
12 *228:73 *228:92 20.9809 
13 *228:92 *228:96 1.85672 
14 *228:96 *228:100 3.52053 
15 *228:100 *961:A2 9.82786 
16 *228:100 *960:A 13.1796 
17 *228:96 *1052:A2 9.24915 
18 *228:92 *1051:A 9.24915 
19 *228:73 *969:S 9.24915 
20 *228:18 *228:135 14.2218 
21 *228:135 *1049:A 9.24915 
22 *228:135 *1050:A2 13.8548 
23 *228:14 *968:S 9.82786 
24 *228:8 *228:160 11.0714 
25 *228:160 *966:A 9.24915 
26 *228:160 *967:A2 13.3484 
*END

*D_NET *229 0.000206296
*CONN
*I *961:B1 I *D sky130_fd_sc_hd__o21ai_0
*I *960:Y O *D sky130_fd_sc_hd__nand2_1
*CAP
1 *961:B1 3.40108e-05
2 *960:Y 3.40108e-05
3 *960:A *961:B1 0.000111708
4 *1052:A1 *961:B1 2.65667e-05
*RES
1 *960:Y *961:B1 19.7763 
*END

*D_NET *230 0.00086984
*CONN
*I *963:B1 I *D sky130_fd_sc_hd__o21ai_0
*I *962:Y O *D sky130_fd_sc_hd__nand2_1
*CAP
1 *963:B1 0.000178274
2 *962:Y 0.000178274
3 *963:B1 *826:A0 5.74984e-05
4 *963:B1 *962:B 6.50727e-05
5 *962:A *963:B1 2.09356e-05
6 *1082:D *963:B1 0.000259158
7 *200:12 *963:B1 0.000110626
*RES
1 *962:Y *963:B1 33.791 
*END

*D_NET *231 0.000373904
*CONN
*I *965:B1 I *D sky130_fd_sc_hd__o21ai_0
*I *964:Y O *D sky130_fd_sc_hd__nand2_1
*CAP
1 *965:B1 0.000115772
2 *964:Y 0.000115772
3 *965:B1 *767:A2 6.27718e-05
4 *965:B1 *1522:A 3.17474e-05
5 *965:B1 *418:16 4.78409e-05
*RES
1 *964:Y *965:B1 30.4689 
*END

*D_NET *232 0.000202496
*CONN
*I *967:B1 I *D sky130_fd_sc_hd__o21ai_0
*I *966:Y O *D sky130_fd_sc_hd__nand2_1
*CAP
1 *967:B1 1.68076e-05
2 *966:Y 1.68076e-05
3 *943:B *967:B1 0.000118166
4 *967:A2 *967:B1 5.0715e-05
*RES
1 *966:Y *967:B1 19.7763 
*END

*D_NET *233 0.00307077
*CONN
*I *1045:A I *D sky130_fd_sc_hd__nor2_1
*I *978:A I *D sky130_fd_sc_hd__nor2_1
*I *1026:A2 I *D sky130_fd_sc_hd__a21oi_1
*I *984:A2 I *D sky130_fd_sc_hd__a21oi_1
*I *970:Y O *D sky130_fd_sc_hd__clkinv_1
*CAP
1 *1045:A 0.000294519
2 *978:A 0.000277222
3 *1026:A2 0
4 *984:A2 6.32031e-05
5 *970:Y 0.000311823
6 *233:8 8.99554e-05
7 *233:6 0.000321279
8 *978:A *970:A 0.000129489
9 *978:A *977:A 6.83365e-05
10 *978:A *978:B 3.13805e-06
11 *978:A *979:A 0.000164444
12 *978:A *1026:A1 0.000319969
13 *978:A *238:14 2.51561e-05
14 *978:A *240:8 8.76387e-05
15 *984:A2 *1026:A1 6.64392e-05
16 *984:A2 *1026:B1 0.000112392
17 *984:A2 *1166:D 2.57986e-05
18 *984:A2 *703:42 7.5301e-06
19 *1045:A *981:A 7.99806e-05
20 *1045:A *1003:A1 2.16355e-05
21 *1045:A *1003:A2 6.27718e-05
22 *1045:A *1004:A 2.1667e-05
23 *1045:A *1026:B1 7.67734e-06
24 *1045:A *1046:A 4.89469e-06
25 *1045:A *1046:B 0.000103412
26 *1045:A *1046:C 0.000143032
27 *1045:A *1163:D 0
28 *1045:A *243:10 1.15929e-05
29 *1045:A *290:8 3.73661e-05
30 *1045:A *609:8 0
31 *233:6 *1026:A1 4.76794e-05
32 *233:6 *1026:B1 2.16355e-05
33 *233:8 *1026:A1 9.67258e-05
34 *233:8 *1026:B1 4.2372e-05
*RES
1 *970:Y *233:6 9.97254 
2 *233:6 *233:8 1.278 
3 *233:8 *984:A2 11.6364 
4 *233:8 *1026:A2 9.24915 
5 *233:6 *978:A 28.3329 
6 *970:Y *1045:A 36.4541 
*END

*D_NET *234 0.00033701
*CONN
*I *976:A I *D sky130_fd_sc_hd__nor2_1
*I *971:Y O *D sky130_fd_sc_hd__inv_1
*CAP
1 *976:A 7.04722e-05
2 *971:Y 7.04722e-05
3 *976:A *971:A 4.84154e-05
4 *976:A *1076:RESET_B 4.80635e-06
5 *976:A *239:10 0.000142844
*RES
1 *971:Y *976:A 21.1869 
*END

*D_NET *235 0.000227791
*CONN
*I *974:A I *D sky130_fd_sc_hd__nor2_1
*I *972:Y O *D sky130_fd_sc_hd__inv_1
*CAP
1 *974:A 8.02592e-05
2 *972:Y 8.02592e-05
3 *974:A *972:A 3.21692e-05
4 *974:A *982:A2 3.51034e-05
5 *974:A *982:B1 0
*RES
1 *972:Y *974:A 20.6323 
*END

*D_NET *236 0.000518362
*CONN
*I *974:B I *D sky130_fd_sc_hd__nor2_1
*I *973:Y O *D sky130_fd_sc_hd__inv_1
*CAP
1 *974:B 0.000173144
2 *973:Y 0.000173144
3 *974:B *982:A1 1.56342e-05
4 *974:B *1002:A 0.000137162
5 *974:B *1164:D 3.00174e-06
6 *974:B *613:18 8.13812e-06
7 *974:B *703:38 8.13812e-06
*RES
1 *973:Y *974:B 31.3008 
*END

*D_NET *237 0.00315932
*CONN
*I *975:A I *D sky130_fd_sc_hd__inv_1
*I *1003:A1 I *D sky130_fd_sc_hd__o21ai_0
*I *983:A2 I *D sky130_fd_sc_hd__o21ai_0
*I *974:Y O *D sky130_fd_sc_hd__nor2_1
*CAP
1 *975:A 0.000171301
2 *1003:A1 1.98947e-05
3 *983:A2 0.000111208
4 *974:Y 0.000257371
5 *237:21 0.000297721
6 *237:8 0.000475105
7 *975:A *981:A 0.000341769
8 *975:A *1026:A1 0.000334754
9 *975:A *238:14 1.78493e-05
10 *983:A2 *971:A 2.1203e-06
11 *983:A2 *981:A 0.000130886
12 *983:A2 *984:B1 2.65667e-05
13 *983:A2 *1165:RESET_B 2.65667e-05
14 *983:A2 *238:14 0
15 *983:A2 *243:10 7.09666e-06
16 *1003:A1 *1026:B1 6.08467e-05
17 *237:8 *982:A2 0.000122378
18 *237:8 *703:8 0.000413252
19 *237:21 *981:A 0.000244976
20 *237:21 *1026:A1 7.60183e-05
21 *1045:A *1003:A1 2.16355e-05
*RES
1 *974:Y *237:8 20.5732 
2 *237:8 *983:A2 17.135 
3 *237:8 *237:21 4.32351 
4 *237:21 *1003:A1 14.4725 
5 *237:21 *975:A 21.023 
*END

*D_NET *238 0.00301323
*CONN
*I *976:B I *D sky130_fd_sc_hd__nor2_1
*I *975:Y O *D sky130_fd_sc_hd__inv_1
*CAP
1 *976:B 0
2 *975:Y 0.0007953
3 *238:14 0.0007953
4 *238:14 *971:A 0
5 *238:14 *977:A 0.00059907
6 *238:14 *978:B 0.000260325
7 *238:14 *1026:B1 3.20445e-05
8 *238:14 *239:10 0.000457288
9 *238:14 *240:8 3.08993e-05
10 *238:14 *691:310 0
11 *975:A *238:14 1.78493e-05
12 *978:A *238:14 2.51561e-05
13 *983:A2 *238:14 0
*RES
1 *975:Y *238:14 42.192 
2 *238:14 *976:B 9.24915 
*END

*D_NET *239 0.0032182
*CONN
*I *977:A I *D sky130_fd_sc_hd__inv_1
*I *984:A1 I *D sky130_fd_sc_hd__a21oi_1
*I *976:Y O *D sky130_fd_sc_hd__nor2_1
*CAP
1 *977:A 0.000299021
2 *984:A1 0
3 *976:Y 0.000387791
4 *239:10 0.000686812
5 *977:A *978:B 6.83451e-05
6 *977:A *979:A 9.95632e-06
7 *977:A *984:B1 2.1667e-05
8 *977:A *1165:D 3.01773e-05
9 *977:A *1166:D 0.000139817
10 *239:10 *971:A 1.91169e-05
11 *239:10 *984:B1 0.000271958
12 *239:10 *1165:D 1.59945e-05
13 *239:10 *691:310 0
14 *239:10 *692:351 0
15 *909:A1 *977:A 0
16 *976:A *239:10 0.000142844
17 *978:A *977:A 6.83365e-05
18 *238:14 *977:A 0.00059907
19 *238:14 *239:10 0.000457288
*RES
1 *976:Y *239:10 25.3063 
2 *239:10 *984:A1 13.7491 
3 *239:10 *977:A 25.595 
*END

*D_NET *240 0.00300058
*CONN
*I *1026:A1 I *D sky130_fd_sc_hd__a21oi_1
*I *978:B I *D sky130_fd_sc_hd__nor2_1
*I *977:Y O *D sky130_fd_sc_hd__inv_1
*CAP
1 *1026:A1 0.000347811
2 *978:B 0.000356017
3 *977:Y 2.42066e-05
4 *240:8 0.000728035
5 *978:B *979:A 7.09558e-05
6 *1026:A1 *970:A 7.64596e-05
7 *1026:A1 *979:A 5.16179e-06
8 *975:A *1026:A1 0.000334754
9 *977:A *978:B 6.83451e-05
10 *978:A *978:B 3.13805e-06
11 *978:A *1026:A1 0.000319969
12 *978:A *240:8 8.76387e-05
13 *984:A2 *1026:A1 6.64392e-05
14 *233:6 *1026:A1 4.76794e-05
15 *233:8 *1026:A1 9.67258e-05
16 *237:21 *1026:A1 7.60183e-05
17 *238:14 *978:B 0.000260325
18 *238:14 *240:8 3.08993e-05
*RES
1 *977:Y *240:8 14.7498 
2 *240:8 *978:B 21.3389 
3 *240:8 *1026:A1 25.6552 
*END

*D_NET *241 0.00161656
*CONN
*I *979:A I *D sky130_fd_sc_hd__inv_1
*I *978:Y O *D sky130_fd_sc_hd__nor2_1
*CAP
1 *979:A 0.000613831
2 *978:Y 0.000613831
3 *979:A *242:14 0
4 *979:A *705:16 0
5 *908:A *979:A 0.000138384
6 *977:A *979:A 9.95632e-06
7 *978:A *979:A 0.000164444
8 *978:B *979:A 7.09558e-05
9 *1026:A1 *979:A 5.16179e-06
*RES
1 *978:Y *979:A 40.4856 
*END

*D_NET *242 0.00269135
*CONN
*I *982:A1 I *D sky130_fd_sc_hd__a21oi_1
*I *1003:B1 I *D sky130_fd_sc_hd__o21ai_0
*I *979:Y O *D sky130_fd_sc_hd__inv_1
*CAP
1 *982:A1 0.000153368
2 *1003:B1 0
3 *979:Y 0.000410623
4 *242:14 0.000563991
5 *982:A1 *1003:A2 6.77958e-05
6 *982:A1 *1005:A 6.08467e-05
7 *982:A1 *1026:B1 0.000107496
8 *982:A1 *1164:D 7.40248e-05
9 *982:A1 *703:38 0.000139667
10 *982:A1 *703:42 3.31745e-05
11 *242:14 *981:A 0.000141813
12 *242:14 *1003:A2 6.27718e-05
13 *242:14 *1004:A 0.000665562
14 *242:14 *1026:B1 6.08467e-05
15 *242:14 *705:16 0.000118485
16 *908:A *242:14 1.52478e-05
17 *974:B *982:A1 1.56342e-05
18 *979:A *242:14 0
*RES
1 *979:Y *242:14 32.1865 
2 *242:14 *1003:B1 9.24915 
3 *242:14 *982:A1 23.8535 
*END

*D_NET *243 0.00283757
*CONN
*I *981:A I *D sky130_fd_sc_hd__inv_1
*I *983:B1 I *D sky130_fd_sc_hd__o21ai_0
*I *980:Y O *D sky130_fd_sc_hd__xnor2_1
*CAP
1 *981:A 0.000352635
2 *983:B1 0
3 *980:Y 0.000283991
4 *243:10 0.000636626
5 *981:A *1004:A 1.06049e-05
6 *981:A *1046:C 0.000146645
7 *243:10 *971:A 1.09593e-05
8 *243:10 *1165:RESET_B 0.000101133
9 *243:10 *277:6 0.000112361
10 *243:10 *290:8 0
11 *243:10 *314:26 4.12848e-05
12 *243:10 *692:145 0.000183213
13 *975:A *981:A 0.000341769
14 *983:A2 *981:A 0.000130886
15 *983:A2 *243:10 7.09666e-06
16 *1045:A *981:A 7.99806e-05
17 *1045:A *243:10 1.15929e-05
18 *237:21 *981:A 0.000244976
19 *242:14 *981:A 0.000141813
*RES
1 *980:Y *243:10 21.0117 
2 *243:10 *983:B1 13.7491 
3 *243:10 *981:A 27.1727 
*END

*D_NET *244 0.00336732
*CONN
*I *1026:B1 I *D sky130_fd_sc_hd__a21oi_1
*I *1005:A I *D sky130_fd_sc_hd__nor2_1
*I *982:B1 I *D sky130_fd_sc_hd__a21oi_1
*I *981:Y O *D sky130_fd_sc_hd__inv_1
*CAP
1 *1026:B1 0.000227842
2 *1005:A 1.47608e-05
3 *982:B1 0.000134027
4 *981:Y 0.000277328
5 *244:12 0.000172652
6 *244:10 0.000529035
7 *982:B1 *1004:A 1.80303e-05
8 *982:B1 *1005:B 1.03594e-05
9 *982:B1 *1046:B 3.2648e-05
10 *982:B1 *1163:D 0.000111045
11 *982:B1 *703:8 1.43848e-05
12 *1005:A *1003:A2 6.08467e-05
13 *1026:B1 *970:A 1.61262e-05
14 *1026:B1 *1003:A2 2.30636e-05
15 *1026:B1 *703:42 0.000585543
16 *244:10 *1005:B 0.000257928
17 *244:10 *1163:D 0.000266294
18 *244:10 *1163:CLK 1.82679e-05
19 *244:12 *1005:B 4.19841e-05
20 *244:12 *1163:D 4.9e-05
21 *974:A *982:B1 0
22 *982:A1 *1005:A 6.08467e-05
23 *982:A1 *1026:B1 0.000107496
24 *984:A2 *1026:B1 0.000112392
25 *1003:A1 *1026:B1 6.08467e-05
26 *1045:A *1026:B1 7.67734e-06
27 *233:6 *1026:B1 2.16355e-05
28 *233:8 *1026:B1 4.2372e-05
29 *238:14 *1026:B1 3.20445e-05
30 *242:14 *1026:B1 6.08467e-05
*RES
1 *981:Y *244:10 21.0131 
2 *244:10 *244:12 1.00149 
3 *244:12 *982:B1 17.2985 
4 *244:12 *1005:A 14.4725 
5 *244:10 *1026:B1 31.7133 
*END

*D_NET *245 0.00183038
*CONN
*I *1045:B I *D sky130_fd_sc_hd__nor2_1
*I *984:B1 I *D sky130_fd_sc_hd__a21oi_1
*I *983:Y O *D sky130_fd_sc_hd__o21ai_0
*CAP
1 *1045:B 5.64131e-05
2 *984:B1 0.000492446
3 *983:Y 0.000548859
4 *984:B1 *1165:D 0.000304572
5 *984:B1 *1165:RESET_B 2.98157e-05
6 *984:B1 *1166:D 2.41274e-06
7 *984:B1 *615:6 7.16754e-05
8 *984:B1 *703:42 3.99086e-06
9 *977:A *984:B1 2.1667e-05
10 *983:A2 *984:B1 2.65667e-05
11 *239:10 *984:B1 0.000271958
*RES
1 *983:Y *984:B1 39.0905 
2 *983:Y *1045:B 19.8004 
*END

*D_NET *246 0.00196376
*CONN
*I *993:A2 I *D sky130_fd_sc_hd__o31a_1
*I *992:A1 I *D sky130_fd_sc_hd__a21oi_1
*I *994:A I *D sky130_fd_sc_hd__nor2_1
*I *985:Y O *D sky130_fd_sc_hd__inv_1
*CAP
1 *993:A2 0
2 *992:A1 0.000185802
3 *994:A 4.43761e-05
4 *985:Y 0.000185697
5 *246:19 0.000302749
6 *246:6 0.00034702
7 *992:A1 *992:A2 0.000288045
8 *992:A1 *1035:D1 1.12533e-05
9 *992:A1 *1186:D 0.000169817
10 *992:A1 *250:8 4.33009e-05
11 *992:A1 *253:10 5.4364e-05
12 *994:A *248:10 2.16355e-05
13 *994:A *250:32 2.63971e-05
14 *246:6 *985:A 3.19445e-05
15 *246:6 *248:10 5.04829e-06
16 *246:6 *250:32 2.08274e-05
17 *246:19 *989:A 7.45478e-05
18 *246:19 *1035:B1 0
19 *246:19 *1035:D1 3.80324e-05
20 *246:19 *250:8 0.000112897
*RES
1 *985:Y *246:6 13.5775 
2 *246:6 *994:A 10.5513 
3 *246:6 *246:19 7.993 
4 *246:19 *992:A1 20.4571 
5 *246:19 *993:A2 13.7491 
*END

*D_NET *247 0.00146088
*CONN
*I *988:A I *D sky130_fd_sc_hd__nor2_1
*I *996:A I *D sky130_fd_sc_hd__nand2_1
*I *986:Y O *D sky130_fd_sc_hd__inv_1
*CAP
1 *988:A 0
2 *996:A 0.000118076
3 *986:Y 0.000353513
4 *247:18 0.000471589
5 *996:A *996:B 6.95783e-05
6 *996:A *248:21 3.5534e-06
7 *247:18 *986:A 1.62898e-05
8 *247:18 *1035:A1 0.000123582
9 *247:18 *1035:B1 0.000117613
10 *247:18 *1037:A2 0.000138724
11 *247:18 *248:10 0
12 *247:18 *248:21 0
13 *247:18 *695:27 0
14 *1037:A1 *996:A 0
15 *1037:A1 *247:18 7.09666e-06
16 *161:194 *247:18 4.12665e-05
*RES
1 *986:Y *247:18 27.9707 
2 *247:18 *996:A 21.3269 
3 *247:18 *988:A 9.24915 
*END

*D_NET *248 0.0028668
*CONN
*I *996:B I *D sky130_fd_sc_hd__nand2_1
*I *988:B I *D sky130_fd_sc_hd__nor2_1
*I *1035:A2 I *D sky130_fd_sc_hd__o2111ai_1
*I *987:Y O *D sky130_fd_sc_hd__inv_1
*CAP
1 *996:B 8.08896e-05
2 *988:B 0
3 *1035:A2 6.7399e-05
4 *987:Y 0.00055647
5 *248:21 0.000211683
6 *248:10 0.000754662
7 *996:B *990:B 0.000112105
8 *1035:A2 *1035:B1 6.64392e-05
9 *1035:A2 *1035:C1 1.37189e-05
10 *1035:A2 *1035:D1 2.65831e-05
11 *1035:A2 *282:6 6.64392e-05
12 *248:10 *989:A 0.000346333
13 *248:10 *998:A2 0.000164843
14 *248:10 *1001:B 7.71328e-05
15 *248:10 *1035:B1 0
16 *248:10 *1035:C1 0
17 *248:10 *250:32 2.77625e-06
18 *248:10 *254:8 7.4138e-05
19 *248:21 *989:A 0.000115376
20 *248:21 *990:B 2.99997e-05
21 *994:A *248:10 2.16355e-05
22 *996:A *996:B 6.95783e-05
23 *996:A *248:21 3.5534e-06
24 *246:6 *248:10 5.04829e-06
25 *247:18 *248:10 0
26 *247:18 *248:21 0
*RES
1 *987:Y *248:10 25.7258 
2 *248:10 *1035:A2 16.1364 
3 *248:10 *248:21 3.493 
4 *248:21 *988:B 13.7491 
5 *248:21 *996:B 16.8269 
*END

*D_NET *249 0.00179025
*CONN
*I *989:A I *D sky130_fd_sc_hd__clkinv_1
*I *988:Y O *D sky130_fd_sc_hd__nor2_1
*CAP
1 *989:A 0.000295414
2 *988:Y 0.000295414
3 *989:A *991:A 0.000151922
4 *989:A *997:B 0
5 *989:A *1035:B1 0
6 *989:A *1035:D1 0.000389552
7 *989:A *250:32 6.08467e-05
8 *161:194 *989:A 6.08467e-05
9 *246:19 *989:A 7.45478e-05
10 *248:10 *989:A 0.000346333
11 *248:21 *989:A 0.000115376
*RES
1 *988:Y *989:A 39.0821 
*END

*D_NET *250 0.0016979
*CONN
*I *994:B I *D sky130_fd_sc_hd__nor2_1
*I *997:A I *D sky130_fd_sc_hd__nand2_1
*I *993:A3 I *D sky130_fd_sc_hd__o31a_1
*I *992:A2 I *D sky130_fd_sc_hd__a21oi_1
*I *989:Y O *D sky130_fd_sc_hd__clkinv_1
*CAP
1 *994:B 0
2 *997:A 1.20821e-05
3 *993:A3 0
4 *992:A2 0.000231453
5 *989:Y 0
6 *250:32 0.000141998
7 *250:8 0.000354145
8 *250:4 0.000252608
9 *992:A2 *253:10 1.78514e-05
10 *997:A *252:25 2.88863e-05
11 *997:A *254:8 6.27718e-05
12 *250:8 *1035:B1 0
13 *250:8 *579:10 0
14 *250:32 *252:25 2.44243e-05
15 *250:32 *254:8 1.65872e-05
16 *989:A *250:32 6.08467e-05
17 *992:A1 *992:A2 0.000288045
18 *992:A1 *250:8 4.33009e-05
19 *994:A *250:32 2.63971e-05
20 *246:6 *250:32 2.08274e-05
21 *246:19 *250:8 0.000112897
22 *248:10 *250:32 2.77625e-06
*RES
1 *989:Y *250:4 9.24915 
2 *250:4 *250:8 7.57775 
3 *250:8 *992:A2 20.4571 
4 *250:8 *993:A3 13.7491 
5 *250:4 *250:32 3.54464 
6 *250:32 *997:A 9.97254 
7 *250:32 *994:B 9.24915 
*END

*D_NET *251 0.000475862
*CONN
*I *991:A I *D sky130_fd_sc_hd__clkinv_1
*I *990:Y O *D sky130_fd_sc_hd__xnor2_1
*CAP
1 *991:A 0.000118457
2 *990:Y 0.000118457
3 *991:A *997:B 0
4 *991:A *998:B1 6.92705e-05
5 *991:A *1035:D1 1.61631e-05
6 *991:A *582:10 1.59362e-06
7 *989:A *991:A 0.000151922
*RES
1 *990:Y *991:A 31.4388 
*END

*D_NET *252 0.00379296
*CONN
*I *998:B1 I *D sky130_fd_sc_hd__a21oi_1
*I *1001:A I *D sky130_fd_sc_hd__nor2_1
*I *999:B1 I *D sky130_fd_sc_hd__a21oi_1
*I *992:B1 I *D sky130_fd_sc_hd__a21oi_1
*I *991:Y O *D sky130_fd_sc_hd__clkinv_1
*CAP
1 *998:B1 0.000235276
2 *1001:A 2.56441e-05
3 *999:B1 0
4 *992:B1 0.000279809
5 *991:Y 0
6 *252:25 0.000272179
7 *252:8 0.000714942
8 *252:4 0.000423874
9 *992:B1 *995:A 0
10 *992:B1 *1035:D1 0.000126816
11 *992:B1 *253:10 0.000330523
12 *998:B1 *1035:D1 3.75603e-05
13 *1001:A *1001:B 6.78196e-05
14 *1001:A *694:58 4.13633e-05
15 *252:8 *997:B 9.59687e-05
16 *252:8 *1035:D1 0.000381441
17 *252:25 *987:A 1.88654e-05
18 *252:25 *995:A 6.08467e-05
19 *252:25 *999:A1 0.000259225
20 *252:25 *999:A2 6.46815e-05
21 *252:25 *1001:B 9.42544e-05
22 *252:25 *254:8 7.65224e-05
23 *252:25 *694:58 6.27718e-05
24 *991:A *998:B1 6.92705e-05
25 *997:A *252:25 2.88863e-05
26 *250:32 *252:25 2.44243e-05
*RES
1 *991:Y *252:4 9.24915 
2 *252:4 *252:8 11.315 
3 *252:8 *992:B1 22.2252 
4 *252:8 *252:25 12.6261 
5 *252:25 *999:B1 9.24915 
6 *252:25 *1001:A 10.5513 
7 *252:4 *998:B1 14.4335 
*END

*D_NET *253 0.00294883
*CONN
*I *1035:D1 I *D sky130_fd_sc_hd__o2111ai_1
*I *993:B1 I *D sky130_fd_sc_hd__o31a_1
*I *992:Y O *D sky130_fd_sc_hd__a21oi_1
*CAP
1 *1035:D1 0.000306689
2 *993:B1 0.000111184
3 *992:Y 0.000201714
4 *253:10 0.000619587
5 *993:B1 *993:A1 2.53145e-06
6 *993:B1 *1035:B1 5.61797e-05
7 *993:B1 *1186:D 2.16355e-05
8 *993:B1 *580:32 2.58757e-05
9 *1035:D1 *1036:B 0
10 *253:10 *1186:D 0.000173295
11 *989:A *1035:D1 0.000389552
12 *991:A *1035:D1 1.61631e-05
13 *992:A1 *1035:D1 1.12533e-05
14 *992:A1 *253:10 5.4364e-05
15 *992:A2 *253:10 1.78514e-05
16 *992:B1 *1035:D1 0.000126816
17 *992:B1 *253:10 0.000330523
18 *998:B1 *1035:D1 3.75603e-05
19 *1035:A2 *1035:D1 2.65831e-05
20 *246:19 *1035:D1 3.80324e-05
21 *252:8 *1035:D1 0.000381441
*RES
1 *992:Y *253:10 21.7028 
2 *253:10 *993:B1 16.7151 
3 *253:10 *1035:D1 26.0457 
*END

*D_NET *254 0.00128253
*CONN
*I *995:A I *D sky130_fd_sc_hd__nand2_1
*I *1000:B I *D sky130_fd_sc_hd__nor2_1
*I *994:Y O *D sky130_fd_sc_hd__nor2_1
*CAP
1 *995:A 0.000158008
2 *1000:B 0
3 *994:Y 9.28483e-05
4 *254:8 0.000250856
5 *995:A *998:A1 4.9e-05
6 *995:A *1000:A 0.000114659
7 *995:A *255:10 6.93171e-05
8 *995:A *580:17 6.27782e-05
9 *995:A *692:98 0
10 *254:8 *998:A2 0.000169041
11 *254:8 *1001:B 2.51527e-05
12 *992:B1 *995:A 0
13 *997:A *254:8 6.27718e-05
14 *248:10 *254:8 7.4138e-05
15 *250:32 *254:8 1.65872e-05
16 *252:25 *995:A 6.08467e-05
17 *252:25 *254:8 7.65224e-05
*RES
1 *994:Y *254:8 13.8789 
2 *254:8 *1000:B 9.24915 
3 *254:8 *995:A 22.7737 
*END

*D_NET *255 0.00180763
*CONN
*I *998:A1 I *D sky130_fd_sc_hd__a21oi_1
*I *999:A1 I *D sky130_fd_sc_hd__a21oi_1
*I *995:Y O *D sky130_fd_sc_hd__nand2_1
*CAP
1 *998:A1 0.000207065
2 *999:A1 0.00016972
3 *995:Y 0.000101497
4 *255:10 0.000478282
5 *998:A1 *997:B 6.73289e-06
6 *998:A1 *998:A2 0.000289145
7 *998:A1 *1185:D 6.31954e-05
8 *998:A1 *577:12 3.659e-05
9 *998:A1 *692:98 0
10 *255:10 *580:8 1.50924e-05
11 *255:10 *580:17 6.27718e-05
12 *995:A *998:A1 4.9e-05
13 *995:A *255:10 6.93171e-05
14 *252:25 *999:A1 0.000259225
*RES
1 *995:Y *255:10 15.8893 
2 *255:10 *999:A1 16.691 
3 *255:10 *998:A1 20.5642 
*END

*D_NET *256 0.00193126
*CONN
*I *997:B I *D sky130_fd_sc_hd__nand2_1
*I *996:Y O *D sky130_fd_sc_hd__nand2_1
*CAP
1 *997:B 0.000543736
2 *996:Y 0.000543736
3 *997:B *822:A 0
4 *997:B *998:A2 0.000145074
5 *997:B *1000:A 1.03594e-05
6 *997:B *1183:D 2.16355e-05
7 *997:B *1185:D 0
8 *997:B *582:10 7.54013e-05
9 *997:B *582:19 0.000179248
10 *893:B1 *997:B 3.64497e-06
11 *989:A *997:B 0
12 *991:A *997:B 0
13 *998:A1 *997:B 6.73289e-06
14 *106:528 *997:B 0.000180784
15 *175:26 *997:B 0.00012494
16 *252:8 *997:B 9.59687e-05
*RES
1 *996:Y *997:B 45.4236 
*END

*D_NET *257 0.00109967
*CONN
*I *998:A2 I *D sky130_fd_sc_hd__a21oi_1
*I *997:Y O *D sky130_fd_sc_hd__nand2_1
*CAP
1 *998:A2 0.000159156
2 *997:Y 0.000159156
3 *998:A2 *1185:D 1.32509e-05
4 *997:B *998:A2 0.000145074
5 *998:A1 *998:A2 0.000289145
6 *248:10 *998:A2 0.000164843
7 *254:8 *998:A2 0.000169041
*RES
1 *997:Y *998:A2 35.3154 
*END

*D_NET *258 0.000851931
*CONN
*I *1001:B I *D sky130_fd_sc_hd__nor2_1
*I *1000:Y O *D sky130_fd_sc_hd__nor2_1
*CAP
1 *1001:B 0.000183412
2 *1000:Y 0.000183412
3 *1001:B *987:A 3.20544e-05
4 *1001:B *999:A2 6.27718e-05
5 *1001:B *1184:D 7.97944e-05
6 *1001:B *694:58 4.61271e-05
7 *1001:A *1001:B 6.78196e-05
8 *248:10 *1001:B 7.71328e-05
9 *252:25 *1001:B 9.42544e-05
10 *254:8 *1001:B 2.51527e-05
*RES
1 *1000:Y *1001:B 25.5393 
*END

*D_NET *259 0.000857312
*CONN
*I *1003:A2 I *D sky130_fd_sc_hd__o21ai_0
*I *1002:Y O *D sky130_fd_sc_hd__nor2_1
*CAP
1 *1003:A2 0.000176696
2 *1002:Y 0.000176696
3 *1003:A2 *1002:B 2.58757e-05
4 *1003:A2 *1164:D 0.000200794
5 *982:A1 *1003:A2 6.77958e-05
6 *1005:A *1003:A2 6.08467e-05
7 *1026:B1 *1003:A2 2.30636e-05
8 *1045:A *1003:A2 6.27718e-05
9 *242:14 *1003:A2 6.27718e-05
*RES
1 *1002:Y *1003:A2 24.406 
*END

*D_NET *260 0.00240197
*CONN
*I *1004:A I *D sky130_fd_sc_hd__inv_1
*I *1046:B I *D sky130_fd_sc_hd__nand3_1
*I *1003:Y O *D sky130_fd_sc_hd__o21ai_0
*CAP
1 *1004:A 0.00032369
2 *1046:B 6.7611e-05
3 *1003:Y 0
4 *260:6 0.000391301
5 *1004:A *1005:B 0.000679435
6 *1004:A *705:16 2.39535e-05
7 *1046:B *1163:D 5.68225e-06
8 *1046:B *703:8 3.14978e-05
9 *905:B1 *1004:A 0
10 *908:A *1004:A 2.6874e-05
11 *981:A *1004:A 1.06049e-05
12 *982:B1 *1004:A 1.80303e-05
13 *982:B1 *1046:B 3.2648e-05
14 *1045:A *1004:A 2.1667e-05
15 *1045:A *1046:B 0.000103412
16 *161:142 *1004:A 0
17 *242:14 *1004:A 0.000665562
*RES
1 *1003:Y *260:6 13.7491 
2 *260:6 *1046:B 16.3045 
3 *260:6 *1004:A 28.3582 
*END

*D_NET *261 0.00175612
*CONN
*I *1005:B I *D sky130_fd_sc_hd__nor2_1
*I *1004:Y O *D sky130_fd_sc_hd__inv_1
*CAP
1 *1005:B 0.000367707
2 *1004:Y 0.000367707
3 *1005:B *1163:D 1.07549e-05
4 *1005:B *1163:CLK 1.38695e-05
5 *908:A *1005:B 6.37652e-06
6 *982:B1 *1005:B 1.03594e-05
7 *1004:A *1005:B 0.000679435
8 *1140:D *1005:B 0
9 *244:10 *1005:B 0.000257928
10 *244:12 *1005:B 4.19841e-05
*RES
1 *1004:Y *1005:B 40.5729 
*END

*D_NET *262 0.00246093
*CONN
*I *1013:A1 I *D sky130_fd_sc_hd__a21oi_1
*I *1015:A I *D sky130_fd_sc_hd__nor2_1
*I *1014:A1 I *D sky130_fd_sc_hd__o31a_1
*I *1006:Y O *D sky130_fd_sc_hd__inv_1
*CAP
1 *1013:A1 2.46635e-05
2 *1015:A 0
3 *1014:A1 0
4 *1006:Y 0.000248561
5 *262:21 0.000215796
6 *262:8 0.000439694
7 *1013:A1 *1009:A 0.000161243
8 *1013:A1 *266:20 7.6604e-05
9 *262:8 *1014:B1 0.000165521
10 *262:8 *1042:A1 2.90606e-05
11 *262:8 *1042:A2 0.000256699
12 *262:8 *1042:B1 2.75558e-05
13 *262:8 *1042:D1 6.50727e-05
14 *262:8 *1172:D 0.000265301
15 *262:8 *266:32 2.55566e-05
16 *262:8 *287:10 0.000162583
17 *262:8 *603:14 5.99401e-05
18 *262:21 *1017:A 7.14746e-05
19 *262:21 *1018:A 8.62625e-06
20 *262:21 *263:21 7.14746e-05
21 *262:21 *266:20 7.09666e-06
22 *262:21 *266:32 6.08467e-05
23 *262:21 *269:12 0
24 *262:21 *602:8 0
25 *161:163 *262:21 1.75614e-05
*RES
1 *1006:Y *262:8 19.1476 
2 *262:8 *1014:A1 9.24915 
3 *262:8 *262:21 13.6317 
4 *262:21 *1015:A 9.24915 
5 *262:21 *1013:A1 11.0817 
*END

*D_NET *263 0.0040829
*CONN
*I *1017:A I *D sky130_fd_sc_hd__nand2_1
*I *1042:A1 I *D sky130_fd_sc_hd__o2111ai_1
*I *1009:A I *D sky130_fd_sc_hd__nor2_1
*I *1007:Y O *D sky130_fd_sc_hd__inv_1
*CAP
1 *1017:A 0.000258887
2 *1042:A1 0.000400512
3 *1009:A 0.000223219
4 *1007:Y 0.000100059
5 *263:21 0.000697761
6 *263:6 0.000361641
7 *1009:A *1007:A 2.53145e-06
8 *1009:A *1010:A 6.49003e-05
9 *1009:A *1165:CLK 3.01683e-06
10 *1009:A *266:6 0.000120967
11 *1009:A *266:20 2.37411e-05
12 *1009:A *269:12 9.95519e-05
13 *1017:A *746:A 6.27782e-05
14 *1017:A *1008:A 0
15 *1017:A *1017:B 6.27782e-05
16 *1017:A *1018:A 0.000124728
17 *1042:A1 *1042:A2 6.92705e-05
18 *1042:A1 *1042:B1 0.000429681
19 *1042:A1 *604:33 6.08467e-05
20 *263:6 *1021:B 8.41713e-05
21 *263:6 *266:20 5.51483e-06
22 *1013:A1 *1009:A 0.000161243
23 *161:163 *1017:A 0.000418004
24 *161:163 *263:21 7.50872e-05
25 *262:8 *1042:A1 2.90606e-05
26 *262:21 *1017:A 7.14746e-05
27 *262:21 *263:21 7.14746e-05
*RES
1 *1007:Y *263:6 10.8044 
2 *263:6 *1009:A 17.0859 
3 *263:6 *263:21 5.91674 
4 *263:21 *1042:A1 21.7306 
5 *263:21 *1017:A 22.5333 
*END

*D_NET *264 0.00231871
*CONN
*I *1009:B I *D sky130_fd_sc_hd__nor2_1
*I *1017:B I *D sky130_fd_sc_hd__nand2_1
*I *1008:Y O *D sky130_fd_sc_hd__inv_1
*CAP
1 *1009:B 0.000345805
2 *1017:B 0.000324127
3 *1008:Y 0
4 *264:4 0.000669932
5 *1009:B *1008:A 0.000334736
6 *1009:B *287:10 0.000255877
7 *1009:B *602:8 0.000185984
8 *1009:B *703:52 0
9 *1017:B *746:A 6.99372e-05
10 *1017:B *1008:A 1.42392e-05
11 *1017:B *1018:B 2.16355e-05
12 *1017:A *1017:B 6.27782e-05
13 *78:8 *1009:B 3.99086e-06
14 *78:8 *1017:B 2.96676e-05
*RES
1 *1008:Y *264:4 9.24915 
2 *264:4 *1017:B 15.8682 
3 *264:4 *1009:B 28.5564 
*END

*D_NET *265 0.00030075
*CONN
*I *1010:A I *D sky130_fd_sc_hd__clkinv_1
*I *1009:Y O *D sky130_fd_sc_hd__nor2_1
*CAP
1 *1010:A 8.32896e-05
2 *1009:Y 8.32896e-05
3 *1010:A *266:6 6.92705e-05
4 *1009:A *1010:A 6.49003e-05
*RES
1 *1009:Y *1010:A 20.8855 
*END

*D_NET *266 0.00247697
*CONN
*I *1013:A2 I *D sky130_fd_sc_hd__a21oi_1
*I *1015:B I *D sky130_fd_sc_hd__nor2_1
*I *1014:A3 I *D sky130_fd_sc_hd__o31a_1
*I *1018:A I *D sky130_fd_sc_hd__nand2_1
*I *1010:Y O *D sky130_fd_sc_hd__clkinv_1
*CAP
1 *1013:A2 0
2 *1015:B 0
3 *1014:A3 0
4 *1018:A 0.000152288
5 *1010:Y 1.52769e-05
6 *266:32 0.000346609
7 *266:20 0.000458389
8 *266:6 0.000279345
9 *1018:A *1172:D 3.09374e-06
10 *266:20 *1013:B1 7.12632e-06
11 *266:20 *1016:A 1.65872e-05
12 *266:20 *1021:B 5.04829e-06
13 *266:20 *602:8 0
14 *266:32 *1016:A 2.16355e-05
15 *266:32 *1019:A1 1.2693e-05
16 *266:32 *1021:B 2.16355e-05
17 *266:32 *1042:B1 6.3657e-05
18 *266:32 *1172:D 1.58551e-05
19 *266:32 *604:33 0.0003096
20 *1009:A *266:6 0.000120967
21 *1009:A *266:20 2.37411e-05
22 *1010:A *266:6 6.92705e-05
23 *1013:A1 *266:20 7.6604e-05
24 *1017:A *1018:A 0.000124728
25 *161:163 *266:20 4.90621e-05
26 *161:163 *266:32 0.000176116
27 *262:8 *266:32 2.55566e-05
28 *262:21 *1018:A 8.62625e-06
29 *262:21 *266:20 7.09666e-06
30 *262:21 *266:32 6.08467e-05
31 *263:6 *266:20 5.51483e-06
*RES
1 *1010:Y *266:6 10.5271 
2 *266:6 *266:20 14.8335 
3 *266:20 *266:32 16.1823 
4 *266:32 *1018:A 22.2307 
5 *266:32 *1014:A3 9.24915 
6 *266:20 *1015:B 9.24915 
7 *266:6 *1013:A2 9.24915 
*END

*D_NET *267 0.000261812
*CONN
*I *1012:A I *D sky130_fd_sc_hd__clkinv_1
*I *1011:Y O *D sky130_fd_sc_hd__xnor2_1
*CAP
1 *1012:A 6.24325e-05
2 *1011:Y 6.24325e-05
3 *1012:A *691:332 6.84737e-05
4 *175:71 *1012:A 6.84737e-05
*RES
1 *1011:Y *1012:A 30.1608 
*END

*D_NET *268 0.00251951
*CONN
*I *1019:B1 I *D sky130_fd_sc_hd__a21oi_1
*I *1020:B1 I *D sky130_fd_sc_hd__a21oi_1
*I *1022:A I *D sky130_fd_sc_hd__nor2_1
*I *1013:B1 I *D sky130_fd_sc_hd__a21oi_1
*I *1012:Y O *D sky130_fd_sc_hd__clkinv_1
*CAP
1 *1019:B1 3.0506e-05
2 *1020:B1 0
3 *1022:A 2.64699e-05
4 *1013:B1 0.000216637
5 *1012:Y 0.00027381
6 *268:31 5.52436e-05
7 *268:10 0.000488715
8 *1013:B1 *314:26 0.000162911
9 *1013:B1 *380:33 0.000714865
10 *1013:B1 *601:14 7.09666e-06
11 *1019:B1 *1171:D 1.50924e-05
12 *1022:A *1170:D 2.65667e-05
13 *268:10 *1171:D 0
14 *268:10 *601:14 0.000137693
15 *268:31 *1022:B 7.92757e-06
16 *268:31 *1170:D 5.04829e-06
17 *175:71 *1013:B1 2.01503e-05
18 *175:71 *268:10 0.000323651
19 *266:20 *1013:B1 7.12632e-06
*RES
1 *1012:Y *268:10 21.0117 
2 *268:10 *1013:B1 22.2117 
3 *268:10 *268:31 5.2234 
4 *268:31 *1022:A 9.97254 
5 *268:31 *1020:B1 9.24915 
6 *1012:Y *1019:B1 19.2217 
*END

*D_NET *269 0.00104516
*CONN
*I *1042:D1 I *D sky130_fd_sc_hd__o2111ai_1
*I *1014:B1 I *D sky130_fd_sc_hd__o31a_1
*I *1013:Y O *D sky130_fd_sc_hd__a21oi_1
*CAP
1 *1042:D1 9.71122e-06
2 *1014:B1 2.62714e-05
3 *1013:Y 0.00024753
4 *269:12 0.000283513
5 *1014:B1 *1042:B1 7.16754e-05
6 *1042:D1 *1042:B1 2.15348e-05
7 *269:12 *1008:A 9.22013e-06
8 *269:12 *602:8 4.55535e-05
9 *1009:A *269:12 9.95519e-05
10 *262:8 *1014:B1 0.000165521
11 *262:8 *1042:D1 6.50727e-05
12 *262:21 *269:12 0
*RES
1 *1013:Y *269:12 23.2989 
2 *269:12 *1014:B1 11.0817 
3 *269:12 *1042:D1 9.97254 
*END

*D_NET *270 0.00122258
*CONN
*I *1016:A I *D sky130_fd_sc_hd__nand2_1
*I *1021:B I *D sky130_fd_sc_hd__nor2_1
*I *1015:Y O *D sky130_fd_sc_hd__nor2_1
*CAP
1 *1016:A 0.000144086
2 *1021:B 0.00015823
3 *1015:Y 0.000302316
4 *1016:A *604:16 0.000106943
5 *1016:A *604:33 8.62625e-06
6 *1021:B *1007:A 0.000216591
7 *1021:B *1022:B 1.61631e-05
8 *161:163 *1016:A 0.000120544
9 *263:6 *1021:B 8.41713e-05
10 *266:20 *1016:A 1.65872e-05
11 *266:20 *1021:B 5.04829e-06
12 *266:32 *1016:A 2.16355e-05
13 *266:32 *1021:B 2.16355e-05
*RES
1 *1015:Y *1021:B 22.9833 
2 *1015:Y *1016:A 31.0235 
*END

*D_NET *271 0.00188033
*CONN
*I *1019:A1 I *D sky130_fd_sc_hd__a21oi_1
*I *1020:A1 I *D sky130_fd_sc_hd__a21oi_1
*I *1016:Y O *D sky130_fd_sc_hd__nand2_1
*CAP
1 *1019:A1 0.000177644
2 *1020:A1 0.000252703
3 *1016:Y 4.83225e-05
4 *271:6 0.000478669
5 *1019:A1 *1171:D 0.000434519
6 *1019:A1 *604:16 7.14746e-05
7 *1019:A1 *604:33 0.000197315
8 *1020:A1 *1007:A 6.50586e-05
9 *1020:A1 *1171:D 2.652e-05
10 *1020:A1 *1171:RESET_B 1.86908e-05
11 *1020:A1 *601:14 2.41483e-05
12 *1020:A1 *604:8 2.16355e-05
13 *271:6 *1171:RESET_B 5.03013e-06
14 *271:6 *619:14 2.41274e-06
15 *161:163 *1019:A1 4.34904e-05
16 *175:71 *1020:A1 0
17 *266:32 *1019:A1 1.2693e-05
*RES
1 *1016:Y *271:6 9.97254 
2 *271:6 *1020:A1 22.7765 
3 *271:6 *1019:A1 26.3099 
*END

*D_NET *272 0.000661844
*CONN
*I *1018:B I *D sky130_fd_sc_hd__nand2_1
*I *1017:Y O *D sky130_fd_sc_hd__nand2_1
*CAP
1 *1018:B 0.000206482
2 *1017:Y 0.000206482
3 *1018:B *746:A 7.82454e-06
4 *1018:B *1019:A2 6.08467e-05
5 *1018:B *1171:D 1.05272e-06
6 *1018:B *1172:CLK 2.46935e-05
7 *1018:B *691:332 0
8 *1017:B *1018:B 2.16355e-05
9 *161:163 *1018:B 0.000132826
*RES
1 *1017:Y *1018:B 32.1622 
*END

*D_NET *273 0.000364629
*CONN
*I *1019:A2 I *D sky130_fd_sc_hd__a21oi_1
*I *1018:Y O *D sky130_fd_sc_hd__nand2_1
*CAP
1 *1019:A2 6.89948e-05
2 *1018:Y 6.89948e-05
3 *1019:A2 *1171:D 9.72261e-06
4 *1019:A2 *1172:CLK 0.00015607
5 *1018:B *1019:A2 6.08467e-05
*RES
1 *1018:Y *1019:A2 20.9096 
*END

*D_NET *274 0.000795479
*CONN
*I *1022:B I *D sky130_fd_sc_hd__nor2_1
*I *1021:Y O *D sky130_fd_sc_hd__nor2_1
*CAP
1 *1022:B 0.000318
2 *1021:Y 0.000318
3 *1022:B *1007:A 7.02172e-06
4 *1022:B *1170:D 0.000113968
5 *1022:B *601:14 1.43983e-05
6 *1021:B *1022:B 1.61631e-05
7 *268:31 *1022:B 7.92757e-06
*RES
1 *1021:Y *1022:B 23.9479 
*END

*D_NET *275 0.000315941
*CONN
*I *1025:A I *D sky130_fd_sc_hd__nor3_1
*I *1023:Y O *D sky130_fd_sc_hd__nor2_1
*CAP
1 *1025:A 8.85055e-05
2 *1023:Y 8.85055e-05
3 *1025:A *1025:B 2.56759e-05
4 *1023:B *1025:A 0.000113254
*RES
1 *1023:Y *1025:A 20.8855 
*END

*D_NET *276 0.000727489
*CONN
*I *1025:B I *D sky130_fd_sc_hd__nor3_1
*I *1024:Y O *D sky130_fd_sc_hd__a21oi_1
*CAP
1 *1025:B 0.000234343
2 *1024:Y 0.000234343
3 *1025:B *774:A 3.4441e-05
4 *1025:B *1024:A2 3.00829e-05
5 *1025:B *1179:D 0.000114271
6 *1023:B *1025:B 4.88645e-05
7 *1025:A *1025:B 2.56759e-05
8 *100:14 *1025:B 5.46773e-06
*RES
1 *1024:Y *1025:B 24.7677 
*END

*D_NET *277 0.00155372
*CONN
*I *1030:A2 I *D sky130_fd_sc_hd__o21ai_1
*I *1048:A1 I *D sky130_fd_sc_hd__o21ai_0
*I *1028:Y O *D sky130_fd_sc_hd__inv_1
*CAP
1 *1030:A2 0.00026797
2 *1048:A1 2.12792e-05
3 *1028:Y 0.000204628
4 *277:6 0.000493878
5 *1030:A2 *1047:B 7.90572e-05
6 *1030:A2 *1048:B1 0.000109427
7 *1030:A2 *380:44 2.58757e-05
8 *277:6 *980:A 0.000239239
9 *243:10 *277:6 0.000112361
*RES
1 *1028:Y *277:6 14.6867 
2 *277:6 *1048:A1 9.82786 
3 *277:6 *1030:A2 16.0732 
*END

*D_NET *278 0.000194116
*CONN
*I *1030:B1 I *D sky130_fd_sc_hd__o21ai_1
*I *1029:Y O *D sky130_fd_sc_hd__nand2_1
*CAP
1 *1030:B1 1.92875e-05
2 *1029:Y 1.92875e-05
3 *1030:B1 *1047:B 3.00829e-05
4 *1030:B1 *319:6 1.4106e-05
5 *1030:B1 *380:44 0.000111352
*RES
1 *1029:Y *1030:B1 19.7763 
*END

*D_NET *279 0.000269554
*CONN
*I *1032:A1 I *D sky130_fd_sc_hd__a21oi_1
*I *1031:Y O *D sky130_fd_sc_hd__inv_1
*CAP
1 *1032:A1 0.000112615
2 *1031:Y 0.000112615
3 *1032:A1 *1031:A 4.03324e-05
4 *1032:A1 *1034:A2 3.99086e-06
*RES
1 *1031:Y *1032:A1 20.6082 
*END

*D_NET *280 0.000485881
*CONN
*I *1034:A2 I *D sky130_fd_sc_hd__a21oi_1
*I *1032:Y O *D sky130_fd_sc_hd__a21oi_1
*CAP
1 *1034:A2 0.000127546
2 *1032:Y 0.000127546
3 *1034:A2 *1031:A 0.000130373
4 *1034:A2 *1242:A 7.26748e-05
5 *1034:A2 *571:8 1.03594e-05
6 *1032:A1 *1034:A2 3.99086e-06
7 *1148:D *1034:A2 1.33911e-05
*RES
1 *1032:Y *1034:A2 30.8842 
*END

*D_NET *281 0.000918119
*CONN
*I *1034:B1 I *D sky130_fd_sc_hd__a21oi_1
*I *1033:Y O *D sky130_fd_sc_hd__a211oi_1
*CAP
1 *1034:B1 0.000151633
2 *1033:Y 0.000151633
3 *1034:B1 *885:B 0.000441873
4 *1034:B1 *1033:A1 1.19705e-05
5 *1034:B1 *1033:B1 6.08467e-05
6 *1034:B1 *1033:C1 7.54385e-05
7 *1034:B1 *319:6 1.03403e-05
8 *1034:B1 *319:36 1.43832e-05
*RES
1 *1033:Y *1034:B1 24.2372 
*END

*D_NET *282 0.000898234
*CONN
*I *1036:A I *D sky130_fd_sc_hd__nand2_1
*I *1037:A2 I *D sky130_fd_sc_hd__o21ai_0
*I *1035:Y O *D sky130_fd_sc_hd__o2111ai_1
*CAP
1 *1036:A 0.000111655
2 *1037:A2 6.56081e-05
3 *1035:Y 0.000103469
4 *282:6 0.000280732
5 *1036:A *1036:B 3.33203e-05
6 *1037:A2 *1037:B1 5.21669e-05
7 *1037:A2 *695:27 5.68225e-06
8 *282:6 *1035:A1 2.16355e-05
9 *282:6 *1035:B1 1.88014e-05
10 *1035:A2 *282:6 6.64392e-05
11 *247:18 *1037:A2 0.000138724
*RES
1 *1035:Y *282:6 11.6364 
2 *282:6 *1037:A2 20.9116 
3 *282:6 *1036:A 12.0704 
*END

*D_NET *283 0.000281553
*CONN
*I *1037:B1 I *D sky130_fd_sc_hd__o21ai_0
*I *1036:Y O *D sky130_fd_sc_hd__nand2_1
*CAP
1 *1037:B1 5.32723e-05
2 *1036:Y 5.32723e-05
3 *1037:B1 *695:27 0.000122842
4 *1037:A2 *1037:B1 5.21669e-05
*RES
1 *1036:Y *1037:B1 29.7455 
*END

*D_NET *284 0.000403441
*CONN
*I *1039:A I *D sky130_fd_sc_hd__nand3_1
*I *1038:Y O *D sky130_fd_sc_hd__nor2_1
*CAP
1 *1039:A 0.000111071
2 *1038:Y 0.000111071
3 *1039:A *588:18 6.21888e-05
4 *97:12 *1039:A 0.00011911
*RES
1 *1038:Y *1039:A 30.4689 
*END

*D_NET *285 0.00262612
*CONN
*I *1040:A I *D sky130_fd_sc_hd__nand2_1
*I *1041:A2 I *D sky130_fd_sc_hd__o21ai_0
*I *1039:Y O *D sky130_fd_sc_hd__nand3_1
*CAP
1 *1040:A 0
2 *1041:A2 0.000117328
3 *1039:Y 0.000524156
4 *285:8 0.000641485
5 *1041:A2 *1040:B 0.000112361
6 *1041:A2 *1041:B1 1.65872e-05
7 *1041:A2 *594:35 0.000143573
8 *285:8 *771:A 0.000239029
9 *285:8 *594:35 3.30384e-05
10 *751:A2 *285:8 7.43837e-05
11 *1041:A1 *1041:A2 1.88987e-05
12 *1041:A1 *285:8 0.000143827
13 *97:8 *285:8 0.000561457
*RES
1 *1039:Y *285:8 25.3809 
2 *285:8 *1041:A2 13.3484 
3 *285:8 *1040:A 9.24915 
*END

*D_NET *286 0.000220115
*CONN
*I *1041:B1 I *D sky130_fd_sc_hd__o21ai_0
*I *1040:Y O *D sky130_fd_sc_hd__nand2_1
*CAP
1 *1041:B1 3.06984e-05
2 *1040:Y 3.06984e-05
3 *1041:B1 *1040:B 6.27718e-05
4 *1041:A1 *1041:B1 7.9359e-05
5 *1041:A2 *1041:B1 1.65872e-05
*RES
1 *1040:Y *1041:B1 19.7763 
*END

*D_NET *287 0.00270473
*CONN
*I *1043:A I *D sky130_fd_sc_hd__nand2_1
*I *1044:A2 I *D sky130_fd_sc_hd__o21ai_0
*I *1042:Y O *D sky130_fd_sc_hd__o2111ai_1
*CAP
1 *1043:A 0.000359639
2 *1044:A2 0
3 *1042:Y 0.000288981
4 *287:10 0.00064862
5 *1043:A *888:B 2.16355e-05
6 *1043:A *1043:B 6.08467e-05
7 *1043:A *1044:B1 0.000301451
8 *1043:A *704:26 0
9 *1043:A *704:35 0
10 *287:10 *1008:A 2.86887e-05
11 *287:10 *1044:B1 1.72644e-05
12 *287:10 *703:52 0
13 *748:A2 *1043:A 0.00030245
14 *748:A2 *287:10 1.03594e-05
15 *1009:B *287:10 0.000255877
16 *1075:D *1043:A 6.3259e-05
17 *161:235 *1043:A 0.00018308
18 *262:8 *287:10 0.000162583
*RES
1 *1042:Y *287:10 21.5663 
2 *287:10 *1044:A2 13.7491 
3 *287:10 *1043:A 27.9316 
*END

*D_NET *288 0.00159813
*CONN
*I *1044:B1 I *D sky130_fd_sc_hd__o21ai_0
*I *1043:Y O *D sky130_fd_sc_hd__nand2_1
*CAP
1 *1044:B1 0.000555234
2 *1043:Y 0.000555234
3 *1044:B1 *747:B 3.78605e-05
4 *1044:B1 *1043:B 0.000131085
5 *1044:B1 *1075:RESET_B 0
6 *1043:A *1044:B1 0.000301451
7 *287:10 *1044:B1 1.72644e-05
*RES
1 *1043:Y *1044:B1 42.514 
*END

*D_NET *289 0.000513755
*CONN
*I *1046:C I *D sky130_fd_sc_hd__nand3_1
*I *1045:Y O *D sky130_fd_sc_hd__nor2_1
*CAP
1 *1046:C 8.16156e-05
2 *1045:Y 8.16156e-05
3 *1046:C *703:8 6.08467e-05
4 *981:A *1046:C 0.000146645
5 *1045:A *1046:C 0.000143032
*RES
1 *1045:Y *1046:C 30.8842 
*END

*D_NET *290 0.00162342
*CONN
*I *1048:A2 I *D sky130_fd_sc_hd__o21ai_0
*I *1047:A I *D sky130_fd_sc_hd__nand2_1
*I *1046:Y O *D sky130_fd_sc_hd__nand3_1
*CAP
1 *1048:A2 0
2 *1047:A 0.000124745
3 *1046:Y 0.000313935
4 *290:8 0.000438681
5 *1047:A *1048:B1 5.03545e-06
6 *1047:A *1138:RESET_B 0.00030685
7 *1047:A *1191:CLK 1.41489e-05
8 *1047:A *314:26 1.68566e-05
9 *1047:A *691:310 0.000106947
10 *290:8 *1048:B1 1.84402e-05
11 *290:8 *314:26 2.74764e-05
12 *290:8 *609:8 1.07248e-05
13 *290:8 *703:10 8.93772e-05
14 *1045:A *290:8 3.73661e-05
15 *1076:D *290:8 0.000112837
16 *243:10 *290:8 0
*RES
1 *1046:Y *290:8 22.6404 
2 *290:8 *1047:A 22.0915 
3 *290:8 *1048:A2 13.7491 
*END

*D_NET *291 0.000404236
*CONN
*I *1048:B1 I *D sky130_fd_sc_hd__o21ai_0
*I *1047:Y O *D sky130_fd_sc_hd__nand2_1
*CAP
1 *1048:B1 0.000106012
2 *1047:Y 0.000106012
3 *1048:B1 *1191:CLK 5.01846e-05
4 *1030:A2 *1048:B1 0.000109427
5 *1047:A *1048:B1 5.03545e-06
6 *1076:D *1048:B1 9.12416e-06
7 *290:8 *1048:B1 1.84402e-05
*RES
1 *1047:Y *1048:B1 29.7778 
*END

*D_NET *292 0.0011226
*CONN
*I *1050:B1 I *D sky130_fd_sc_hd__o21ai_0
*I *1049:Y O *D sky130_fd_sc_hd__nand2_1
*CAP
1 *1050:B1 0.000166453
2 *1049:Y 0.000166453
3 *1050:B1 *935:A 1.03434e-05
4 *1050:B1 *936:A2 0.000324151
5 *943:B *1050:B1 0
6 *1050:A1 *1050:B1 3.12751e-05
7 *1050:A2 *1050:B1 0.000423922
*RES
1 *1049:Y *1050:B1 25.7564 
*END

*D_NET *293 0.000600209
*CONN
*I *1052:B1 I *D sky130_fd_sc_hd__o21ai_0
*I *1051:Y O *D sky130_fd_sc_hd__nand2_1
*CAP
1 *1052:B1 0.000157302
2 *1051:Y 0.000157302
3 *1052:B1 *425:10 0
4 *1052:B1 *699:39 7.65861e-05
5 *1052:A1 *1052:B1 0.000111562
6 *228:92 *1052:B1 1.82696e-05
7 *228:96 *1052:B1 1.41291e-05
8 *228:100 *1052:B1 6.50586e-05
*RES
1 *1051:Y *1052:B1 31.471 
*END

*D_NET *294 0.000504389
*CONN
*I *1054:B I *D sky130_fd_sc_hd__nand2_1
*I *1053:Y O *D sky130_fd_sc_hd__a21oi_1
*CAP
1 *1054:B 0.000236232
2 *1053:Y 0.000236232
3 *860:A *1054:B 3.19251e-05
*RES
1 *1053:Y *1054:B 23.538 
*END

*D_NET *295 0.00130539
*CONN
*I *1057:B I *D sky130_fd_sc_hd__nand2_1
*I *1056:Y O *D sky130_fd_sc_hd__nand2_1
*CAP
1 *1057:B 0.000233662
2 *1056:Y 0.000233662
3 *1057:B tl_o[25] 1.1957e-05
4 *1057:B tl_o[43] 0.000284295
5 *1057:B *830:A 0.000280847
6 *1057:B *1056:B 7.26606e-05
7 *865:A *1057:B 6.46827e-05
8 *1118:D *1057:B 6.08467e-05
9 *161:294 *1057:B 6.27782e-05
*RES
1 *1056:Y *1057:B 36.7274 
*END

*D_NET *296 0.000608968
*CONN
*I *1060:A I *D sky130_fd_sc_hd__nand2_1
*I *1058:Y O *D sky130_fd_sc_hd__nand2_1
*CAP
1 *1060:A 0.000199105
2 *1058:Y 0.000199105
3 *1060:A *796:A 0.000131075
4 *1060:A *1498:A 4.14221e-05
5 *1058:A *1060:A 3.82612e-05
*RES
1 *1058:Y *1060:A 33.6572 
*END

*D_NET *297 0.0002403
*CONN
*I *1060:B I *D sky130_fd_sc_hd__nand2_1
*I *1059:Y O *D sky130_fd_sc_hd__nand2_1
*CAP
1 *1060:B 3.71253e-05
2 *1059:Y 3.71253e-05
3 *1060:B *796:A 0.000115859
4 *1059:A *1060:B 4.04393e-05
5 *1126:D *1060:B 9.75148e-06
*RES
1 *1059:Y *1060:B 20.355 
*END

*D_NET *298 0.000506475
*CONN
*I *1063:A I *D sky130_fd_sc_hd__nand2_1
*I *1061:Y O *D sky130_fd_sc_hd__nand2_1
*CAP
1 *1063:A 0.000161006
2 *1061:Y 0.000161006
3 *1063:A *1126:CLK 0.000148136
4 *831:A *1063:A 6.24474e-06
5 *1061:A *1063:A 3.00829e-05
*RES
1 *1061:Y *1063:A 31.4388 
*END

*D_NET *299 0.00037715
*CONN
*I *1063:B I *D sky130_fd_sc_hd__nand2_1
*I *1062:Y O *D sky130_fd_sc_hd__nand2_1
*CAP
1 *1063:B 0.00015464
2 *1062:Y 0.00015464
3 *1126:D *1063:B 3.18748e-06
4 *1128:D *1063:B 6.46815e-05
*RES
1 *1062:Y *1063:B 22.0188 
*END

*D_NET *300 0.00188303
*CONN
*I *1067:B1 I *D sky130_fd_sc_hd__a21oi_1
*I *1066:Y O *D sky130_fd_sc_hd__nor2_1
*CAP
1 *1067:B1 0.00050778
2 *1066:Y 0.00050778
3 *1067:B1 *1066:A 0.000146358
4 *1067:B1 *1066:B 8.93709e-05
5 *1067:B1 *1228:A 0.000121494
6 *1067:B1 *1283:A 0.000330638
7 *1067:B1 *531:10 7.50722e-05
8 *881:B *1067:B1 4.89898e-06
9 *905:A1 *1067:B1 4.2577e-05
10 *908:A *1067:B1 6.73329e-06
11 *1098:D *1067:B1 0
12 *1140:D *1067:B1 4.60267e-05
13 *161:130 *1067:B1 0
14 *161:273 *1067:B1 4.30017e-06
*RES
1 *1066:Y *1067:B1 43.4005 
*END

*D_NET *301 0.000398428
*CONN
*I *1071:B I *D sky130_fd_sc_hd__nand2_1
*I *1070:Y O *D sky130_fd_sc_hd__nand2_1
*CAP
1 *1071:B 0.000125291
2 *1070:Y 0.000125291
3 *1071:B *311:39 0.000147846
*RES
1 *1070:Y *1071:B 22.5734 
*END

*D_NET *656 0.000549491
*CONN
*P cio_gpio_en_o[0] O
*I *1253:X O *D sky130_fd_sc_hd__clkdlybuf4s50_1
*CAP
1 cio_gpio_en_o[0] 0.000274745
2 *1253:X 0.000274745
3 cio_gpio_o[0] cio_gpio_en_o[0] 0
4 *1514:A cio_gpio_en_o[0] 0
*RES
1 *1253:X cio_gpio_en_o[0] 19.1969 
*END

*D_NET *655 0.00059482
*CONN
*P cio_gpio_en_o[1] O
*I *1252:X O *D sky130_fd_sc_hd__clkdlybuf4s50_1
*CAP
1 cio_gpio_en_o[1] 0.000248815
2 *1252:X 0.000248815
3 cio_gpio_o[0] cio_gpio_en_o[1] 0
4 *1293:A cio_gpio_en_o[1] 9.71912e-05
*RES
1 *1252:X cio_gpio_en_o[1] 19.1969 
*END

*D_NET *654 0.000545959
*CONN
*P cio_gpio_en_o[2] O
*I *1251:X O *D sky130_fd_sc_hd__clkdlybuf4s50_1
*CAP
1 cio_gpio_en_o[2] 0.000272979
2 *1251:X 0.000272979
3 cio_gpio_en_o[3] cio_gpio_en_o[2] 0
*RES
1 *1251:X cio_gpio_en_o[2] 19.1969 
*END

*D_NET *653 0.00227461
*CONN
*P cio_gpio_en_o[3] O
*I *1250:X O *D sky130_fd_sc_hd__clkdlybuf4s50_1
*CAP
1 cio_gpio_en_o[3] 0.00082497
2 *1250:X 0.00082497
3 cio_gpio_en_o[3] cio_gpio_en_o[2] 0
4 *920:A cio_gpio_en_o[3] 0.000346348
5 *960:A cio_gpio_en_o[3] 1.41976e-05
6 *1251:A cio_gpio_en_o[3] 0.000186445
7 *1519:A cio_gpio_en_o[3] 5.9708e-05
8 *305:10 cio_gpio_en_o[3] 1.79672e-05
*RES
1 *1250:X cio_gpio_en_o[3] 33.0452 
*END

*D_NET *363 0.000250579
*CONN
*P cio_gpio_i[0] I
*I *1489:A I *D sky130_fd_sc_hd__dlygate4sd3_1
*CAP
1 cio_gpio_i[0] 0.000114667
2 *1489:A 0.000114667
3 *1506:A *1489:A 2.12443e-05
*RES
1 cio_gpio_i[0] *1489:A 18.5432 
*END

*D_NET *362 0.000403731
*CONN
*P cio_gpio_i[1] I
*I *1492:A I *D sky130_fd_sc_hd__dlygate4sd3_1
*CAP
1 cio_gpio_i[1] 0.000137195
2 *1492:A 0.000137195
3 *1492:A intr_gpio_o[1] 4.03157e-05
4 *1492:A *1507:A 8.90253e-05
*RES
1 cio_gpio_i[1] *1492:A 19.4502 
*END

*D_NET *361 0.00036976
*CONN
*P cio_gpio_i[2] I
*I *1491:A I *D sky130_fd_sc_hd__dlygate4sd3_1
*CAP
1 cio_gpio_i[2] 0.00018488
2 *1491:A 0.00018488
3 *1168:D *1491:A 0
*RES
1 cio_gpio_i[2] *1491:A 20.2042 
*END

*D_NET *360 0.000318875
*CONN
*P cio_gpio_i[3] I
*I *1490:A I *D sky130_fd_sc_hd__dlygate4sd3_1
*CAP
1 cio_gpio_i[3] 5.70083e-05
2 *1490:A 5.70083e-05
3 *1490:A tl_o[29] 6.36804e-05
4 *1490:A *1507:A 0.000141178
*RES
1 cio_gpio_i[3] *1490:A 18.5432 
*END

*D_NET *652 0.00101514
*CONN
*P cio_gpio_o[0] O
*I *1249:X O *D sky130_fd_sc_hd__clkdlybuf4s50_1
*CAP
1 cio_gpio_o[0] 0.000454457
2 *1249:X 0.000454457
3 cio_gpio_o[0] cio_gpio_en_o[0] 0
4 cio_gpio_o[0] cio_gpio_en_o[1] 0
5 *1249:A cio_gpio_o[0] 6.47268e-05
6 *1253:A cio_gpio_o[0] 4.15008e-05
7 *1293:A cio_gpio_o[0] 0
8 *1522:A cio_gpio_o[0] 0
9 *418:16 cio_gpio_o[0] 0
*RES
1 *1249:X cio_gpio_o[0] 23.6281 
*END

*D_NET *651 0.000477029
*CONN
*P cio_gpio_o[1] O
*I *1248:X O *D sky130_fd_sc_hd__clkdlybuf4s50_1
*CAP
1 cio_gpio_o[1] 0.000100099
2 *1248:X 0.000100099
3 cio_gpio_o[1] *1263:A 0.000161786
4 tl_o[17] cio_gpio_o[1] 5.10943e-05
5 tl_o[18] cio_gpio_o[1] 5.23778e-05
6 *460:16 cio_gpio_o[1] 1.1573e-05
*RES
1 *1248:X cio_gpio_o[1] 18.0311 
*END

*D_NET *650 0.00387006
*CONN
*P cio_gpio_o[2] O
*I *1247:X O *D sky130_fd_sc_hd__clkdlybuf4s50_1
*CAP
1 cio_gpio_o[2] 0.000731231
2 *1247:X 0.000731231
3 cio_gpio_o[2] tl_o[62] 0.000179496
4 tl_o[18] cio_gpio_o[2] 0
5 *784:B cio_gpio_o[2] 0.000107496
6 *855:B cio_gpio_o[2] 5.54675e-05
7 *856:A cio_gpio_o[2] 0.000112228
8 *856:B cio_gpio_o[2] 0.000158451
9 *856:C cio_gpio_o[2] 0.000140498
10 *858:A1 cio_gpio_o[2] 2.30636e-05
11 *858:A2 cio_gpio_o[2] 2.84758e-05
12 *858:B1 cio_gpio_o[2] 0.000112361
13 *859:A cio_gpio_o[2] 0.000405074
14 *860:B cio_gpio_o[2] 6.27718e-05
15 *912:A cio_gpio_o[2] 0.000111352
16 *1298:A cio_gpio_o[2] 0.000207997
17 *154:8 cio_gpio_o[2] 0.000122668
18 *154:28 cio_gpio_o[2] 3.68716e-05
19 *156:6 cio_gpio_o[2] 3.49805e-05
20 *211:18 cio_gpio_o[2] 0.000165521
21 *460:16 cio_gpio_o[2] 0.00034282
*RES
1 *1247:X cio_gpio_o[2] 39.4551 
*END

*D_NET *649 0.00459432
*CONN
*P cio_gpio_o[3] O
*I *1246:X O *D sky130_fd_sc_hd__clkdlybuf4s50_1
*CAP
1 cio_gpio_o[3] 0.00155939
2 *1246:X 0.00155939
3 cio_gpio_o[3] tl_o[65] 7.73582e-06
4 cio_gpio_o[3] *1292:A 3.9313e-05
5 *782:A cio_gpio_o[3] 6.38502e-06
6 *794:A cio_gpio_o[3] 0.000269548
7 *856:A cio_gpio_o[3] 0.000406614
8 *1053:A1 cio_gpio_o[3] 1.58257e-05
9 *1236:A cio_gpio_o[3] 8.67571e-05
10 *1504:A cio_gpio_o[3] 0.000237264
11 *1512:A cio_gpio_o[3] 4.58949e-05
12 *1523:A cio_gpio_o[3] 0.000360198
13 *106:32 cio_gpio_o[3] 0
*RES
1 *1246:X cio_gpio_o[3] 43.001 
*END

*D_NET *314 0.0118857
*CONN
*P clk_i I
*I *1455:A I *D sky130_fd_sc_hd__clkbuf_8
*CAP
1 clk_i 0.00534801
2 *1455:A 4.80799e-05
3 *314:26 0.00539609
4 *1455:A *690:166 3.25052e-05
5 *314:26 tl_o[15] 8.68416e-05
6 *314:26 *980:B 6.93385e-05
7 *314:26 *1191:CLK 0
8 *314:26 *380:33 0.000195679
9 *314:26 *691:310 0.000330266
10 *314:26 *692:135 2.69306e-06
11 *314:26 *692:145 1.25698e-05
12 *1013:B1 *314:26 0.000162911
13 *1047:A *314:26 1.68566e-05
14 *175:71 *314:26 0.000115056
15 *243:10 *314:26 4.12848e-05
16 *290:8 *314:26 2.74764e-05
*RES
1 clk_i *314:26 23.5826 
2 *314:26 *1455:A 15.0271 
*END

*D_NET *691 0.0454487
*CONN
*I *1466:A I *D sky130_fd_sc_hd__clkbuf_16
*I *1468:A I *D sky130_fd_sc_hd__clkbuf_16
*I *1467:A I *D sky130_fd_sc_hd__clkbuf_16
*I *1470:A I *D sky130_fd_sc_hd__clkbuf_16
*I *1471:A I *D sky130_fd_sc_hd__clkbuf_16
*I *1473:A I *D sky130_fd_sc_hd__clkbuf_16
*I *1472:A I *D sky130_fd_sc_hd__clkbuf_16
*I *1469:A I *D sky130_fd_sc_hd__clkbuf_16
*I *1465:A I *D sky130_fd_sc_hd__clkbuf_16
*I *1463:A I *D sky130_fd_sc_hd__clkbuf_16
*I *1464:A I *D sky130_fd_sc_hd__clkbuf_16
*I *1462:A I *D sky130_fd_sc_hd__clkbuf_16
*I *1460:A I *D sky130_fd_sc_hd__clkbuf_16
*I *1461:A I *D sky130_fd_sc_hd__clkbuf_16
*I *1459:A I *D sky130_fd_sc_hd__clkbuf_16
*I *1458:A I *D sky130_fd_sc_hd__clkbuf_16
*I *1455:X O *D sky130_fd_sc_hd__clkbuf_8
*CAP
1 *1466:A 0
2 *1468:A 0
3 *1467:A 6.46078e-05
4 *1470:A 0
5 *1471:A 9.67385e-05
6 *1473:A 4.6071e-05
7 *1472:A 0
8 *1469:A 0
9 *1465:A 9.72845e-05
10 *1463:A 5.47103e-05
11 *1464:A 0.00011305
12 *1462:A 0
13 *1460:A 0
14 *1461:A 0
15 *1459:A 0
16 *1458:A 0
17 *1455:X 0
18 *691:351 0.000302566
19 *691:338 0.000398567
20 *691:336 9.60016e-05
21 *691:332 0.00128447
22 *691:310 0.00266308
23 *691:290 0.000108248
24 *691:276 0.00138542
25 *691:258 0.00106458
26 *691:238 5.06108e-06
27 *691:226 0.00213688
28 *691:214 0.00233544
29 *691:210 0.00299648
30 *691:197 0.00307316
31 *691:195 0.00108054
32 *691:169 0.000102122
33 *691:155 0.000254085
34 *691:153 0.00132908
35 *691:137 0.000201919
36 *691:118 0.00116551
37 *691:98 0.00204487
38 *691:79 0.00139679
39 *691:69 0.00162312
40 *691:56 0.00291445
41 *691:41 0.00180877
42 *691:39 5.43298e-05
43 *691:35 0.000198531
44 *691:29 0.000730186
45 *691:19 0.00327732
46 *691:17 0.00309398
47 *691:11 0.0017959
48 *691:6 1.55375e-05
49 *691:17 *1138:RESET_B 0.000302131
50 *691:29 *700:19 3.08327e-05
51 *691:35 *1145:CLK 5.74288e-05
52 *691:35 *700:19 4.53935e-05
53 *691:69 *1099:CLK 4.0752e-05
54 *691:69 *695:10 6.88027e-05
55 *691:69 *695:21 6.28598e-05
56 *691:69 *695:27 4.58003e-05
57 *691:69 *695:56 6.15399e-06
58 *691:79 *694:48 0
59 *691:79 *695:56 4.75721e-06
60 *691:98 *1156:RESET_B 0
61 *691:98 *1176:RESET_B 5.53934e-05
62 *691:98 *695:21 2.36813e-05
63 *691:118 *692:217 0
64 *691:118 *693:253 7.86825e-06
65 *691:155 *1088:CLK 9.82996e-05
66 *691:169 *1088:CLK 1.36305e-06
67 *691:195 *1138:RESET_B 0
68 *691:195 *706:16 0
69 *691:195 *706:31 9.79617e-05
70 *691:214 *1110:RESET_B 4.55675e-05
71 *691:214 *693:628 0.000116596
72 *691:214 *739:12 5.51393e-07
73 *691:290 *706:10 0
74 *691:290 *706:16 0
75 *691:310 *1138:RESET_B 0.000100972
76 *691:310 *1191:CLK 0
77 *691:310 *692:351 0.000107248
78 *691:332 *1166:RESET_B 1.0509e-05
79 *691:332 *1172:CLK 7.71803e-05
80 *691:332 *692:351 5.45757e-05
81 *691:332 *702:10 4.47962e-05
82 *753:B *691:98 0
83 *753:B *691:118 0
84 *771:B *691:98 0
85 *771:B *691:118 0
86 *826:A0 *691:56 4.62298e-05
87 *826:S *691:39 4.58003e-05
88 *872:A *691:226 8.26059e-05
89 *872:B *691:226 2.20939e-06
90 *874:A *1473:A 4.89392e-05
91 *875:A *691:258 8.44482e-07
92 *895:A *691:276 0
93 *909:A1 *691:310 0.000218951
94 *909:A1 *691:332 5.69809e-05
95 *926:A1 *691:29 1.64347e-05
96 *926:A1 *691:35 6.49544e-05
97 *926:A1 *691:56 1.32509e-05
98 *953:A *691:155 0.00015233
99 *953:A *691:169 2.28433e-06
100 *958:A2 *1463:A 2.84892e-05
101 *1011:B *691:332 3.76013e-05
102 *1012:A *691:332 6.84737e-05
103 *1018:B *691:332 0
104 *1036:B *691:98 0
105 *1047:A *691:310 0.000106947
106 *1113:D *691:214 7.65207e-05
107 *1114:D *691:226 3.19724e-05
108 *1130:D *691:56 0
109 *1169:D *691:351 2.93783e-05
110 *1171:D *691:332 7.13655e-06
111 *1503:A *691:98 0
112 *106:503 *691:35 5.59646e-05
113 *106:503 *691:39 8.62337e-05
114 *106:528 *691:56 0
115 *161:56 *691:276 0
116 *161:130 *691:258 0
117 *166:10 *691:214 9.09774e-06
118 *175:26 *691:98 0
119 *175:71 *691:351 7.36077e-05
120 *179:32 *691:276 0.000111495
121 *238:14 *691:310 0
122 *239:10 *691:310 0
123 *311:39 *1465:A 4.00116e-05
124 *314:26 *691:310 0.000330266
125 *345:20 *691:69 0.000141282
126 *345:20 *691:79 7.86825e-06
127 *345:20 *691:98 0
128 *378:29 *691:118 9.44462e-05
129 *380:33 *691:310 3.77955e-05
130 *380:33 *691:332 0
131 *383:12 *691:195 4.11559e-07
132 *383:14 *691:195 6.66111e-08
133 *536:8 *691:226 0
134 *618:8 *691:310 2.28235e-05
135 *674:20 *691:276 1.40761e-06
136 *690:59 *691:35 5.35462e-05
137 *690:59 *691:39 3.79207e-05
138 *690:76 *691:56 3.5729e-05
139 *690:319 *691:195 0.000172391
140 *690:319 *691:290 8.10894e-05
*RES
1 *1455:X *691:6 13.7491 
2 *691:6 *691:11 0.378612 
3 *691:11 *691:17 5.05739 
4 *691:17 *691:19 3.82246 
5 *691:19 *691:29 6.38583 
6 *691:29 *691:35 10.2221 
7 *691:35 *691:39 2.26664 
8 *691:39 *691:41 4.5 
9 *691:41 *691:56 13.6949 
10 *691:56 *691:69 16.9565 
11 *691:69 *691:79 14.0356 
12 *691:79 *1458:A 13.7491 
13 *691:69 *1459:A 13.7491 
14 *691:56 *691:98 20.9336 
15 *691:98 *1461:A 13.7491 
16 *691:98 *691:118 12.5604 
17 *691:118 *1460:A 13.7491 
18 *691:39 *1462:A 9.24915 
19 *691:29 *691:137 6.3326 
20 *691:137 *1464:A 11.6364 
21 *691:19 *691:153 6.12826 
22 *691:153 *691:155 5.77689 
23 *691:155 *1463:A 15.0271 
24 *691:153 *691:169 0.378612 
25 *691:169 *1465:A 16.3413 
26 *691:17 *691:195 11.2419 
27 *691:195 *691:197 3.36879 
28 *691:197 *691:210 4.20664 
29 *691:210 *691:214 9.3533 
30 *691:214 *691:226 14.4161 
31 *691:226 *1469:A 13.7491 
32 *691:214 *691:238 0.378612 
33 *691:238 *1472:A 13.7491 
34 *691:210 *691:258 6.22834 
35 *691:258 *1473:A 15.0271 
36 *691:197 *691:276 9.49594 
37 *691:276 *1471:A 15.5817 
38 *691:195 *691:290 3.28538 
39 *691:290 *1470:A 13.7491 
40 *691:11 *691:310 22.4281 
41 *691:310 *1467:A 15.0271 
42 *691:310 *691:332 18.5597 
43 *691:332 *691:336 4.5 
44 *691:336 *691:338 1.95317 
45 *691:338 *691:351 12.0011 
46 *691:351 *1468:A 13.7491 
47 *691:336 *1466:A 9.24915 
*END

*D_NET *694 0.00653225
*CONN
*I *1186:CLK I *D sky130_fd_sc_hd__dfrtp_1
*I *1185:CLK I *D sky130_fd_sc_hd__dfrtp_1
*I *1184:CLK I *D sky130_fd_sc_hd__dfrtp_1
*I *1187:CLK I *D sky130_fd_sc_hd__dfrtp_1
*I *1474:A I *D sky130_fd_sc_hd__clkinv_2
*I *1192:CLK I *D sky130_fd_sc_hd__dfrtp_1
*I *1193:CLK I *D sky130_fd_sc_hd__dfrtp_1
*I *1150:CLK I *D sky130_fd_sc_hd__dfrtp_1
*I *1458:X O *D sky130_fd_sc_hd__clkbuf_16
*CAP
1 *1186:CLK 2.99529e-05
2 *1185:CLK 0.000144173
3 *1184:CLK 0.000462554
4 *1187:CLK 0.00014241
5 *1474:A 0.000104517
6 *1192:CLK 0.000351073
7 *1193:CLK 5.58866e-05
8 *1150:CLK 0.000263391
9 *1458:X 0.000238098
10 *694:58 0.000946005
11 *694:48 0.000687427
12 *694:23 0.000406959
13 *694:12 0.000409512
14 *694:10 0.000353341
15 *694:8 0.000513061
16 *1001:A *694:58 4.13633e-05
17 *1001:B *694:58 4.61271e-05
18 *1150:D *1150:CLK 5.23399e-05
19 *1184:D *694:58 8.64364e-05
20 *1187:D *694:48 1.63652e-05
21 *1192:D *1192:CLK 6.78549e-05
22 *1193:D *1193:CLK 7.48633e-05
23 *1193:RESET_B *1192:CLK 9.94834e-05
24 *252:25 *694:58 6.27718e-05
25 *691:79 *694:48 0
26 *692:87 *1186:CLK 1.43698e-05
27 *692:87 *694:8 0.000263038
28 *692:87 *694:48 0.000250013
29 *692:98 *1185:CLK 0.000240111
30 *692:98 *694:48 0.000108748
*RES
1 *1458:X *694:8 17.2456 
2 *694:8 *694:10 2.24725 
3 *694:10 *694:12 3.493 
4 *694:12 *1150:CLK 20.5642 
5 *694:12 *694:23 4.5 
6 *694:23 *1193:CLK 11.0817 
7 *694:23 *1192:CLK 18.8462 
8 *694:10 *1474:A 16.1364 
9 *694:8 *694:48 6.81502 
10 *694:48 *694:58 17.1261 
11 *694:58 *1187:CLK 17.1444 
12 *694:58 *1184:CLK 21.8666 
13 *694:48 *1185:CLK 18.0727 
14 *1458:X *1186:CLK 19.2217 
*END

*D_NET *704 0.0107736
*CONN
*I *1112:CLK I *D sky130_fd_sc_hd__dfrtp_1
*I *1115:CLK I *D sky130_fd_sc_hd__dfrtp_1
*I *1105:CLK I *D sky130_fd_sc_hd__dfrtp_1
*I *1109:CLK I *D sky130_fd_sc_hd__dfrtp_1
*I *1135:CLK I *D sky130_fd_sc_hd__dfrtp_1
*I *1117:CLK I *D sky130_fd_sc_hd__dfrtp_1
*I *1483:A I *D sky130_fd_sc_hd__clkbuf_8
*I *1075:CLK I *D sky130_fd_sc_hd__dfrtp_1
*I *1168:CLK I *D sky130_fd_sc_hd__dfrtp_1
*I *1468:X O *D sky130_fd_sc_hd__clkbuf_16
*CAP
1 *1112:CLK 0.00014128
2 *1115:CLK 0.000399379
3 *1105:CLK 0.00035974
4 *1109:CLK 0.000155937
5 *1135:CLK 0.000202066
6 *1117:CLK 7.82981e-05
7 *1483:A 0.000127662
8 *1075:CLK 0
9 *1168:CLK 0.00146886
10 *1468:X 0.00154131
11 *704:104 0.000879264
12 *704:74 0.000658675
13 *704:61 0.000485737
14 *704:50 0.00052581
15 *704:46 0.000778237
16 *704:35 0.00051334
17 *704:26 0.000325332
18 *817:B *1168:CLK 0.00021217
19 *818:B1 *1168:CLK 1.19751e-05
20 *862:A *1115:CLK 0.000221534
21 *863:A *1115:CLK 2.93493e-05
22 *873:B *1112:CLK 3.99086e-06
23 *873:B *704:104 1.21461e-06
24 *888:A *1115:CLK 8.52802e-05
25 *888:A *704:104 0
26 *889:C1 *704:35 6.91172e-05
27 *1043:A *704:26 0
28 *1043:A *704:35 0
29 *1075:D *704:26 0
30 *1105:D *1105:CLK 3.64651e-05
31 *1105:D *704:61 0
32 *1109:D *1105:CLK 9.05723e-05
33 *1109:D *1109:CLK 7.246e-05
34 *1112:D *1112:CLK 0.000107496
35 *1117:D *1105:CLK 0
36 *1117:D *1117:CLK 5.04829e-06
37 *1117:D *704:50 7.20028e-05
38 *1117:D *704:61 5.044e-05
39 *1117:D *704:74 6.36909e-05
40 *1117:RESET_B *1115:CLK 0
41 *1117:RESET_B *704:104 4.26859e-05
42 *1135:D *704:61 0
43 *1168:RESET_B *1168:CLK 0.000312203
44 *106:271 *1115:CLK 0.000179318
45 *106:282 *1115:CLK 0.000112153
46 *161:163 *704:26 5.88662e-05
47 *161:163 *704:35 9.22013e-06
48 *161:235 *1112:CLK 5.41377e-05
49 *161:235 *704:35 0
50 *161:244 *1112:CLK 1.07248e-05
51 *161:325 *1115:CLK 1.88131e-05
52 *379:10 *704:35 4.6329e-05
53 *379:10 *704:46 6.17244e-05
54 *379:10 *704:104 1.2704e-05
55 *379:16 *1168:CLK 2.65667e-05
56 *437:14 *1168:CLK 4.0752e-05
57 *541:10 *1112:CLK 1.36691e-05
58 *693:857 *1115:CLK 0
*RES
1 *1468:X *1168:CLK 47.5788 
2 *1468:X *704:26 15.9964 
3 *704:26 *1075:CLK 13.7491 
4 *704:26 *704:35 6.39977 
5 *704:35 *1483:A 16.1364 
6 *704:35 *704:46 3.90826 
7 *704:46 *704:50 11.8786 
8 *704:50 *1117:CLK 11.0817 
9 *704:50 *704:61 8.40826 
10 *704:61 *1135:CLK 18.3548 
11 *704:61 *704:74 8.40826 
12 *704:74 *1109:CLK 13.3243 
13 *704:74 *1105:CLK 25.1261 
14 *704:46 *704:104 10.6589 
15 *704:104 *1115:CLK 30.0982 
16 *704:104 *1112:CLK 21.0832 
*END

*D_NET *705 0.00733295
*CONN
*I *1118:CLK I *D sky130_fd_sc_hd__dfrtp_1
*I *1108:CLK I *D sky130_fd_sc_hd__dfrtp_1
*I *1114:CLK I *D sky130_fd_sc_hd__dfrtp_1
*I *1096:CLK I *D sky130_fd_sc_hd__dfrtp_1
*I *1098:CLK I *D sky130_fd_sc_hd__dfrtp_1
*I *1140:CLK I *D sky130_fd_sc_hd__dfrtp_1
*I *1484:A I *D sky130_fd_sc_hd__bufinv_16
*I *1469:X O *D sky130_fd_sc_hd__clkbuf_16
*CAP
1 *1118:CLK 0.000266882
2 *1108:CLK 1.81558e-05
3 *1114:CLK 0.000468612
4 *1096:CLK 0.000850067
5 *1098:CLK 0
6 *1140:CLK 8.63445e-05
7 *1484:A 0.000177362
8 *1469:X 0
9 *705:50 0.000486768
10 *705:16 0.000508869
11 *705:12 0.000285647
12 *705:10 0.001118
13 *705:8 0.000533682
14 *705:6 0.000573112
15 *705:8 *1283:A 0
16 tl_o[44] *1118:CLK 0.000198334
17 *908:B *1096:CLK 2.5762e-05
18 *979:A *705:16 0
19 *1004:A *705:16 2.39535e-05
20 *1066:B *705:8 0
21 *1066:B *705:10 0
22 *1096:RESET_B *1096:CLK 0.000302279
23 *1098:D *705:16 3.71173e-05
24 *1108:D *705:8 0
25 *1114:RESET_B *1108:CLK 6.50727e-05
26 *1114:RESET_B *1114:CLK 6.0209e-05
27 *1199:A *705:8 9.10968e-05
28 *1230:A *1118:CLK 3.75772e-05
29 *1230:A *705:8 1.85012e-05
30 *1230:A *705:10 9.36471e-05
31 *1230:A *705:12 9.03762e-06
32 *1230:A *705:16 8.62474e-06
33 *1516:A *1118:CLK 8.94093e-05
34 *161:142 *1140:CLK 0.000100493
35 *161:142 *1484:A 0.000349883
36 *161:273 *1118:CLK 0
37 *161:273 *705:8 0
38 *161:294 *1118:CLK 0
39 *242:14 *705:16 0.000118485
40 *318:12 *1140:CLK 5.20545e-05
41 *318:12 *1484:A 0.000235847
42 *538:10 *705:8 4.20662e-05
*RES
1 *1469:X *705:6 13.7491 
2 *705:6 *705:8 7.23027 
3 *705:8 *705:10 5.98452 
4 *705:10 *705:12 1.00149 
5 *705:12 *705:16 11.315 
6 *705:16 *1484:A 18.8462 
7 *705:16 *1140:CLK 12.191 
8 *705:12 *1098:CLK 13.7491 
9 *705:10 *1096:CLK 27.1079 
10 *705:8 *705:50 4.5 
11 *705:50 *1114:CLK 20.5341 
12 *705:50 *1108:CLK 9.97254 
13 *705:6 *1118:CLK 22.1209 
*END

*D_NET *706 0.00552507
*CONN
*I *1190:CLK I *D sky130_fd_sc_hd__dfrtp_1
*I *1147:CLK I *D sky130_fd_sc_hd__dfrtp_1
*I *1080:CLK I *D sky130_fd_sc_hd__dfrtp_1
*I *1144:CLK I *D sky130_fd_sc_hd__dfrtp_1
*I *1485:A I *D sky130_fd_sc_hd__clkinvlp_4
*I *1148:CLK I *D sky130_fd_sc_hd__dfrtp_1
*I *1470:X O *D sky130_fd_sc_hd__clkbuf_16
*CAP
1 *1190:CLK 0.000167725
2 *1147:CLK 0
3 *1080:CLK 5.78763e-05
4 *1144:CLK 0.000309478
5 *1485:A 4.15383e-05
6 *1148:CLK 0.000422221
7 *1470:X 0.000424121
8 *706:48 0.00065111
9 *706:42 0.000469695
10 *706:31 0.00036629
11 *706:16 0.000773843
12 *706:10 0.000804657
13 *895:B *1080:CLK 1.4106e-05
14 *1032:A2 *1485:A 0.000122378
15 *1032:A2 *706:42 0.000102003
16 *1144:D *1144:CLK 2.58757e-05
17 *1144:RESET_B *1144:CLK 3.89532e-05
18 *1147:D *706:48 3.62414e-05
19 *1147:RESET_B *706:16 5.19713e-05
20 *1147:RESET_B *706:31 0
21 *1190:D *1190:CLK 7.48633e-05
22 *318:20 *706:10 9.64718e-05
23 *318:20 *706:16 5.30254e-05
24 *376:10 *1080:CLK 2.84892e-05
25 *376:10 *1144:CLK 0.000130863
26 *383:12 *706:31 1.63278e-05
27 *690:166 *1144:CLK 0.000146986
28 *691:195 *706:16 0
29 *691:195 *706:31 9.79617e-05
30 *691:290 *706:10 0
31 *691:290 *706:16 0
*RES
1 *1470:X *706:10 20.7414 
2 *706:10 *706:16 10.2409 
3 *706:16 *1148:CLK 17.737 
4 *706:16 *706:31 13.0717 
5 *706:31 *1485:A 10.5271 
6 *706:31 *706:42 4.48505 
7 *706:42 *706:48 15.815 
8 *706:48 *1144:CLK 18.8462 
9 *706:48 *1080:CLK 11.0817 
10 *706:42 *1147:CLK 9.24915 
11 *706:10 *1190:CLK 17.8243 
*END

*D_NET *707 0.00796044
*CONN
*I *1107:CLK I *D sky130_fd_sc_hd__dfrtp_1
*I *1121:CLK I *D sky130_fd_sc_hd__dfrtp_1
*I *1486:A I *D sky130_fd_sc_hd__clkinv_2
*I *1154:CLK I *D sky130_fd_sc_hd__dfrtp_1
*I *1102:CLK I *D sky130_fd_sc_hd__dfrtp_1
*I *1106:CLK I *D sky130_fd_sc_hd__dfrtp_1
*I *1086:CLK I *D sky130_fd_sc_hd__dfrtp_1
*I *1085:CLK I *D sky130_fd_sc_hd__dfrtp_1
*I *1471:X O *D sky130_fd_sc_hd__clkbuf_16
*CAP
1 *1107:CLK 0.000496067
2 *1121:CLK 0.000116544
3 *1486:A 0.000122798
4 *1154:CLK 0.000210397
5 *1102:CLK 0.000308682
6 *1106:CLK 1.21841e-05
7 *1086:CLK 0
8 *1085:CLK 0.000461503
9 *1471:X 0
10 *707:84 0.000715053
11 *707:64 0.000450937
12 *707:49 0.000615359
13 *707:32 0.000648768
14 *707:10 0.000592561
15 *707:8 0.000782242
16 *707:6 0.000305979
17 *1107:CLK *716:14 7.67734e-06
18 *756:B *1102:CLK 0
19 *756:B *707:64 0
20 *758:A2 *707:49 6.50727e-05
21 *758:A2 *707:64 0.000101148
22 *760:B1 *1486:A 0
23 *760:B1 *707:64 0
24 *793:B1 *1085:CLK 0.000237521
25 *794:A *1085:CLK 0.000111722
26 *882:B *1107:CLK 0.000140082
27 *886:B *707:10 2.692e-05
28 *894:B *1107:CLK 5.44073e-05
29 *894:B *707:8 5.11638e-05
30 *894:B *707:84 4.95259e-05
31 *895:A *1102:CLK 1.9101e-05
32 *895:A *707:49 6.08467e-05
33 *895:C *1102:CLK 3.76685e-05
34 *896:A *1106:CLK 3.02288e-05
35 *896:A *707:32 5.37805e-05
36 *896:A *707:49 1.48114e-05
37 *1086:RESET_B *707:10 0
38 *1102:D *1102:CLK 0
39 *1102:RESET_B *1102:CLK 0
40 *1107:D *1107:CLK 5.9036e-05
41 *1107:RESET_B *1107:CLK 7.95943e-05
42 *1111:RESET_B *1486:A 6.97989e-05
43 *1154:D *1154:CLK 6.73351e-05
44 *1190:RESET_B *1102:CLK 4.0785e-05
45 *1213:A *1107:CLK 5.04829e-06
46 *1215:A *707:8 0.000151741
47 *1229:A *1107:CLK 3.25494e-05
48 *106:112 *1121:CLK 8.49133e-05
49 *112:73 *1102:CLK 7.98523e-05
50 *136:96 *1102:CLK 6.57819e-06
51 *161:56 *1107:CLK 0.000196324
52 *179:32 *1102:CLK 1.05746e-05
53 *179:32 *1486:A 0
54 *179:32 *707:49 1.74507e-05
55 *179:32 *707:64 0
56 *525:10 *1085:CLK 3.30938e-05
57 *525:10 *707:8 6.19155e-05
58 *525:10 *707:10 6.30955e-05
*RES
1 *1471:X *707:6 13.7491 
2 *707:6 *707:8 6.81502 
3 *707:8 *707:10 3.90826 
4 *707:10 *1085:CLK 25.1642 
5 *707:10 *1086:CLK 13.7491 
6 *707:8 *707:32 14.0971 
7 *707:32 *1106:CLK 9.93034 
8 *707:32 *707:49 9.58788 
9 *707:49 *1102:CLK 21.468 
10 *707:49 *707:64 3.07775 
11 *707:64 *1154:CLK 18.9094 
12 *707:64 *1486:A 17.2421 
13 *707:6 *707:84 3.07775 
14 *707:84 *1121:CLK 17.2456 
15 *707:84 *1107:CLK 28.3637 
*END

*D_NET *708 0.00770328
*CONN
*I *1139:CLK I *D sky130_fd_sc_hd__dfrtp_1
*I *1487:A I *D sky130_fd_sc_hd__clkinv_2
*I *1116:CLK I *D sky130_fd_sc_hd__dfrtp_1
*I *1122:CLK I *D sky130_fd_sc_hd__dfrtp_1
*I *1110:CLK I *D sky130_fd_sc_hd__dfrtp_1
*I *1113:CLK I *D sky130_fd_sc_hd__dfrtp_1
*I *1101:CLK I *D sky130_fd_sc_hd__dfrtp_1
*I *1143:CLK I *D sky130_fd_sc_hd__dfrtp_1
*I *1472:X O *D sky130_fd_sc_hd__clkbuf_16
*CAP
1 *1139:CLK 0
2 *1487:A 0
3 *1116:CLK 0
4 *1122:CLK 0.000199411
5 *1110:CLK 0.000637793
6 *1113:CLK 0
7 *1101:CLK 0
8 *1143:CLK 0.000321826
9 *1472:X 0.000320945
10 *708:82 0.000545385
11 *708:61 0.00109357
12 *708:52 0.000200879
13 *708:30 0.000472915
14 *708:26 0.000453837
15 *708:22 0.000580138
16 *708:12 0.000689413
17 *1143:CLK *739:12 0
18 *708:30 *1280:A 1.03594e-05
19 *708:52 *1280:A 0.000100454
20 *708:52 *739:12 6.69129e-05
21 *708:61 *1280:A 0.000105517
22 *708:61 *739:12 7.30552e-05
23 *708:82 *1280:A 0.000156703
24 *708:82 *739:12 1.79807e-05
25 intr_gpio_o[2] *708:12 0.000521051
26 intr_gpio_o[3] *1143:CLK 0
27 tl_o[30] *708:12 0
28 tl_o[39] *1122:CLK 4.77834e-05
29 *801:A *708:26 2.16355e-05
30 *802:B1 *1143:CLK 0.000143886
31 *865:B *1122:CLK 4.81927e-05
32 *880:A *1110:CLK 5.76608e-05
33 *903:A *1143:CLK 6.00497e-05
34 *1101:D *708:22 8.36586e-06
35 *1101:RESET_B *708:22 0.000114606
36 *1113:D *708:22 0.000148017
37 *1116:D *1122:CLK 9.73108e-05
38 *1118:RESET_B *1110:CLK 8.58902e-06
39 *1143:D *1143:CLK 1.46057e-05
40 *1143:RESET_B *708:22 1.18339e-05
41 *1207:A *1122:CLK 8.59015e-05
42 *1207:A *708:82 0
43 *1511:A *708:82 1.72644e-05
44 *1517:A *708:82 7.78812e-05
45 *106:242 *1110:CLK 7.34948e-06
46 *166:10 *708:12 0
47 *524:8 *708:22 4.04487e-05
48 *533:8 *708:82 0
49 *537:12 *708:12 7.86847e-05
50 *693:624 *708:22 1.94472e-05
51 *693:628 *708:22 1.9939e-05
52 *693:679 *708:12 5.68225e-06
*RES
1 *1472:X *708:12 28.2791 
2 *708:12 *708:22 19.4752 
3 *708:22 *708:26 9.10562 
4 *708:26 *708:30 3.81055 
5 *708:30 *1143:CLK 21.468 
6 *708:30 *1101:CLK 13.7491 
7 *708:26 *708:52 3.90826 
8 *708:52 *1113:CLK 13.7491 
9 *708:52 *708:61 4.32351 
10 *708:61 *1110:CLK 23.9731 
11 *708:61 *708:82 13.9809 
12 *708:82 *1122:CLK 25.3723 
13 *708:82 *1116:CLK 9.24915 
14 *708:22 *1487:A 9.24915 
15 *708:12 *1139:CLK 9.24915 
*END

*D_NET *709 0.0118354
*CONN
*I *1123:CLK I *D sky130_fd_sc_hd__dfrtp_1
*I *1126:CLK I *D sky130_fd_sc_hd__dfrtp_1
*I *1128:CLK I *D sky130_fd_sc_hd__dfrtp_1
*I *1127:CLK I *D sky130_fd_sc_hd__dfrtp_1
*I *1120:CLK I *D sky130_fd_sc_hd__dfrtp_1
*I *1125:CLK I *D sky130_fd_sc_hd__dfrtp_1
*I *1119:CLK I *D sky130_fd_sc_hd__dfrtp_1
*I *1124:CLK I *D sky130_fd_sc_hd__dfrtp_1
*I *1097:CLK I *D sky130_fd_sc_hd__dfrtp_1
*I *1111:CLK I *D sky130_fd_sc_hd__dfrtp_1
*I *1473:X O *D sky130_fd_sc_hd__clkbuf_16
*CAP
1 *1123:CLK 9.56509e-05
2 *1126:CLK 0.000389103
3 *1128:CLK 0
4 *1127:CLK 0.000188083
5 *1120:CLK 0.00047069
6 *1125:CLK 0.000191673
7 *1119:CLK 0.000109841
8 *1124:CLK 0.000334883
9 *1097:CLK 0
10 *1111:CLK 0.000597189
11 *1473:X 5.26541e-05
12 *709:113 0.000464344
13 *709:107 0.000376888
14 *709:79 0.000818249
15 *709:77 0.000648633
16 *709:44 0.00048692
17 *709:22 0.0013804
18 *709:14 0.000968108
19 *709:10 0.000445264
20 *709:8 0.00044671
21 *1120:CLK *716:14 1.84293e-05
22 *1120:CLK *724:22 2.16355e-05
23 *1124:CLK *716:14 0
24 *709:14 *716:14 0
25 *709:79 *716:14 1.00846e-05
26 *709:113 *1299:A 0
27 tl_o[40] *1127:CLK 0.000160927
28 tl_o[52] *1120:CLK 0.000118485
29 tl_o[57] *709:107 5.56461e-05
30 tl_o[57] *709:113 3.58321e-05
31 *760:B1 *1111:CLK 0.000215682
32 *808:A *1111:CLK 1.07248e-05
33 *831:A *1126:CLK 2.16488e-05
34 *832:B *1127:CLK 0
35 *842:B *1120:CLK 2.23259e-05
36 *875:A *1111:CLK 0.000174175
37 *894:B *1124:CLK 8.02784e-05
38 *906:B *1124:CLK 0.000371507
39 *1062:B *1126:CLK 0.000192182
40 *1063:A *1126:CLK 0.000148136
41 *1120:D *1120:CLK 6.11884e-05
42 *1120:RESET_B *1120:CLK 4.06297e-05
43 *1126:D *1126:CLK 5.43124e-05
44 *1127:D *1127:CLK 2.8753e-05
45 *1127:RESET_B *1127:CLK 0
46 *1128:D *1126:CLK 0
47 *1128:RESET_B *1126:CLK 7.72722e-05
48 *1450:A *1123:CLK 4.88955e-05
49 *1450:A *709:107 0.000426709
50 *1450:A *709:113 0.000175689
51 *1493:A *709:77 0
52 *106:146 *1111:CLK 6.08467e-05
53 *106:146 *709:22 0.000130641
54 *106:212 *1120:CLK 3.61138e-05
55 *136:14 *709:8 3.17192e-06
56 *136:14 *709:77 1.63652e-05
57 *136:263 *1127:CLK 4.58259e-05
58 *136:263 *709:77 8.78688e-05
59 *161:71 *1111:CLK 0
60 *179:32 *1111:CLK 0
61 *371:14 *1111:CLK 6.5742e-05
62 *493:16 *1111:CLK 0
63 *493:16 *1120:CLK 7.2401e-05
64 *519:10 *1119:CLK 0.00015909
65 *519:10 *709:22 7.34948e-06
66 *519:10 *709:44 4.21651e-05
67 *546:10 *1120:CLK 7.13972e-05
*RES
1 *1473:X *709:8 14.4725 
2 *709:8 *709:10 2.6625 
3 *709:10 *709:14 7.993 
4 *709:14 *709:22 12.8523 
5 *709:22 *1111:CLK 33.1606 
6 *709:22 *1097:CLK 9.24915 
7 *709:14 *709:44 1.278 
8 *709:44 *1124:CLK 27.5963 
9 *709:44 *1119:CLK 13.3002 
10 *709:10 *1125:CLK 17.8002 
11 *709:8 *709:77 12.5608 
12 *709:77 *709:79 3.49641 
13 *709:79 *1120:CLK 31.0927 
14 *709:79 *1127:CLK 24.6489 
15 *709:77 *709:107 6.82404 
16 *709:107 *709:113 12.0778 
17 *709:113 *1128:CLK 9.24915 
18 *709:113 *1126:CLK 30.019 
19 *709:107 *1123:CLK 11.6364 
*END

*D_NET *695 0.00578021
*CONN
*I *1137:CLK I *D sky130_fd_sc_hd__dfrtp_1
*I *1158:CLK I *D sky130_fd_sc_hd__dfrtp_1
*I *1149:CLK I *D sky130_fd_sc_hd__dfrtp_2
*I *1099:CLK I *D sky130_fd_sc_hd__dfrtp_1
*I *1475:A I *D sky130_fd_sc_hd__bufinv_16
*I *1156:CLK I *D sky130_fd_sc_hd__dfrtp_1
*I *1141:CLK I *D sky130_fd_sc_hd__dfrtp_1
*I *1459:X O *D sky130_fd_sc_hd__clkbuf_16
*CAP
1 *1137:CLK 1.80575e-05
2 *1158:CLK 0
3 *1149:CLK 0.000568842
4 *1099:CLK 9.27971e-05
5 *1475:A 0.000118132
6 *1156:CLK 0
7 *1141:CLK 0
8 *1459:X 0.000520456
9 *695:56 0.000844531
10 *695:27 0.000427605
11 *695:21 0.000516302
12 *695:10 0.000188702
13 *695:8 0.000852758
14 *806:B1 *1149:CLK 0
15 *1035:A1 *695:27 4.90694e-05
16 *1036:B *1475:A 2.8098e-05
17 *1037:A1 *1475:A 0
18 *1037:A2 *695:27 5.68225e-06
19 *1037:B1 *695:27 0.000122842
20 *1073:D *1475:A 0.000116652
21 *1137:RESET_B *1137:CLK 6.64392e-05
22 *1141:D *1149:CLK 5.88662e-05
23 *1141:D *695:10 2.31359e-05
24 *1141:D *695:56 0.00020631
25 *1149:D *1149:CLK 8.8608e-05
26 *1149:RESET_B *1149:CLK 4.70567e-05
27 *1150:RESET_B *1149:CLK 3.80872e-05
28 *1192:RESET_B *1149:CLK 0
29 *1503:A *1149:CLK 0
30 *1503:A *695:10 0
31 *1503:A *695:21 0
32 *1515:A *1149:CLK 0
33 *175:26 *1475:A 6.27782e-05
34 *247:18 *695:27 0
35 *345:20 *1475:A 3.12828e-05
36 *345:20 *695:21 0
37 *345:20 *695:27 0.000382421
38 *345:20 *695:56 5.18865e-05
39 *391:12 *1149:CLK 0
40 *430:22 *1149:CLK 0
41 *691:69 *1099:CLK 4.0752e-05
42 *691:69 *695:10 6.88027e-05
43 *691:69 *695:21 6.28598e-05
44 *691:69 *695:27 4.58003e-05
45 *691:69 *695:56 6.15399e-06
46 *691:79 *695:56 4.75721e-06
47 *691:98 *695:21 2.36813e-05
*RES
1 *1459:X *695:8 20.5732 
2 *695:8 *695:10 2.6625 
3 *695:10 *1141:CLK 13.7491 
4 *695:10 *695:21 7.993 
5 *695:21 *695:27 14.2568 
6 *695:27 *1156:CLK 13.7491 
7 *695:27 *1475:A 17.5503 
8 *695:21 *1099:CLK 11.6364 
9 *695:8 *695:56 8.79358 
10 *695:56 *1149:CLK 29.1858 
11 *695:56 *1158:CLK 13.7491 
12 *1459:X *1137:CLK 19.2217 
*END

*D_NET *696 0.00993638
*CONN
*I *1176:CLK I *D sky130_fd_sc_hd__dfrtp_1
*I *1103:CLK I *D sky130_fd_sc_hd__dfrtp_1
*I *1174:CLK I *D sky130_fd_sc_hd__dfrtp_1
*I *1134:CLK I *D sky130_fd_sc_hd__dfrtp_1
*I *1175:CLK I *D sky130_fd_sc_hd__dfrtp_1
*I *1142:CLK I *D sky130_fd_sc_hd__dfrtp_1
*I *1183:CLK I *D sky130_fd_sc_hd__dfrtp_1
*I *1181:CLK I *D sky130_fd_sc_hd__dfrtp_1
*I *1182:CLK I *D sky130_fd_sc_hd__dfrtp_1
*I *1133:CLK I *D sky130_fd_sc_hd__dfrtp_1
*I *1460:X O *D sky130_fd_sc_hd__clkbuf_16
*CAP
1 *1176:CLK 0
2 *1103:CLK 0
3 *1174:CLK 0.000176927
4 *1134:CLK 0.000218522
5 *1175:CLK 0.00012552
6 *1142:CLK 0
7 *1183:CLK 7.24654e-05
8 *1181:CLK 0.000617554
9 *1182:CLK 0.000392682
10 *1133:CLK 0.000165057
11 *1460:X 0.000234215
12 *696:89 0.00078744
13 *696:85 0.00101147
14 *696:72 0.000560126
15 *696:44 0.000765917
16 *696:35 0.000571324
17 *696:20 0.000550522
18 *696:12 0.000754652
19 *696:10 0.000537164
20 *1134:CLK *1305:A 0
21 *764:A *696:10 0
22 *823:A *696:72 0
23 *824:A1 *1181:CLK 5.40632e-05
24 *824:A1 *696:20 0.000199426
25 *1103:D *696:12 0.00010884
26 *1133:D *1133:CLK 5.04829e-06
27 *1133:D *696:20 0.000296079
28 *1133:D *696:72 8.83916e-05
29 *1134:D *1134:CLK 0
30 *1142:D *696:85 0.000154141
31 *1174:D *1174:CLK 0.000159016
32 *1175:D *1175:CLK 2.47163e-05
33 *1175:D *696:89 6.77815e-05
34 *1176:D *696:10 0
35 *1181:D *1182:CLK 2.63427e-05
36 *1182:D *1182:CLK 7.14469e-05
37 *1182:RESET_B *1182:CLK 7.25074e-05
38 *1182:RESET_B *1183:CLK 5.62568e-05
39 *1182:RESET_B *696:44 8.76374e-05
40 *1183:RESET_B *1183:CLK 5.04829e-06
41 *1221:A *696:12 0.000305385
42 *1221:A *696:72 1.65872e-05
43 *1244:A *1134:CLK 0.000224395
44 *106:537 *696:10 0
45 *526:6 *696:12 0.000110567
46 *690:245 *696:12 4.0752e-05
47 *690:245 *696:20 2.36813e-05
48 *690:245 *696:72 4.2372e-05
49 *690:245 *696:85 1.59525e-05
50 *692:241 *696:85 0.000138395
*RES
1 *1460:X *696:10 23.8184 
2 *696:10 *696:12 11.2609 
3 *696:12 *696:20 16.6806 
4 *696:20 *1133:CLK 12.0704 
5 *696:20 *696:35 11.2472 
6 *696:35 *1182:CLK 19.9554 
7 *696:35 *696:44 2.38721 
8 *696:44 *1181:CLK 28.7243 
9 *696:44 *1183:CLK 11.0817 
10 *696:12 *696:72 8.85575 
11 *696:72 *1142:CLK 13.7491 
12 *696:72 *696:85 15.3698 
13 *696:85 *696:89 14.6517 
14 *696:89 *1175:CLK 16.8269 
15 *696:89 *1134:CLK 19.6294 
16 *696:85 *1174:CLK 13.3002 
17 *696:12 *1103:CLK 9.24915 
18 *696:10 *1176:CLK 9.24915 
*END

*D_NET *697 0.0105062
*CONN
*I *1179:CLK I *D sky130_fd_sc_hd__dfrtp_1
*I *1189:CLK I *D sky130_fd_sc_hd__dfrtp_1
*I *1074:CLK I *D sky130_fd_sc_hd__dfrtp_1
*I *1104:CLK I *D sky130_fd_sc_hd__dfrtp_1
*I *1180:CLK I *D sky130_fd_sc_hd__dfrtp_1
*I *1178:CLK I *D sky130_fd_sc_hd__dfrtp_1
*I *1177:CLK I *D sky130_fd_sc_hd__dfrtp_1
*I *1095:CLK I *D sky130_fd_sc_hd__dfrtp_1
*I *1073:CLK I *D sky130_fd_sc_hd__dfrtp_1
*I *1476:A I *D sky130_fd_sc_hd__clkbuf_1
*I *1461:X O *D sky130_fd_sc_hd__clkbuf_16
*CAP
1 *1179:CLK 9.43712e-05
2 *1189:CLK 9.56639e-05
3 *1074:CLK 3.72627e-05
4 *1104:CLK 0.00083375
5 *1180:CLK 0.000140824
6 *1178:CLK 4.75794e-05
7 *1177:CLK 0
8 *1095:CLK 0.000182408
9 *1073:CLK 0.000451212
10 *1476:A 0
11 *1461:X 0.000456836
12 *697:99 0.00207662
13 *697:97 0.00137357
14 *697:93 0.00027758
15 *697:78 0.000474268
16 *697:47 0.000318157
17 *697:45 0.000412908
18 *697:43 0.000452113
19 *697:16 0.000908048
20 *753:A *1073:CLK 0.000205317
21 *771:B *1073:CLK 7.48797e-05
22 *771:B *697:16 1.41291e-05
23 *1038:A *697:45 5.68225e-06
24 *1038:B *697:45 0.000156823
25 *1073:RESET_B *1178:CLK 0.000165521
26 *1074:RESET_B *697:99 3.30132e-05
27 *1095:RESET_B *1095:CLK 3.55179e-05
28 *1174:D *1104:CLK 1.34231e-05
29 *1174:RESET_B *1104:CLK 1.83116e-05
30 *1176:D *1073:CLK 8.03393e-06
31 *1176:RESET_B *1073:CLK 2.28919e-05
32 *1177:D *697:45 9.60366e-05
33 *1177:D *697:47 0.00016967
34 *1178:D *1178:CLK 7.16754e-05
35 *1178:D *697:16 2.54188e-05
36 *1180:D *697:78 0.000180676
37 *1180:RESET_B *697:45 0
38 *106:528 *1095:CLK 7.86825e-06
39 *175:26 *1095:CLK 0
40 *317:12 *1189:CLK 0
41 *378:8 *1104:CLK 2.12377e-05
42 *381:50 *1179:CLK 9.63981e-05
43 *381:50 *1189:CLK 4.57966e-05
44 *588:18 *697:45 1.2693e-05
45 *588:18 *697:78 0.000136885
46 *594:10 *1104:CLK 4.49625e-06
47 *594:10 *697:99 8.38368e-06
48 *596:12 *697:99 4.30705e-05
49 *690:237 *1104:CLK 0
50 *692:135 *697:78 3.00174e-06
51 *692:135 *697:93 7.40509e-05
52 *693:253 *1104:CLK 0.000122083
*RES
1 *1461:X *697:16 28.6373 
2 *697:16 *1476:A 9.24915 
3 *697:16 *1073:CLK 30.2541 
4 *1461:X *697:43 13.7491 
5 *697:43 *697:45 6.81502 
6 *697:45 *697:47 3.90826 
7 *697:47 *1095:CLK 17.9749 
8 *697:47 *1177:CLK 13.7491 
9 *697:45 *1178:CLK 16.1605 
10 *697:43 *697:78 6.81502 
11 *697:78 *1180:CLK 16.7151 
12 *697:78 *697:93 7.57775 
13 *697:93 *697:97 1.71204 
14 *697:97 *697:99 17.3615 
15 *697:99 *1104:CLK 31.2027 
16 *697:99 *1074:CLK 10.2378 
17 *697:97 *1189:CLK 20.4964 
18 *697:93 *1179:CLK 12.191 
*END

*D_NET *698 0.00830772
*CONN
*I *1077:CLK I *D sky130_fd_sc_hd__dfrtp_1
*I *1081:CLK I *D sky130_fd_sc_hd__dfrtp_1
*I *1082:CLK I *D sky130_fd_sc_hd__dfrtp_1
*I *1129:CLK I *D sky130_fd_sc_hd__dfrtp_1
*I *1188:CLK I *D sky130_fd_sc_hd__dfrtp_1
*I *1477:A I *D sky130_fd_sc_hd__clkinvlp_4
*I *1462:X O *D sky130_fd_sc_hd__clkbuf_16
*CAP
1 *1077:CLK 0
2 *1081:CLK 0.000105989
3 *1082:CLK 0.00049633
4 *1129:CLK 3.35526e-05
5 *1188:CLK 0.000423704
6 *1477:A 0
7 *1462:X 0.000403532
8 *698:68 0.000271301
9 *698:51 0.00113792
10 *698:34 0.000906388
11 *698:21 0.0014414
12 *698:12 0.00102467
13 *767:A1 *698:34 1.95129e-05
14 *770:A2 *698:34 0.000215159
15 *813:A *1129:CLK 1.6989e-05
16 *813:A *698:34 1.29078e-05
17 *925:A *698:68 3.19445e-05
18 *932:A2 *698:12 9.60366e-05
19 *962:A *698:68 6.50586e-05
20 *962:B *698:68 6.25842e-05
21 *1077:RESET_B *698:68 0.000608388
22 *1081:RESET_B *1081:CLK 3.14978e-05
23 *1082:D *1082:CLK 0.000168058
24 *1082:RESET_B *1082:CLK 0
25 *1129:D *698:51 0.000142302
26 *1129:RESET_B *698:51 3.70569e-05
27 *1145:RESET_B *698:12 0.000200794
28 *1188:RESET_B *698:34 3.04407e-05
29 *1231:A *698:34 0
30 *1522:A *1081:CLK 7.2401e-05
31 *327:14 *1188:CLK 4.66876e-05
32 *327:29 *1188:CLK 1.84293e-05
33 *422:10 *1081:CLK 7.58595e-05
34 *568:12 *698:21 9.7746e-06
35 *625:89 *1082:CLK 0
36 *625:89 *698:34 0
37 *625:89 *698:51 0
38 *690:14 *698:12 8.62625e-06
39 *690:16 *698:12 9.24241e-05
*RES
1 *1462:X *698:12 28.0144 
2 *698:12 *1477:A 9.24915 
3 *698:12 *698:21 9.06656 
4 *698:21 *1188:CLK 15.9526 
5 *698:21 *698:34 14.637 
6 *698:34 *1129:CLK 14.7506 
7 *698:34 *698:51 18.3444 
8 *698:51 *1082:CLK 22.6999 
9 *698:51 *698:68 11.324 
10 *698:68 *1081:CLK 22.0503 
11 *698:68 *1077:CLK 9.24915 
*END

*D_NET *699 0.00815135
*CONN
*I *1131:CLK I *D sky130_fd_sc_hd__dfrtp_1
*I *1478:A I *D sky130_fd_sc_hd__clkinv_2
*I *1094:CLK I *D sky130_fd_sc_hd__dfrtp_1
*I *1091:CLK I *D sky130_fd_sc_hd__dfrtp_1
*I *1093:CLK I *D sky130_fd_sc_hd__dfrtp_1
*I *1084:CLK I *D sky130_fd_sc_hd__dfrtp_1
*I *1083:CLK I *D sky130_fd_sc_hd__dfrtp_1
*I *1132:CLK I *D sky130_fd_sc_hd__dfrtp_1
*I *1463:X O *D sky130_fd_sc_hd__clkbuf_16
*CAP
1 *1131:CLK 0
2 *1478:A 2.43095e-05
3 *1094:CLK 0
4 *1091:CLK 0.000189384
5 *1093:CLK 0.000126883
6 *1084:CLK 0
7 *1083:CLK 0.000524251
8 *1132:CLK 0
9 *1463:X 0.00076254
10 *699:80 0.000361255
11 *699:67 0.000813455
12 *699:39 0.000760103
13 *699:37 0.00105658
14 *699:26 0.000438137
15 *699:22 0.000348539
16 *699:16 0.000954658
17 *800:A1 *699:22 0
18 *825:A0 *699:39 4.98283e-05
19 *825:A0 *699:67 0.000112361
20 *825:A1 *699:67 8.2176e-05
21 *825:S *699:37 4.97731e-05
22 *914:A *699:67 7.62471e-05
23 *916:A1 *699:16 0.000109033
24 *920:A *699:67 2.6874e-05
25 *931:A1 *699:22 0
26 *931:B1 *1478:A 6.27782e-05
27 *958:A2 *699:16 0.000161956
28 *1052:B1 *699:39 7.65861e-05
29 *1064:A0 *699:26 7.22559e-05
30 *1083:D *1083:CLK 9.70161e-05
31 *1083:RESET_B *1083:CLK 3.42931e-05
32 *1084:D *1083:CLK 3.67528e-06
33 *1084:D *699:39 3.58185e-05
34 *1088:RESET_B *699:16 0.000117395
35 *1091:D *1091:CLK 7.621e-05
36 *1093:D *1093:CLK 4.79669e-05
37 *1094:D *1091:CLK 4.65895e-05
38 *1131:D *699:22 0
39 *1131:RESET_B *699:16 7.31241e-05
40 *1131:RESET_B *699:22 2.65831e-05
41 *1132:RESET_B *699:16 5.25402e-05
42 *111:116 *699:16 0
43 *111:120 *699:16 0
44 *191:8 *699:67 6.91907e-05
45 *196:8 *699:67 0.000134222
46 *206:14 *699:37 9.67661e-05
47 *228:92 *699:39 0
48 *425:10 *1083:CLK 0
49 *425:10 *699:39 0
*RES
1 *1463:X *699:16 34.1548 
2 *699:16 *699:22 8.7164 
3 *699:22 *699:26 7.993 
4 *699:26 *1132:CLK 9.24915 
5 *699:26 *699:37 12.5986 
6 *699:37 *699:39 6.39977 
7 *699:39 *1083:CLK 23.1151 
8 *699:39 *1084:CLK 13.7491 
9 *699:37 *699:67 18.7268 
10 *699:67 *1093:CLK 21.7421 
11 *699:67 *699:80 4.05102 
12 *699:80 *1091:CLK 23.7141 
13 *699:80 *1094:CLK 9.24915 
14 *699:22 *1478:A 14.4725 
15 *699:16 *1131:CLK 9.24915 
*END

*D_NET *700 0.00622391
*CONN
*I *1078:CLK I *D sky130_fd_sc_hd__dfrtp_1
*I *1479:A I *D sky130_fd_sc_hd__clkinv_2
*I *1155:CLK I *D sky130_fd_sc_hd__dfrtp_1
*I *1153:CLK I *D sky130_fd_sc_hd__dfrtp_1
*I *1146:CLK I *D sky130_fd_sc_hd__dfrtp_1
*I *1130:CLK I *D sky130_fd_sc_hd__dfrtp_1
*I *1152:CLK I *D sky130_fd_sc_hd__dfrtp_1
*I *1145:CLK I *D sky130_fd_sc_hd__dfrtp_1
*I *1464:X O *D sky130_fd_sc_hd__clkbuf_16
*CAP
1 *1078:CLK 0
2 *1479:A 0
3 *1155:CLK 0.000467996
4 *1153:CLK 7.89545e-05
5 *1146:CLK 0
6 *1130:CLK 0.000179153
7 *1152:CLK 0.000237995
8 *1145:CLK 0.000192381
9 *1464:X 0.000230283
10 *700:68 0.000715091
11 *700:59 0.000396767
12 *700:46 0.000709698
13 *700:38 0.000425977
14 *700:34 0.000228008
15 *700:19 0.000482673
16 *700:8 0.000563392
17 *799:A0 *1145:CLK 6.06269e-06
18 *799:A0 *700:19 1.67286e-05
19 *799:A0 *700:34 1.21985e-05
20 *826:A1 *1152:CLK 0.000196676
21 *926:A1 *1145:CLK 0
22 *926:A1 *1152:CLK 5.05364e-05
23 *927:A1 *1152:CLK 1.50924e-05
24 *1078:RESET_B *700:34 8.70597e-05
25 *1078:RESET_B *700:38 0.000105182
26 *1078:RESET_B *700:46 0.000107081
27 *1130:D *700:46 0
28 *1145:RESET_B *1145:CLK 0.000106142
29 *1145:RESET_B *700:19 9.67138e-05
30 *1152:D *1152:CLK 7.58194e-05
31 *1152:RESET_B *1152:CLK 8.50236e-05
32 *1153:D *1153:CLK 7.10807e-05
33 *1155:D *1155:CLK 1.78942e-05
34 *381:50 *1155:CLK 1.24597e-05
35 *385:10 *700:34 0.000109569
36 *418:16 *1145:CLK 1.05601e-05
37 *590:19 *700:46 0
38 *691:29 *700:19 3.08327e-05
39 *691:35 *1145:CLK 5.74288e-05
40 *691:35 *700:19 4.53935e-05
41 *693:102 *700:59 0
42 *693:102 *700:68 0
43 *693:112 *700:68 0
*RES
1 *1464:X *700:8 16.691 
2 *700:8 *1145:CLK 19.3184 
3 *700:8 *700:19 4.73876 
4 *700:19 *1152:CLK 22.4152 
5 *700:19 *700:34 7.57775 
6 *700:34 *700:38 3.52053 
7 *700:38 *700:46 17.0986 
8 *700:46 *1130:CLK 13.3002 
9 *700:46 *700:59 9.96496 
10 *700:59 *1146:CLK 13.7491 
11 *700:59 *700:68 3.90826 
12 *700:68 *1153:CLK 16.1364 
13 *700:68 *1155:CLK 23.2489 
14 *700:38 *1479:A 9.24915 
15 *700:34 *1078:CLK 9.24915 
*END

*D_NET *701 0.00724715
*CONN
*I *1072:CLK I *D sky130_fd_sc_hd__dfrtp_1
*I *1092:CLK I *D sky130_fd_sc_hd__dfrtp_1
*I *1079:CLK I *D sky130_fd_sc_hd__dfrtp_1
*I *1089:CLK I *D sky130_fd_sc_hd__dfrtp_1
*I *1480:A I *D sky130_fd_sc_hd__clkinv_2
*I *1088:CLK I *D sky130_fd_sc_hd__dfrtp_1
*I *1090:CLK I *D sky130_fd_sc_hd__dfrtp_1
*I *1087:CLK I *D sky130_fd_sc_hd__dfrtp_1
*I *1465:X O *D sky130_fd_sc_hd__clkbuf_16
*CAP
1 *1072:CLK 3.11091e-05
2 *1092:CLK 0.000246249
3 *1079:CLK 0.000237446
4 *1089:CLK 4.61815e-05
5 *1480:A 9.36721e-06
6 *1088:CLK 0.000352817
7 *1090:CLK 0
8 *1087:CLK 0.000144602
9 *1465:X 0.000329434
10 *701:91 0.000606792
11 *701:64 0.000452831
12 *701:40 0.000489915
13 *701:34 0.000783907
14 *701:23 0.000544037
15 *701:6 0.000201667
16 *789:A *1480:A 6.50586e-05
17 *941:A *1089:CLK 0.000109427
18 *944:A3 *1079:CLK 2.41274e-06
19 *952:A2 *701:34 0.000243374
20 *953:A *1088:CLK 0
21 *957:A *1092:CLK 0.000118002
22 *1079:D *1079:CLK 6.96757e-05
23 *1087:RESET_B *1087:CLK 2.84758e-05
24 *1088:D *1088:CLK 5.04829e-06
25 *1088:D *701:34 0.000224395
26 *1239:A *1087:CLK 6.27718e-05
27 *1239:A *1092:CLK 0
28 *111:99 *1088:CLK 2.26941e-05
29 *112:8 *1480:A 6.50586e-05
30 *112:45 *701:40 9.19273e-06
31 *112:45 *701:64 3.07997e-05
32 *136:119 *1087:CLK 0.00010291
33 *136:119 *701:23 6.66393e-05
34 *192:72 *1079:CLK 8.52374e-05
35 *202:12 *1088:CLK 0.000160942
36 *211:18 *1079:CLK 0.000236674
37 *311:39 *1088:CLK 4.70005e-05
38 *311:39 *701:34 2.8182e-06
39 *311:39 *701:40 3.20069e-06
40 *386:36 *1087:CLK 0.000229373
41 *386:36 *701:23 0.000141001
42 *459:14 *1092:CLK 4.17467e-05
43 *460:38 *1079:CLK 0.000180318
44 *460:38 *701:64 0.000198747
45 *460:72 *1088:CLK 0
46 *460:72 *701:40 0
47 *460:72 *701:64 0
48 *625:132 *1079:CLK 7.29643e-05
49 *625:132 *701:64 4.51717e-05
50 *691:155 *1088:CLK 9.82996e-05
51 *691:169 *1088:CLK 1.36305e-06
*RES
1 *1465:X *701:6 13.7491 
2 *701:6 *1087:CLK 19.924 
3 *701:6 *701:23 7.1625 
4 *701:23 *1090:CLK 9.24915 
5 *701:23 *701:34 12.8673 
6 *701:34 *701:40 2.88234 
7 *701:40 *1088:CLK 23.3907 
8 *701:40 *1480:A 14.4725 
9 *701:34 *701:64 5.56926 
10 *701:64 *1089:CLK 15.0271 
11 *701:64 *1079:CLK 23.5116 
12 *1465:X *701:91 16.0732 
13 *701:91 *1092:CLK 25.0642 
14 *701:91 *1072:CLK 9.97254 
*END

*D_NET *702 0.0120624
*CONN
*I *1169:CLK I *D sky130_fd_sc_hd__dfrtp_1
*I *1170:CLK I *D sky130_fd_sc_hd__dfrtp_1
*I *1173:CLK I *D sky130_fd_sc_hd__dfrtp_1
*I *1171:CLK I *D sky130_fd_sc_hd__dfrtp_1
*I *1100:CLK I *D sky130_fd_sc_hd__dfrtp_1
*I *1136:CLK I *D sky130_fd_sc_hd__dfrtp_1
*I *1161:CLK I *D sky130_fd_sc_hd__dfrtp_1
*I *1167:CLK I *D sky130_fd_sc_hd__dfrtp_1
*I *1481:A I *D sky130_fd_sc_hd__clkbuf_1
*I *1172:CLK I *D sky130_fd_sc_hd__dfrtp_1
*I *1466:X O *D sky130_fd_sc_hd__clkbuf_16
*CAP
1 *1169:CLK 0.000570194
2 *1170:CLK 0
3 *1173:CLK 5.91394e-05
4 *1171:CLK 7.5002e-05
5 *1100:CLK 7.66689e-05
6 *1136:CLK 0
7 *1161:CLK 0.000317319
8 *1167:CLK 0.000457133
9 *1481:A 0
10 *1172:CLK 0.000317666
11 *1466:X 0.000593318
12 *702:87 0.000361926
13 *702:81 0.000419986
14 *702:57 0.000838116
15 *702:55 0.000782517
16 *702:51 0.000368
17 *702:45 0.000827066
18 *702:34 0.0011557
19 *702:25 0.000698563
20 *702:10 0.000910984
21 *1161:CLK *1271:A 2.85274e-05
22 *1161:CLK *1285:A 5.7995e-05
23 *746:A *702:34 0.000157072
24 *811:A *1100:CLK 0.000193478
25 *811:A *1173:CLK 1.2954e-05
26 *818:A2 *1169:CLK 0.000168253
27 *1018:B *1172:CLK 2.46935e-05
28 *1019:A2 *1172:CLK 0.00015607
29 *1065:A1 *1173:CLK 0.000110297
30 *1065:A1 *702:81 6.27614e-05
31 *1161:RESET_B *702:87 2.58616e-05
32 *1167:D *1169:CLK 0
33 *1169:D *702:34 4.25952e-05
34 *1171:D *1172:CLK 5.04829e-06
35 *1173:RESET_B *702:81 8.62625e-06
36 *1173:RESET_B *702:87 0.000211728
37 *1521:A *1161:CLK 0.000180059
38 *175:71 *1100:CLK 8.44703e-05
39 *380:12 *702:55 7.13655e-06
40 *437:14 *1167:CLK 3.99835e-05
41 *437:14 *702:34 6.68457e-06
42 *606:25 *702:34 4.15447e-05
43 *619:14 *1171:CLK 8.86088e-05
44 *619:14 *702:87 0.000147083
45 *690:192 *702:87 0.000159894
46 *690:209 *1169:CLK 0.00029304
47 *690:209 *702:51 0.000419247
48 *690:209 *702:55 0.000174221
49 *690:209 *702:81 0.00014847
50 *690:209 *702:87 5.46907e-05
51 *691:332 *1172:CLK 7.71803e-05
52 *691:332 *702:10 4.47962e-05
*RES
1 *1466:X *702:10 22.8204 
2 *702:10 *1172:CLK 21.4566 
3 *702:10 *702:25 4.5 
4 *702:25 *1481:A 9.24915 
5 *702:25 *702:34 11.1403 
6 *702:34 *1167:CLK 16.5072 
7 *702:34 *702:45 4.5 
8 *702:45 *702:51 8.54931 
9 *702:51 *702:55 7.993 
10 *702:55 *702:57 11.8155 
11 *702:57 *1161:CLK 28.006 
12 *702:57 *1136:CLK 9.24915 
13 *702:55 *702:81 8.85575 
14 *702:81 *702:87 12.4593 
15 *702:87 *1100:CLK 21.7421 
16 *702:87 *1171:CLK 11.6364 
17 *702:81 *1173:CLK 15.6059 
18 *702:51 *1170:CLK 13.7491 
19 *702:45 *1169:CLK 29.2845 
*END

*D_NET *703 0.0126126
*CONN
*I *1163:CLK I *D sky130_fd_sc_hd__dfrtp_1
*I *1164:CLK I *D sky130_fd_sc_hd__dfrtp_1
*I *1482:A I *D sky130_fd_sc_hd__clkbuf_1
*I *1166:CLK I *D sky130_fd_sc_hd__dfrtp_1
*I *1165:CLK I *D sky130_fd_sc_hd__dfrtp_1
*I *1162:CLK I *D sky130_fd_sc_hd__dfrtp_1
*I *1138:CLK I *D sky130_fd_sc_hd__dfrtp_1
*I *1160:CLK I *D sky130_fd_sc_hd__dfrtp_1
*I *1076:CLK I *D sky130_fd_sc_hd__dfrtp_1
*I *1191:CLK I *D sky130_fd_sc_hd__dfrtp_1
*I *1467:X O *D sky130_fd_sc_hd__clkbuf_16
*CAP
1 *1163:CLK 0.000262039
2 *1164:CLK 0.000321477
3 *1482:A 5.14248e-05
4 *1166:CLK 0.000158541
5 *1165:CLK 1.93962e-05
6 *1162:CLK 0.000273094
7 *1138:CLK 9.88897e-05
8 *1160:CLK 0.000193117
9 *1076:CLK 0.000429219
10 *1191:CLK 0.000453595
11 *1467:X 0.000111515
12 *703:126 0.000628262
13 *703:73 0.000528229
14 *703:58 0.00048338
15 *703:52 0.000556508
16 *703:46 0.000912426
17 *703:42 0.00115126
18 *703:38 0.000948941
19 *703:10 0.00115683
20 *703:8 0.000540687
21 *810:A *1162:CLK 0.000121689
22 *812:A1 *1162:CLK 0.000134222
23 *909:A1 *1162:CLK 7.43837e-05
24 *909:A1 *703:52 0
25 *909:A1 *703:73 0
26 *974:B *703:38 8.13812e-06
27 *982:A1 *703:38 0.000139667
28 *982:A1 *703:42 3.31745e-05
29 *982:B1 *703:8 1.43848e-05
30 *984:A2 *703:42 7.5301e-06
31 *984:B1 *703:42 3.99086e-06
32 *1005:B *1163:CLK 1.38695e-05
33 *1009:A *1165:CLK 3.01683e-06
34 *1009:B *703:52 0
35 *1026:B1 *703:42 0.000585543
36 *1046:B *703:8 3.14978e-05
37 *1046:C *703:8 6.08467e-05
38 *1047:A *1191:CLK 1.41489e-05
39 *1048:B1 *1191:CLK 5.01846e-05
40 *1075:RESET_B *1166:CLK 0.0001195
41 *1075:RESET_B *703:52 8.02374e-05
42 *1076:D *1076:CLK 0.000105182
43 *1076:D *1191:CLK 2.012e-05
44 *1076:D *703:10 1.94615e-05
45 *1076:RESET_B *1076:CLK 1.02497e-05
46 *1160:RESET_B *703:58 0
47 *1160:RESET_B *703:73 0
48 *1162:D *1162:CLK 3.13805e-06
49 *1163:D *1163:CLK 0.000205176
50 *1163:D *703:38 0.000214274
51 *1163:D *703:126 6.09513e-05
52 *1164:D *1163:CLK 2.24632e-05
53 *1164:D *1164:CLK 7.13972e-05
54 *1164:D *703:38 1.94615e-05
55 *1164:D *703:126 2.48716e-05
56 *1164:RESET_B *1164:CLK 1.84673e-05
57 *1166:D *703:42 0.000156955
58 *1172:RESET_B *703:46 5.77377e-05
59 *1191:RESET_B *1191:CLK 7.97944e-05
60 *237:8 *703:8 0.000413252
61 *244:10 *1163:CLK 1.82679e-05
62 *287:10 *703:52 0
63 *290:8 *703:10 8.93772e-05
64 *314:26 *1191:CLK 0
65 *380:33 *1191:CLK 0
66 *380:33 *703:10 0
67 *602:8 *703:52 0
68 *602:8 *703:58 0
69 *602:8 *703:73 0
70 *603:14 *703:52 3.03825e-05
71 *609:8 *703:10 2.22198e-05
72 *609:8 *703:38 2.31052e-05
73 *619:14 *1160:CLK 6.79671e-05
74 *690:166 *1162:CLK 8.34801e-05
75 *691:310 *1191:CLK 0
76 *692:135 *1191:CLK 0
*RES
1 *1467:X *703:8 18.3548 
2 *703:8 *703:10 7.64553 
3 *703:10 *1191:CLK 24.473 
4 *703:10 *1076:CLK 20.4526 
5 *703:8 *703:38 5.64254 
6 *703:38 *703:42 16.3155 
7 *703:42 *703:46 9.66022 
8 *703:46 *703:52 14.254 
9 *703:52 *703:58 7.47064 
10 *703:58 *1160:CLK 18.5571 
11 *703:58 *703:73 3.70063 
12 *703:73 *1138:CLK 16.3994 
13 *703:73 *1162:CLK 21.8569 
14 *703:52 *1165:CLK 9.82786 
15 *703:46 *1166:CLK 17.829 
16 *703:42 *1482:A 10.6477 
17 *703:38 *703:126 1.41674 
18 *703:126 *1164:CLK 18.7888 
19 *703:126 *1163:CLK 20.8751 
*END

*D_NET *315 0.00194846
*CONN
*I *1503:A I *D sky130_fd_sc_hd__dlygate4sd3_1
*I *1192:Q O *D sky130_fd_sc_hd__dfrtp_1
*CAP
1 *1503:A 0.000677915
2 *1192:Q 0.000677915
3 *1503:A *1149:CLK 0
4 *1503:A *1156:RESET_B 2.352e-05
5 *1503:A *1158:D 4.18761e-05
6 *1503:A *1158:RESET_B 0.000206804
7 *1503:A *430:22 2.44969e-05
8 *1503:A *691:98 0
9 *1503:A *695:10 0
10 *1503:A *695:21 0
11 *806:B1 *1503:A 0.00013214
12 *1141:D *1503:A 0.000163796
*RES
1 *1192:Q *1503:A 49.0187 
*END

*D_NET *317 0.00556567
*CONN
*I *763:B1 I *D sky130_fd_sc_hd__a21oi_1
*I *1153:D I *D sky130_fd_sc_hd__dfrtp_1
*I *1189:D I *D sky130_fd_sc_hd__dfrtp_1
*I *765:A1 I *D sky130_fd_sc_hd__a22oi_1
*I *751:Y O *D sky130_fd_sc_hd__o21ai_1
*CAP
1 *763:B1 0
2 *1153:D 0.000768713
3 *1189:D 0.000664702
4 *765:A1 0
5 *751:Y 0.000660739
6 *317:37 0.000946951
7 *317:12 0.0011472
8 *1153:D *1024:A2 4.29314e-06
9 *1153:D *1024:B1 4.81373e-05
10 *1153:D *1153:CLK 7.10807e-05
11 *1153:D *1155:D 0
12 *1153:D *625:45 0
13 *1189:D *762:A2 0.000144916
14 *1189:D *762:B1 6.50586e-05
15 *317:12 *761:A 0
16 *317:12 *762:B1 0
17 *317:12 *1189:CLK 0
18 *317:37 *761:A 0.000210049
19 *317:37 *763:A1 1.00846e-05
20 *751:B1 *317:12 4.29314e-06
21 *762:A1 *1189:D 0.000189512
22 *765:A2 *1189:D 3.60771e-05
23 *765:B1 *1189:D 6.4143e-06
24 *765:B1 *317:37 0.000583768
25 *765:B2 *317:12 3.67528e-06
*RES
1 *751:Y *317:12 29.8091 
2 *317:12 *765:A1 9.24915 
3 *317:12 *1189:D 17.7852 
4 *1189:D *317:37 19.4249 
5 *317:37 *1153:D 33.156 
6 *317:37 *763:B1 9.24915 
*END

*D_NET *318 0.0106456
*CONN
*I *760:A2 I *D sky130_fd_sc_hd__a22oi_1
*I *1154:D I *D sky130_fd_sc_hd__dfrtp_1
*I *758:B1 I *D sky130_fd_sc_hd__a21oi_1
*I *1190:D I *D sky130_fd_sc_hd__dfrtp_1
*I *748:Y O *D sky130_fd_sc_hd__o21ai_1
*CAP
1 *760:A2 0.000395785
2 *1154:D 0.00019746
3 *758:B1 0.000284754
4 *1190:D 8.51166e-05
5 *748:Y 0.00201708
6 *318:29 0.000716397
7 *318:20 0.00081874
8 *318:14 0.00141636
9 *318:12 0.00253821
10 *758:B1 *758:A1 0.000144857
11 *758:B1 *1190:RESET_B 0
12 *1154:D *756:A 0.000122053
13 *1154:D *1154:CLK 6.73351e-05
14 *1154:D *1190:RESET_B 7.16893e-05
15 *1190:D *1190:CLK 7.48633e-05
16 *318:12 *747:A 1.22404e-05
17 *318:12 *1032:B1 0.000111495
18 *318:12 *1140:RESET_B 4.46568e-05
19 *318:12 *1140:CLK 5.20545e-05
20 *318:12 *1484:A 0.000235847
21 *318:14 *1140:RESET_B 3.74372e-05
22 *318:20 *1243:A 2.99929e-05
23 *318:20 *706:10 9.64718e-05
24 *318:20 *706:16 5.30254e-05
25 *318:29 *1190:RESET_B 2.22931e-05
26 *748:B1 *318:12 9.63981e-05
27 *760:A1 *760:A2 8.21935e-06
28 *760:B1 *758:B1 4.30017e-06
29 *760:B1 *760:A2 1.67329e-05
30 *760:B2 *318:20 0
31 *907:A2 *760:A2 0.000466387
32 *907:A2 *318:14 0.000185297
33 *1140:D *318:12 0.000103943
34 *161:96 *760:A2 5.04551e-05
35 *161:142 *318:12 9.77611e-06
36 *166:10 *318:20 5.79203e-05
*RES
1 *748:Y *318:12 42.3566 
2 *318:12 *318:14 7.93324 
3 *318:14 *318:20 21.6286 
4 *318:20 *1190:D 11.6364 
5 *318:20 *318:29 5.71483 
6 *318:29 *758:B1 25.2386 
7 *318:29 *1154:D 15.0122 
8 *318:14 *760:A2 26.2708 
*END

*D_NET *319 0.00360891
*CONN
*I *1033:C1 I *D sky130_fd_sc_hd__a211oi_1
*I *1034:A1 I *D sky130_fd_sc_hd__a21oi_1
*I *1191:D I *D sky130_fd_sc_hd__dfrtp_1
*I *1155:D I *D sky130_fd_sc_hd__dfrtp_1
*I *1030:Y O *D sky130_fd_sc_hd__o21ai_1
*CAP
1 *1033:C1 0.000179245
2 *1034:A1 0
3 *1191:D 0.000261415
4 *1155:D 0.00033872
5 *1030:Y 0.000326349
6 *319:36 0.000218931
7 *319:10 0.000788645
8 *319:6 0.000554545
9 *1033:C1 *1033:A1 0.000154145
10 *1033:C1 *1033:B1 6.08467e-05
11 *1155:D *1155:CLK 1.78942e-05
12 *1155:D *381:50 2.57847e-05
13 *1155:D *693:126 0
14 *1191:D *1191:RESET_B 0.000124416
15 *319:6 *885:B 4.37866e-05
16 *319:6 *1047:B 6.46815e-05
17 *319:6 *380:44 1.00017e-05
18 *319:10 *571:8 6.19232e-05
19 *319:10 *693:126 0
20 *1030:B1 *319:6 1.4106e-05
21 *1034:B1 *1033:C1 7.54385e-05
22 *1034:B1 *319:6 1.03403e-05
23 *1034:B1 *319:36 1.43832e-05
24 *1148:D *1191:D 2.57847e-05
25 *1148:D *319:10 0.000237527
26 *1153:D *1155:D 0
*RES
1 *1030:Y *319:6 14.4094 
2 *319:6 *319:10 10.0693 
3 *319:10 *1155:D 22.1913 
4 *319:10 *1191:D 21.1278 
5 *319:6 *319:36 0.723396 
6 *319:36 *1034:A1 9.24915 
7 *319:36 *1033:C1 14.0718 
*END

*D_NET *327 0.00777747
*CONN
*I *1152:D I *D sky130_fd_sc_hd__dfrtp_1
*I *770:A1 I *D sky130_fd_sc_hd__a22oi_1
*I *768:B1 I *D sky130_fd_sc_hd__a21oi_1
*I *1188:D I *D sky130_fd_sc_hd__dfrtp_1
*I *754:Y O *D sky130_fd_sc_hd__o21ai_1
*CAP
1 *1152:D 0.000708412
2 *770:A1 0
3 *768:B1 0.000196936
4 *1188:D 0
5 *754:Y 0.00116191
6 *327:29 0.000362145
7 *327:14 0.000566888
8 *327:6 0.002272
9 *768:B1 *766:A 0.000175425
10 *1152:D *1152:CLK 7.58194e-05
11 *1152:D *1177:RESET_B 0.00015441
12 *1152:D *589:10 2.66602e-05
13 *327:6 *1177:D 3.25052e-05
14 *327:6 *1177:RESET_B 6.08467e-05
15 *327:14 *1188:CLK 4.66876e-05
16 *327:14 *1231:A 0
17 *327:14 *517:12 0
18 *327:14 *692:28 0.00050389
19 *327:29 *910:B 0
20 *327:29 *1188:CLK 1.84293e-05
21 *327:29 *1231:A 0.000191481
22 *327:29 *1245:A 1.22063e-05
23 *327:29 *690:93 0
24 *327:29 *692:28 0
25 *767:A1 *768:B1 8.75663e-05
26 *770:A2 *768:B1 0.000141793
27 *770:B1 *768:B1 6.16586e-05
28 *911:B1 *327:14 2.57071e-05
29 *175:26 *327:6 0.000894093
*RES
1 *754:Y *327:6 27.7199 
2 *327:6 *327:14 20.6937 
3 *327:14 *1188:D 9.24915 
4 *327:14 *327:29 13.9492 
5 *327:29 *768:B1 14.9881 
6 *327:29 *770:A1 9.24915 
7 *327:6 *1152:D 22.3667 
*END

*D_NET *648 0.00119189
*CONN
*P intr_gpio_o[0] O
*I *1245:X O *D sky130_fd_sc_hd__clkdlybuf4s50_1
*CAP
1 intr_gpio_o[0] 0.000391186
2 *1245:X 0.000391186
3 tl_o[28] intr_gpio_o[0] 0.000387196
4 *1245:A intr_gpio_o[0] 2.23259e-05
*RES
1 *1245:X intr_gpio_o[0] 23.6281 
*END

*D_NET *647 0.00151517
*CONN
*P intr_gpio_o[1] O
*I *1244:X O *D sky130_fd_sc_hd__clkdlybuf4s50_1
*CAP
1 intr_gpio_o[1] 0.000542565
2 *1244:X 0.000542565
3 tl_o[29] intr_gpio_o[1] 0
4 tl_o[33] intr_gpio_o[1] 1.24503e-05
5 *1244:A intr_gpio_o[1] 0.000377273
6 *1492:A intr_gpio_o[1] 4.03157e-05
*RES
1 *1244:X intr_gpio_o[1] 22.4521 
*END

*D_NET *646 0.00320764
*CONN
*P intr_gpio_o[2] O
*I *1243:X O *D sky130_fd_sc_hd__clkdlybuf4s50_1
*CAP
1 intr_gpio_o[2] 0.00093927
2 *1243:X 0.00093927
3 intr_gpio_o[2] *708:12 0.000521051
4 intr_gpio_o[2] *724:22 2.25812e-05
5 tl_o[42] intr_gpio_o[2] 0.000354334
6 *808:A intr_gpio_o[2] 0
7 *844:B intr_gpio_o[2] 5.297e-05
8 *897:B intr_gpio_o[2] 0
9 *1139:D intr_gpio_o[2] 5.3633e-05
10 *1445:A intr_gpio_o[2] 0
11 *1508:A intr_gpio_o[2] 0
12 *106:146 intr_gpio_o[2] 3.07133e-05
13 *537:12 intr_gpio_o[2] 0.000293822
14 *540:14 intr_gpio_o[2] 0
*RES
1 *1243:X intr_gpio_o[2] 44.7371 
*END

*D_NET *645 0.00493403
*CONN
*P intr_gpio_o[3] O
*I *1242:X O *D sky130_fd_sc_hd__clkdlybuf4s50_1
*CAP
1 intr_gpio_o[3] 0.00168996
2 *1242:X 0.000113206
3 *645:8 0.00180317
4 intr_gpio_o[3] *1108:RESET_B 0.000108448
5 intr_gpio_o[3] *1118:RESET_B 0.000608645
6 intr_gpio_o[3] *1143:CLK 0
7 intr_gpio_o[3] *1280:A 0
8 tl_o[27] intr_gpio_o[3] 0.000141156
9 tl_o[37] intr_gpio_o[3] 0
10 tl_o[47] intr_gpio_o[3] 7.18196e-05
11 *903:A intr_gpio_o[3] 0
12 *904:B intr_gpio_o[3] 0
13 *905:B1 intr_gpio_o[3] 1.51956e-05
14 *1140:D intr_gpio_o[3] 0
15 *1242:A *645:8 0.000317466
16 *614:14 intr_gpio_o[3] 6.49659e-05
*RES
1 *1242:X *645:8 17.2456 
2 *645:8 intr_gpio_o[3] 44.3099 
*END

*D_NET *492 0.00102694
*CONN
*I *851:B I *D sky130_fd_sc_hd__nand2_1
*I *1262:X O *D sky130_fd_sc_hd__clkdlybuf4s50_1
*CAP
1 *851:B 0.000242776
2 *1262:X 0.000242776
3 *851:B *1262:A 0.000387915
4 *851:A *851:B 0.000116755
5 *853:A *851:B 6.78364e-06
6 *1119:D *851:B 2.99287e-05
*RES
1 *1262:X *851:B 25.901 
*END

*D_NET *493 0.00416829
*CONN
*I *848:B I *D sky130_fd_sc_hd__nand2_1
*I *1261:X O *D sky130_fd_sc_hd__clkdlybuf4s50_1
*CAP
1 *848:B 3.33052e-05
2 *1261:X 0.000920831
3 *493:16 0.000954137
4 *493:16 tl_o[52] 5.74453e-05
5 *493:16 *1111:CLK 0
6 *493:16 *1120:CLK 7.2401e-05
7 *493:16 *1139:RESET_B 0.000223294
8 *493:16 *1205:A 0.000161841
9 *493:16 *535:10 0.000644067
10 *493:16 *716:14 5.27547e-06
11 tl_o[40] *493:16 0.000135533
12 *850:A *493:16 0.000146519
13 *875:A *493:16 0
14 *1097:D *493:16 0
15 *1107:D *493:16 1.04731e-05
16 *1120:D *493:16 2.91752e-05
17 *106:212 *493:16 0.00010797
18 *136:269 *493:16 0.000227488
19 *136:284 *493:16 0.000186476
20 *161:56 *493:16 6.50727e-05
21 *161:71 *493:16 0.000111897
22 *179:32 *493:16 7.50872e-05
*RES
1 *1261:X *493:16 47.0116 
2 *493:16 *848:B 14.4725 
*END

*D_NET *494 0.00107668
*CONN
*I *845:B I *D sky130_fd_sc_hd__nand2_1
*I *1260:X O *D sky130_fd_sc_hd__clkdlybuf4s50_1
*CAP
1 *845:B 0.000259401
2 *1260:X 0.000259401
3 *845:B *1260:A 0.000362216
4 *845:A *845:B 0.000113244
5 *846:A *845:B 1.59756e-05
6 *847:A *845:B 6.64392e-05
*RES
1 *1260:X *845:B 26.0698 
*END

*D_NET *495 0.000802811
*CONN
*I *842:B I *D sky130_fd_sc_hd__nand2_1
*I *1259:X O *D sky130_fd_sc_hd__clkdlybuf4s50_1
*CAP
1 *842:B 0.00024515
2 *1259:X 0.00024515
3 *842:B *1120:RESET_B 6.08467e-05
4 *842:B *1120:CLK 2.23259e-05
5 *842:B *1284:A 0.000115753
6 *842:B *540:14 2.41274e-06
7 *842:B *724:22 5.03261e-05
8 *106:216 *842:B 6.08467e-05
*RES
1 *1259:X *842:B 33.0343 
*END

*D_NET *496 0.000410001
*CONN
*I *839:B I *D sky130_fd_sc_hd__nand2_1
*I *1257:X O *D sky130_fd_sc_hd__clkdlybuf4s50_1
*CAP
1 *839:B 0.000150049
2 *1257:X 0.000150049
3 *839:B *1255:A 6.36477e-05
4 *841:A *839:B 2.69435e-05
5 *1058:A *839:B 1.60278e-05
6 *136:36 *839:B 3.28433e-06
*RES
1 *1257:X *839:B 30.8842 
*END

*D_NET *497 0.00101537
*CONN
*I *836:B I *D sky130_fd_sc_hd__nand2_1
*I *1256:X O *D sky130_fd_sc_hd__clkdlybuf4s50_1
*CAP
1 *836:B 0.000303615
2 *1256:X 0.000303615
3 *836:B *1256:A 0.000377889
4 *836:B *1447:A 2.14842e-06
5 *836:B *550:10 2.8103e-05
6 *106:416 *836:B 0
7 *136:38 *836:B 0
*RES
1 *1256:X *836:B 35.5969 
*END

*D_NET *498 0.000661744
*CONN
*I *833:B I *D sky130_fd_sc_hd__nand2_1
*I *1255:X O *D sky130_fd_sc_hd__clkdlybuf4s50_1
*CAP
1 *833:B 0.000137708
2 *1255:X 0.000137708
3 *833:B *796:A 0.000138453
4 *833:B *1255:A 0.000109421
5 *106:441 *833:B 0.000138453
*RES
1 *1255:X *833:B 31.4388 
*END

*D_NET *499 0.00074425
*CONN
*I *1058:B I *D sky130_fd_sc_hd__nand2_1
*I *1254:X O *D sky130_fd_sc_hd__clkdlybuf4s50_1
*CAP
1 *1058:B 0.000283407
2 *1254:X 0.000283407
3 *1058:B tl_o[56] 3.62414e-05
4 *1058:B *1254:A 0.000141193
*RES
1 *1254:X *1058:B 33.242 
*END

*D_NET *302 0.00215422
*CONN
*I *930:A I *D sky130_fd_sc_hd__inv_1
*I *1253:A I *D sky130_fd_sc_hd__clkdlybuf4s50_1
*I *1081:Q O *D sky130_fd_sc_hd__dfrtp_1
*CAP
1 *930:A 0.000283669
2 *1253:A 0.000303144
3 *1081:Q 0.000192447
4 *302:8 0.00077926
5 *930:A *800:A0 3.44412e-06
6 *930:A *969:A1 0
7 *930:A *1249:A 0.000152047
8 *930:A *310:29 0.000109065
9 *1253:A cio_gpio_o[0] 4.15008e-05
10 *1253:A *969:A1 0
11 *1253:A *1249:A 5.19205e-05
12 *1253:A *1514:A 0
13 *1253:A *418:16 0
14 *302:8 *625:186 0.000156076
15 *228:92 *930:A 8.16436e-05
*RES
1 *1081:Q *302:8 16.691 
2 *302:8 *1253:A 21.5663 
3 *302:8 *930:A 22.3291 
*END

*D_NET *303 0.00152515
*CONN
*I *925:A I *D sky130_fd_sc_hd__inv_1
*I *1252:A I *D sky130_fd_sc_hd__clkdlybuf4s50_1
*I *1082:Q O *D sky130_fd_sc_hd__dfrtp_1
*CAP
1 *925:A 0.000130104
2 *1252:A 0.000177605
3 *1082:Q 4.18856e-05
4 *303:8 0.000349595
5 *925:A *962:B 3.19445e-05
6 *925:A *421:10 2.73957e-05
7 *925:A *422:10 0.000244818
8 *925:A *698:68 3.19445e-05
9 *1252:A *1518:A 3.62612e-05
10 *1252:A *1522:A 0
11 *1252:A *421:10 8.3647e-05
12 *1252:A *422:10 0.000113333
13 *303:8 *1081:RESET_B 6.50727e-05
14 *1082:D *925:A 0.000191541
*RES
1 *1082:Q *303:8 14.4725 
2 *303:8 *1252:A 19.7337 
3 *303:8 *925:A 19.7715 
*END

*D_NET *304 0.00214328
*CONN
*I *920:A I *D sky130_fd_sc_hd__inv_1
*I *1251:A I *D sky130_fd_sc_hd__clkdlybuf4s50_1
*I *1083:Q O *D sky130_fd_sc_hd__dfrtp_1
*CAP
1 *920:A 0.000249922
2 *1251:A 0.000116179
3 *1083:Q 5.05397e-05
4 *304:8 0.000416641
5 *920:A cio_gpio_en_o[3] 0.000346348
6 *920:A *825:A1 9.55569e-06
7 *920:A *914:A 0
8 *920:A *960:B 4.3663e-05
9 *920:A *305:10 0
10 *920:A *424:10 0.000372129
11 *920:A *699:67 2.6874e-05
12 *1251:A cio_gpio_en_o[3] 0.000186445
13 *1251:A *1288:A 0
14 *1251:A *1519:A 2.16355e-05
15 *1251:A *424:10 0.000122083
16 *304:8 *1288:A 4.31703e-05
17 *961:A1 *920:A 1.5254e-05
18 *1052:A1 *920:A 0.000122842
*RES
1 *1083:Q *304:8 15.0271 
2 *304:8 *1251:A 17.9655 
3 *304:8 *920:A 24.2057 
*END

*D_NET *305 0.00131559
*CONN
*I *914:A I *D sky130_fd_sc_hd__inv_1
*I *1250:A I *D sky130_fd_sc_hd__clkdlybuf4s50_1
*I *1084:Q O *D sky130_fd_sc_hd__dfrtp_1
*CAP
1 *914:A 0.000134669
2 *1250:A 0
3 *1084:Q 0.000433099
4 *305:10 0.000567768
5 *914:A *825:A1 8.58366e-05
6 *914:A *699:67 7.62471e-05
7 *305:10 cio_gpio_en_o[3] 1.79672e-05
8 *920:A *914:A 0
9 *920:A *305:10 0
10 *1093:D *914:A 0
*RES
1 *1084:Q *305:10 21.0173 
2 *305:10 *1250:A 13.7491 
3 *305:10 *914:A 17.701 
*END

*D_NET *310 0.00402801
*CONN
*I *969:A0 I *D sky130_fd_sc_hd__mux2_1
*I *953:B I *D sky130_fd_sc_hd__nor3_1
*I *1249:A I *D sky130_fd_sc_hd__clkdlybuf4s50_1
*I *1077:Q O *D sky130_fd_sc_hd__dfrtp_1
*CAP
1 *969:A0 0
2 *953:B 0.000573696
3 *1249:A 0.000408468
4 *1077:Q 9.27778e-05
5 *310:29 0.00077889
6 *310:8 0.00070644
7 *953:B *800:A0 0.000244613
8 *953:B *800:A1 0
9 *953:B *800:S 9.03209e-05
10 *953:B *932:A2 0.00033614
11 *953:B *1294:A 3.91554e-05
12 *1249:A cio_gpio_o[0] 6.47268e-05
13 *1249:A *1064:A0 0
14 *1249:A *1514:A 0
15 *1249:A *425:10 0
16 *310:29 *969:A1 6.46815e-05
17 *310:29 *1064:A0 0
18 *930:A *1249:A 0.000152047
19 *930:A *310:29 0.000109065
20 *931:A1 *953:B 0
21 *965:A2 *310:29 5.31465e-05
22 *1253:A *1249:A 5.19205e-05
23 *106:503 *953:B 5.03285e-05
24 *192:10 *953:B 3.17054e-05
25 *192:14 *953:B 0.000113968
26 *206:14 *953:B 1.47716e-05
27 *228:92 *310:29 5.11469e-05
*RES
1 *1077:Q *310:8 15.0271 
2 *310:8 *1249:A 25.4457 
3 *310:8 *310:29 10.5706 
4 *310:29 *953:B 35.9227 
5 *310:29 *969:A0 9.24915 
*END

*D_NET *311 0.00732238
*CONN
*I *968:A0 I *D sky130_fd_sc_hd__mux2_1
*I *1248:A I *D sky130_fd_sc_hd__clkdlybuf4s50_1
*I *947:B I *D sky130_fd_sc_hd__nor3_1
*I *1078:Q O *D sky130_fd_sc_hd__dfrtp_1
*CAP
1 *968:A0 0.000172101
2 *1248:A 0
3 *947:B 0.000439685
4 *1078:Q 8.7852e-05
5 *311:39 0.00185235
6 *311:6 0.00220779
7 *947:B *947:A 0.000117376
8 *947:B *460:40 4.81452e-05
9 *947:B *460:72 0.000280466
10 *947:B *625:132 1.45447e-05
11 *968:A0 *948:A2 3.25235e-05
12 *968:A0 *625:132 1.41976e-05
13 *311:39 *789:A 0
14 *311:39 *1088:CLK 4.70005e-05
15 *311:39 *1090:RESET_B 0.000528096
16 *311:39 *1465:A 4.00116e-05
17 *311:39 *701:34 2.8182e-06
18 *311:39 *701:40 3.20069e-06
19 *948:A1 *968:A0 6.50727e-05
20 *952:A2 *311:39 0.000206073
21 *1070:A *311:39 0.000116014
22 *1071:B *311:39 0.000147846
23 *1072:D *311:39 0.000483488
24 *1088:D *311:39 0
25 *111:12 *311:6 1.71948e-05
26 *111:29 *968:A0 3.31733e-05
27 *111:40 *968:A0 7.04109e-05
28 *112:8 *311:39 0.000134659
29 *112:21 *947:B 9.04668e-05
30 *112:45 *311:39 3.28727e-05
31 *192:42 *968:A0 3.69482e-05
*RES
1 *1078:Q *311:6 10.5271 
2 *311:6 *947:B 26.345 
3 *311:6 *311:39 47.3447 
4 *311:39 *1248:A 9.24915 
5 *947:B *968:A0 32.2962 
*END

*D_NET *312 0.0015248
*CONN
*I *1247:A I *D sky130_fd_sc_hd__clkdlybuf4s50_1
*I *941:A I *D sky130_fd_sc_hd__inv_1
*I *1079:Q O *D sky130_fd_sc_hd__dfrtp_1
*CAP
1 *1247:A 9.00516e-05
2 *941:A 0.00029733
3 *1079:Q 0
4 *312:4 0.000387382
5 *941:A *944:A3 1.80176e-05
6 *941:A *1089:CLK 0.000109427
7 *1247:A *944:A3 7.01935e-06
8 *1089:D *941:A 2.58616e-05
9 *112:45 *941:A 4.52923e-05
10 *136:106 *941:A 0.000164842
11 *211:18 *941:A 7.93654e-05
12 *211:18 *1247:A 5.62568e-05
13 *213:8 *941:A 5.90681e-05
14 *228:14 *941:A 0.000184886
*RES
1 *1079:Q *312:4 9.24915 
2 *312:4 *941:A 28.2052 
3 *312:4 *1247:A 11.6605 
*END

*D_NET *313 0.00466061
*CONN
*I *1246:A I *D sky130_fd_sc_hd__clkdlybuf4s50_1
*I *935:A I *D sky130_fd_sc_hd__inv_1
*I *1080:Q O *D sky130_fd_sc_hd__dfrtp_1
*CAP
1 *1246:A 0.000817343
2 *935:A 0.000205986
3 *1080:Q 0.000393877
4 *313:10 0.00141721
5 *935:A *966:B 0
6 *1246:A *690:6 0.000617942
7 *1246:A *690:8 6.50727e-05
8 *1246:A *734:16 1.80122e-05
9 *313:10 *1033:A1 0.000190974
10 *313:10 *690:427 0.000169528
11 *794:A *1246:A 0.000125395
12 *794:B *1246:A 0.000278783
13 *795:A *1246:A 6.02078e-06
14 *943:A *935:A 9.35979e-05
15 *943:A *313:10 0.000173772
16 *943:B *935:A 5.20665e-05
17 *1050:B1 *935:A 1.03434e-05
18 *208:6 *935:A 2.46912e-05
*RES
1 *1080:Q *313:10 22.4024 
2 *313:10 *935:A 19.4212 
3 *313:10 *1246:A 28.9405 
*END

*D_NET *328 0.00189064
*CONN
*I *1245:A I *D sky130_fd_sc_hd__clkdlybuf4s50_1
*I *770:Y O *D sky130_fd_sc_hd__a22oi_1
*CAP
1 *1245:A 0.000707375
2 *770:Y 0.000707375
3 *1245:A intr_gpio_o[0] 2.23259e-05
4 *1245:A tl_o[28] 0.000127194
5 *1245:A *814:A 0
6 *1245:A *1129:RESET_B 0.000268834
7 *1245:A *1227:A 0
8 *1245:A *1231:A 0
9 *1245:A *690:93 4.53337e-05
10 *327:29 *1245:A 1.22063e-05
*RES
1 *770:Y *1245:A 46.6666 
*END

*D_NET *329 0.00502579
*CONN
*I *1244:A I *D sky130_fd_sc_hd__clkdlybuf4s50_1
*I *765:Y O *D sky130_fd_sc_hd__a22oi_1
*CAP
1 *1244:A 0.000164528
2 *765:Y 0.0019227
3 *329:20 0.00208723
4 *1244:A intr_gpio_o[1] 0.000377273
5 *1244:A *1134:CLK 0.000224395
6 *329:20 *1134:RESET_B 6.95759e-05
7 *329:20 *1136:RESET_B 2.17234e-05
8 *329:20 *527:16 0.000112703
9 *329:20 *693:241 4.56505e-05
*RES
1 *765:Y *329:20 44.4062 
2 *329:20 *1244:A 15.9526 
*END

*D_NET *330 0.000829109
*CONN
*I *1243:A I *D sky130_fd_sc_hd__clkdlybuf4s50_1
*I *760:Y O *D sky130_fd_sc_hd__a22oi_1
*CAP
1 *1243:A 0.000312271
2 *760:Y 0.000312271
3 *1243:A *897:B 1.77537e-06
4 *760:B2 *1243:A 7.09395e-05
5 *88:31 *1243:A 6.14128e-05
6 *161:96 *1243:A 4.04463e-05
7 *166:10 *1243:A 0
8 *318:20 *1243:A 2.99929e-05
*RES
1 *760:Y *1243:A 34.9002 
*END

*D_NET *331 0.00228725
*CONN
*I *1242:A I *D sky130_fd_sc_hd__clkdlybuf4s50_1
*I *1034:Y O *D sky130_fd_sc_hd__a21oi_1
*CAP
1 *1242:A 0.000542372
2 *1034:Y 0.000542372
3 *1242:A *885:B 0.000112367
4 *1242:A *1031:A 3.62466e-05
5 *1242:A *1032:B1 0.000535454
6 *1242:A *645:8 0.000317466
7 *1034:A2 *1242:A 7.26748e-05
8 *1144:D *1242:A 3.72986e-06
9 *1148:D *1242:A 0.000124565
*RES
1 *1034:Y *1242:A 45.5952 
*END

*D_NET *501 0.00257566
*CONN
*I *1241:A I *D sky130_fd_sc_hd__clkdlybuf4s50_1
*I *783:A I *D sky130_fd_sc_hd__nand2_8
*I *1055:A1 I *D sky130_fd_sc_hd__o21ai_0
*I *782:Y O *D sky130_fd_sc_hd__clkinv_2
*CAP
1 *1241:A 0.000115093
2 *783:A 0.000328088
3 *1055:A1 0.000200194
4 *782:Y 3.80475e-05
5 *501:6 0.000451238
6 *1055:A1 *1292:A 0.000305766
7 *501:6 *1292:A 0.000150019
8 *791:B1_N *1055:A1 0.000302956
9 *791:B1_N *501:6 0.000111802
10 *1086:D *1055:A1 2.2111e-05
11 *1269:A *1055:A1 0.000154257
12 *1523:A *783:A 4.89622e-05
13 *106:26 *783:A 0.000336399
14 *106:93 *783:A 1.07248e-05
*RES
1 *782:Y *501:6 11.0817 
2 *501:6 *1055:A1 25.6538 
3 *501:6 *783:A 24.9571 
4 *783:A *1241:A 20.8855 
*END

*D_NET *508 0.00127843
*CONN
*I *1240:A I *D sky130_fd_sc_hd__clkdlybuf4s50_1
*I *957:A I *D sky130_fd_sc_hd__nor2_1
*I *1087:Q O *D sky130_fd_sc_hd__dfrtp_1
*CAP
1 *1240:A 0.000247844
2 *957:A 0.00029019
3 *1087:Q 0
4 *508:4 0.000538034
5 *957:A *1092:CLK 0.000118002
6 *459:14 *957:A 3.86207e-06
7 *459:14 *1240:A 8.05028e-05
*RES
1 *1087:Q *508:4 9.24915 
2 *508:4 *957:A 23.4382 
3 *508:4 *1240:A 15.5668 
*END

*D_NET *509 0.00246573
*CONN
*I *1239:A I *D sky130_fd_sc_hd__clkdlybuf4s50_1
*I *951:A I *D sky130_fd_sc_hd__nor2_1
*I *1088:Q O *D sky130_fd_sc_hd__dfrtp_1
*CAP
1 *1239:A 0.000768927
2 *951:A 0.000146373
3 *1088:Q 0.000915301
4 *951:A *1087:RESET_B 0.000109421
5 *1239:A *1087:RESET_B 5.78706e-05
6 *1239:A *1087:CLK 6.27718e-05
7 *1239:A *1092:CLK 0
8 *887:A *951:A 8.36586e-06
9 *1087:D *951:A 4.77834e-05
10 *106:499 *1239:A 0.000238964
11 *136:119 *951:A 0.000109951
12 *459:14 *1239:A 0
*RES
1 *1088:Q *951:A 31.0235 
2 *1088:Q *1239:A 43.6289 
*END

*D_NET *510 0.00296351
*CONN
*I *1238:A I *D sky130_fd_sc_hd__clkdlybuf4s50_1
*I *945:A I *D sky130_fd_sc_hd__nor2_1
*I *1089:Q O *D sky130_fd_sc_hd__dfrtp_1
*CAP
1 *1238:A 0.0005748
2 *945:A 0.000229963
3 *1089:Q 9.88874e-05
4 *510:12 0.00090365
5 *1238:A tl_o[17] 1.8078e-05
6 *1238:A *939:A 0.00048346
7 *510:12 *1089:RESET_B 6.08467e-05
8 *939:B *945:A 0.000269574
9 *939:B *1238:A 0.000141444
10 *136:115 *945:A 6.08467e-05
11 *136:119 *945:A 3.31733e-05
12 *211:18 *510:12 6.65668e-05
13 *386:36 *945:A 2.22198e-05
14 *386:36 *510:12 0
*RES
1 *1089:Q *510:12 20.3893 
2 *510:12 *945:A 22.7471 
3 *510:12 *1238:A 19.2802 
*END

*D_NET *511 0.00253563
*CONN
*I *1237:A I *D sky130_fd_sc_hd__clkdlybuf4s50_1
*I *939:A I *D sky130_fd_sc_hd__nor2_1
*I *1090:Q O *D sky130_fd_sc_hd__dfrtp_1
*CAP
1 *1237:A 0.000263512
2 *939:A 0.000140469
3 *1090:Q 0.000189883
4 *511:10 0.000593865
5 *939:A tl_o[17] 1.03403e-05
6 *1237:A *693:412 0
7 *511:10 *1090:RESET_B 2.63704e-05
8 *511:10 *693:412 0
9 *913:A *1237:A 0.000504253
10 *939:B *939:A 1.64789e-05
11 *1238:A *939:A 0.00048346
12 *459:14 *1237:A 0.000136409
13 *459:14 *511:10 0.000170592
*RES
1 *1090:Q *511:10 18.1049 
2 *511:10 *939:A 19.4881 
3 *511:10 *1237:A 22.1265 
*END

*D_NET *512 0.00117556
*CONN
*I *1236:A I *D sky130_fd_sc_hd__clkdlybuf4s50_1
*I *1053:A1 I *D sky130_fd_sc_hd__a21oi_1
*I *1085:Q O *D sky130_fd_sc_hd__dfrtp_1
*CAP
1 *1236:A 0.000204301
2 *1053:A1 0.000294649
3 *1085:Q 0.00049895
4 *1053:A1 cio_gpio_o[3] 1.58257e-05
5 *1053:A1 *693:412 7.50722e-05
6 *1236:A cio_gpio_o[3] 8.67571e-05
7 *110:17 *1053:A1 0
*RES
1 *1085:Q *1053:A1 32.4114 
2 *1085:Q *1236:A 23.6826 
*END

*D_NET *513 0.00251148
*CONN
*I *1235:A I *D sky130_fd_sc_hd__clkdlybuf4s50_1
*I *933:A I *D sky130_fd_sc_hd__nor2_1
*I *1091:Q O *D sky130_fd_sc_hd__dfrtp_1
*CAP
1 *1235:A 0.000753256
2 *933:A 0.000105301
3 *1091:Q 0.000201648
4 *513:10 0.00106021
5 *1235:A *693:418 0
6 *918:B *933:A 0.00016386
7 *919:B1 *933:A 0.00016386
8 *929:B1 *1235:A 6.33469e-05
*RES
1 *1091:Q *513:10 17.2744 
2 *513:10 *933:A 16.8764 
3 *513:10 *1235:A 27.5463 
*END

*D_NET *514 0.000828107
*CONN
*I *1234:A I *D sky130_fd_sc_hd__clkdlybuf4s50_1
*I *928:A I *D sky130_fd_sc_hd__nor2_1
*I *1092:Q O *D sky130_fd_sc_hd__dfrtp_1
*CAP
1 *1234:A 0.000210178
2 *928:A 0.000203876
3 *1092:Q 0
4 *514:4 0.000414054
5 *928:A *693:418 0
*RES
1 *1092:Q *514:4 9.24915 
2 *514:4 *928:A 23.0201 
3 *514:4 *1234:A 14.4335 
*END

*D_NET *515 0.00318892
*CONN
*I *923:A I *D sky130_fd_sc_hd__nor2_1
*I *1233:A I *D sky130_fd_sc_hd__clkdlybuf4s50_1
*I *1093:Q O *D sky130_fd_sc_hd__dfrtp_1
*CAP
1 *923:A 3.15315e-05
2 *1233:A 0.000629185
3 *1093:Q 0.000511253
4 *515:10 0.00117197
5 *923:A *693:418 2.10465e-05
6 *1233:A *918:A 0.000112657
7 *515:10 *1093:RESET_B 2.5496e-05
8 *515:10 *693:418 4.05509e-05
9 *515:10 *693:427 7.9539e-05
10 *919:B1 *1233:A 0.000405074
11 *1094:D *923:A 1.15781e-05
12 *1094:D *515:10 0.000140676
13 *136:162 *923:A 8.36586e-06
*RES
1 *1093:Q *515:10 25.8609 
2 *515:10 *1233:A 24.3348 
3 *515:10 *923:A 14.7506 
*END

*D_NET *516 0.000957347
*CONN
*I *918:A I *D sky130_fd_sc_hd__nor2_1
*I *1232:A I *D sky130_fd_sc_hd__clkdlybuf4s50_1
*I *1094:Q O *D sky130_fd_sc_hd__dfrtp_1
*CAP
1 *918:A 0.000348017
2 *1232:A 7.43275e-05
3 *1094:Q 0.000422345
4 *1233:A *918:A 0.000112657
*RES
1 *1094:Q *1232:A 20.355 
2 *1094:Q *918:A 36.0094 
*END

*D_NET *517 0.00316245
*CONN
*I *1231:A I *D sky130_fd_sc_hd__clkdlybuf4s50_1
*I *910:B I *D sky130_fd_sc_hd__nand2_1
*I *1095:Q O *D sky130_fd_sc_hd__dfrtp_1
*CAP
1 *1231:A 0.000898954
2 *910:B 8.03811e-05
3 *1095:Q 0.00037928
4 *517:12 0.00135861
5 *1231:A *1082:RESET_B 0
6 *1231:A *1188:RESET_B 0
7 *1231:A *625:89 0
8 *1231:A *698:34 0
9 *517:12 *1152:RESET_B 2.65433e-05
10 *517:12 *1188:RESET_B 0
11 *517:12 *625:12 8.31184e-06
12 *770:A2 *1231:A 6.51686e-05
13 *813:A *1231:A 0.000146519
14 *911:B1 *910:B 7.20173e-06
15 *1245:A *1231:A 0
16 *327:14 *1231:A 0
17 *327:14 *517:12 0
18 *327:29 *910:B 0
19 *327:29 *1231:A 0.000191481
*RES
1 *1095:Q *517:12 20.2939 
2 *517:12 *910:B 15.4224 
3 *517:12 *1231:A 37.2748 
*END

*D_NET *518 0.00336351
*CONN
*I *1230:A I *D sky130_fd_sc_hd__clkdlybuf4s50_1
*I *908:B I *D sky130_fd_sc_hd__nand2_1
*I *1096:Q O *D sky130_fd_sc_hd__dfrtp_1
*CAP
1 *1230:A 0.000701283
2 *908:B 0.000254747
3 *1096:Q 0
4 *518:4 0.00095603
5 *908:B *1096:RESET_B 6.83043e-05
6 *908:B *1096:CLK 2.5762e-05
7 *1230:A tl_o[44] 0.000119587
8 *1230:A *1118:CLK 3.75772e-05
9 *1230:A *1199:A 0.000210014
10 *1230:A *538:10 0.000116971
11 *1230:A *705:8 1.85012e-05
12 *1230:A *705:10 9.36471e-05
13 *1230:A *705:12 9.03762e-06
14 *1230:A *705:16 8.62474e-06
15 tl_o[38] *1230:A 0.000623925
16 tl_o[41] *1230:A 0.0001195
17 *161:142 *908:B 0
18 *161:254 *1230:A 0
*RES
1 *1096:Q *518:4 9.24915 
2 *518:4 *908:B 24.684 
3 *518:4 *1230:A 42.3977 
*END

*D_NET *519 0.00262957
*CONN
*I *906:B I *D sky130_fd_sc_hd__nand2_1
*I *1229:A I *D sky130_fd_sc_hd__clkdlybuf4s50_1
*I *1097:Q O *D sky130_fd_sc_hd__dfrtp_1
*CAP
1 *906:B 0.000331969
2 *1229:A 0.000137338
3 *1097:Q 0.000425912
4 *519:10 0.00089522
5 *906:B *894:B 9.98348e-05
6 *906:B *1124:CLK 0.000371507
7 *1229:A *894:B 0
8 *1229:A *1107:CLK 3.25494e-05
9 *519:10 *894:B 0
10 *519:10 *1119:CLK 0.00015909
11 *519:10 *709:22 7.34948e-06
12 *519:10 *709:44 4.21651e-05
13 *894:A *906:B 6.15617e-05
14 *907:B1 *906:B 6.50727e-05
*RES
1 *1097:Q *519:10 21.5719 
2 *519:10 *1229:A 17.2421 
3 *519:10 *906:B 23.9249 
*END

*D_NET *520 0.00164374
*CONN
*I *904:B I *D sky130_fd_sc_hd__nand2_1
*I *1228:A I *D sky130_fd_sc_hd__clkdlybuf4s50_1
*I *1098:Q O *D sky130_fd_sc_hd__dfrtp_1
*CAP
1 *904:B 0.000139831
2 *1228:A 0.000206229
3 *1098:Q 0.000179253
4 *520:6 0.000525313
5 *904:B intr_gpio_o[3] 0
6 *904:B *1066:B 0.000262202
7 *904:B *690:376 9.12416e-06
8 *1228:A *1066:B 2.48716e-05
9 *520:6 *1098:RESET_B 0.000156314
10 *905:B1 *904:B 2.60879e-06
11 *908:A *904:B 1.64979e-05
12 *1067:B1 *1228:A 0.000121494
*RES
1 *1098:Q *520:6 12.191 
2 *520:6 *1228:A 22.329 
3 *520:6 *904:B 22.9879 
*END

*D_NET *521 0.0033343
*CONN
*I *901:B I *D sky130_fd_sc_hd__nand2_1
*I *1227:A I *D sky130_fd_sc_hd__clkdlybuf4s50_1
*I *1099:Q O *D sky130_fd_sc_hd__dfrtp_1
*CAP
1 *901:B 0.000379169
2 *1227:A 0.000558605
3 *1099:Q 0
4 *521:6 0.000937774
5 *901:B *1095:RESET_B 9.75356e-05
6 *901:B *1099:RESET_B 0
7 *1227:A *692:12 0.000162131
8 *814:A *1227:A 0.000108741
9 *902:A1 *901:B 0
10 *911:A1 *901:B 0.000197539
11 *911:A1 *1227:A 0.00052407
12 *911:C1 *901:B 0.000310711
13 *1137:D *1227:A 5.27944e-05
14 *1245:A *1227:A 0
15 *161:194 *901:B 5.22654e-06
*RES
1 *1099:Q *521:6 13.7491 
2 *521:6 *1227:A 30.9777 
3 *521:6 *901:B 31.6438 
*END

*D_NET *522 0.00416592
*CONN
*I *899:B I *D sky130_fd_sc_hd__nand2_1
*I *1226:A I *D sky130_fd_sc_hd__clkdlybuf4s50_1
*I *1100:Q O *D sky130_fd_sc_hd__dfrtp_1
*CAP
1 *899:B 0.000182163
2 *1226:A 0.00135439
3 *1100:Q 0.000253015
4 *522:6 0.00178957
5 *899:B *1104:RESET_B 1.18802e-05
6 *1226:A tl_o[29] 5.00552e-05
7 *1226:A *690:184 0.000199511
8 *1226:A *690:186 2.84892e-05
9 *1226:A *690:192 3.23874e-05
10 *522:6 *690:184 0.000178053
11 *764:A *899:B 1.77537e-06
12 *899:A *899:B 0
13 *1100:D *899:B 0
14 *161:163 *899:B 8.46353e-05
15 *175:71 *899:B 0
*RES
1 *1100:Q *522:6 13.3002 
2 *522:6 *1226:A 30.3723 
3 *522:6 *899:B 22.9879 
*END

*D_NET *524 0.00153999
*CONN
*I *1225:A I *D sky130_fd_sc_hd__clkdlybuf4s50_1
*I *897:B I *D sky130_fd_sc_hd__nand2_1
*I *1101:Q O *D sky130_fd_sc_hd__dfrtp_1
*CAP
1 *1225:A 6.6963e-05
2 *897:B 0.000162963
3 *1101:Q 0.000207823
4 *524:8 0.000437748
5 *897:B intr_gpio_o[2] 0
6 *524:8 *1101:RESET_B 0.000156314
7 *524:8 *708:22 4.04487e-05
8 *898:B1 *897:B 2.65831e-05
9 *1243:A *897:B 1.77537e-06
10 *106:150 *897:B 6.08467e-05
11 *166:10 *897:B 0.000262546
12 *166:10 *1225:A 0.000115976
*RES
1 *1101:Q *524:8 17.2456 
2 *524:8 *897:B 19.2113 
3 *524:8 *1225:A 15.9964 
*END

*D_NET *525 0.0065438
*CONN
*I *894:B I *D sky130_fd_sc_hd__nand2_1
*I *1223:A I *D sky130_fd_sc_hd__clkdlybuf4s50_1
*I *1102:Q O *D sky130_fd_sc_hd__dfrtp_1
*CAP
1 *894:B 0.00112647
2 *1223:A 0.00061034
3 *1102:Q 0.000394821
4 *525:10 0.00213163
5 *894:B *1107:CLK 5.44073e-05
6 *894:B *1124:CLK 8.02784e-05
7 *894:B *707:8 5.11638e-05
8 *894:B *707:84 4.95259e-05
9 *894:B *716:14 0
10 *1223:A *1215:A 0.000383717
11 *1223:A *1453:A 0.000263116
12 *525:10 *1085:CLK 3.30938e-05
13 *525:10 *1154:RESET_B 0
14 *525:10 *693:335 0
15 *525:10 *707:8 6.19155e-05
16 *525:10 *707:10 6.30955e-05
17 tl_o[35] *1223:A 0.000472768
18 *894:A *894:B 0.000177096
19 *906:B *894:B 9.98348e-05
20 *907:B1 *894:B 1.40978e-05
21 *1229:A *894:B 0
22 *136:65 *1223:A 0.000410874
23 *161:56 *894:B 0
24 *161:80 *894:B 0
25 *419:12 *525:10 6.55651e-05
26 *519:10 *894:B 0
*RES
1 *1102:Q *525:10 24.1943 
2 *525:10 *1223:A 33.9078 
3 *525:10 *894:B 37.6545 
*END

*D_NET *526 0.00432318
*CONN
*I *892:B I *D sky130_fd_sc_hd__nand2_1
*I *1221:A I *D sky130_fd_sc_hd__clkdlybuf4s50_1
*I *1103:Q O *D sky130_fd_sc_hd__dfrtp_1
*CAP
1 *892:B 0.00011391
2 *1221:A 0.00124661
3 *1103:Q 0.000172943
4 *526:6 0.00153346
5 *1221:A *823:B 6.49003e-05
6 *1221:A *696:12 0.000305385
7 *1221:A *696:72 1.65872e-05
8 *526:6 *696:12 0.000110567
9 tl_o[32] *1221:A 7.3728e-05
10 *1103:D *892:B 5.53789e-05
11 *1133:D *1221:A 0.000315459
12 *106:528 *892:B 8.62625e-06
13 *106:537 *892:B 0.000240119
14 *161:175 *892:B 3.54274e-05
15 *377:25 *892:B 3.00829e-05
*RES
1 *1103:Q *526:6 12.191 
2 *526:6 *1221:A 30.2276 
3 *526:6 *892:B 23.2961 
*END

*D_NET *527 0.00532378
*CONN
*I *890:B I *D sky130_fd_sc_hd__nand2_1
*I *1219:A I *D sky130_fd_sc_hd__clkdlybuf4s50_1
*I *1104:Q O *D sky130_fd_sc_hd__dfrtp_1
*CAP
1 *890:B 0
2 *1219:A 0.00103082
3 *1104:Q 0.00057012
4 *527:16 0.00160094
5 *1219:A *820:B 0.00031194
6 *1219:A *690:267 0.00030843
7 *527:16 *1040:B 2.41274e-06
8 *527:16 *692:221 0.000200955
9 *527:16 *692:227 0.00056556
10 tl_o[33] *1219:A 7.64995e-05
11 *820:A *1219:A 1.04731e-05
12 *891:B1 *527:16 1.43832e-05
13 *1074:D *527:16 0.000111159
14 *1134:D *1219:A 0.000263038
15 *106:537 *1219:A 6.96592e-05
16 *161:169 *1219:A 1.47251e-05
17 *161:175 *1219:A 5.99695e-05
18 *329:20 *527:16 0.000112703
*RES
1 *1104:Q *527:16 33.7477 
2 *527:16 *1219:A 45.2231 
3 *527:16 *890:B 9.24915 
*END

*D_NET *528 0.00289901
*CONN
*I *1217:A I *D sky130_fd_sc_hd__clkdlybuf4s50_1
*I *888:B I *D sky130_fd_sc_hd__nand2_1
*I *1105:Q O *D sky130_fd_sc_hd__dfrtp_1
*CAP
1 *1217:A 5.91407e-05
2 *888:B 0.000555296
3 *1105:Q 0.000368613
4 *528:8 0.000983051
5 *888:B *1043:B 6.19524e-05
6 *528:8 *541:10 0.000446449
7 *528:8 *693:826 0.000160408
8 *888:A *888:B 0.000229746
9 *889:B1 *888:B 1.27193e-05
10 *1043:A *888:B 2.16355e-05
11 *1114:D *528:8 0
12 *161:235 *528:8 0
*RES
1 *1105:Q *528:8 26.3777 
2 *528:8 *888:B 23.8091 
3 *528:8 *1217:A 15.0271 
*END

*D_NET *529 0.00126656
*CONN
*I *1215:A I *D sky130_fd_sc_hd__clkdlybuf4s50_1
*I *884:B I *D sky130_fd_sc_hd__nand2_1
*I *1106:Q O *D sky130_fd_sc_hd__dfrtp_1
*CAP
1 *1215:A 0.000108562
2 *884:B 6.51325e-05
3 *1106:Q 0.000173694
4 *1215:A *707:8 0.000151741
5 *1223:A *1215:A 0.000383717
6 *136:65 *1215:A 0.000383717
*RES
1 *1106:Q *884:B 20.2103 
2 *1106:Q *1215:A 34.2118 
*END

*D_NET *530 0.00206074
*CONN
*I *1213:A I *D sky130_fd_sc_hd__clkdlybuf4s50_1
*I *882:B I *D sky130_fd_sc_hd__nand2_1
*I *1107:Q O *D sky130_fd_sc_hd__dfrtp_1
*CAP
1 *1213:A 0.00029103
2 *882:B 0.000527315
3 *1107:Q 0
4 *530:4 0.000818345
5 *882:B *1107:RESET_B 5.37479e-05
6 *882:B *1107:CLK 0.000140082
7 *882:B *716:14 8.36586e-06
8 *1213:A tl_o[26] 2.41338e-05
9 *1213:A *1107:CLK 5.04829e-06
10 *883:B *882:B 6.08467e-05
11 *106:118 *882:B 2.18698e-05
12 *161:56 *882:B 0.000109951
*RES
1 *1107:Q *530:4 9.24915 
2 *530:4 *882:B 28.0438 
3 *530:4 *1213:A 16.1214 
*END

*D_NET *531 0.0024177
*CONN
*I *1211:A I *D sky130_fd_sc_hd__clkdlybuf4s50_1
*I *880:B I *D sky130_fd_sc_hd__nand2_1
*I *1108:Q O *D sky130_fd_sc_hd__dfrtp_1
*CAP
1 *1211:A 0.00040493
2 *880:B 1.26553e-05
3 *1108:Q 0.000416036
4 *531:10 0.000833621
5 *1211:A tl_o[27] 0
6 *1211:A *1283:A 0.000135769
7 *531:10 tl_o[27] 0
8 *531:10 *1108:RESET_B 0.000159977
9 *531:10 *1283:A 1.90335e-05
10 *881:B *880:B 2.65667e-05
11 *1056:A *1211:A 0.000104748
12 *1066:A *880:B 6.50586e-05
13 *1066:A *531:10 7.50872e-05
14 *1067:B1 *531:10 7.50722e-05
15 *1110:D *1211:A 0
16 *106:242 *1211:A 8.07794e-05
17 *161:294 *1211:A 8.36429e-06
*RES
1 *1108:Q *531:10 21.1566 
2 *531:10 *880:B 14.4725 
3 *531:10 *1211:A 24.224 
*END

*D_NET *532 0.000894245
*CONN
*I *1209:A I *D sky130_fd_sc_hd__clkdlybuf4s50_1
*I *878:B I *D sky130_fd_sc_hd__nand2_1
*I *1109:Q O *D sky130_fd_sc_hd__dfrtp_1
*CAP
1 *1209:A 7.3013e-05
2 *878:B 2.72596e-05
3 *1109:Q 0.000101897
4 *532:8 0.00020217
5 *867:A *1209:A 1.65872e-05
6 *873:B *1209:A 1.41976e-05
7 *878:A *1209:A 6.50727e-05
8 *879:B *878:B 6.50586e-05
9 *879:B *1209:A 1.15389e-05
10 *879:B *532:8 3.1348e-05
11 *1109:D *532:8 0.000118792
12 *161:325 *1209:A 5.23916e-05
13 *161:325 *532:8 0.00011492
*RES
1 *1109:Q *532:8 12.7697 
2 *532:8 *878:B 10.5513 
3 *532:8 *1209:A 12.2151 
*END

*D_NET *533 0.00217046
*CONN
*I *1207:A I *D sky130_fd_sc_hd__clkdlybuf4s50_1
*I *876:B I *D sky130_fd_sc_hd__nand2_1
*I *1110:Q O *D sky130_fd_sc_hd__dfrtp_1
*CAP
1 *1207:A 0.000322143
2 *876:B 0.000273284
3 *1110:Q 7.01444e-05
4 *533:8 0.000665571
5 *876:B *739:12 6.08467e-05
6 *1207:A *1122:CLK 8.59015e-05
7 *1207:A *708:82 0
8 *533:8 *708:82 0
9 *533:8 *739:12 7.50722e-05
10 *865:B *1207:A 0.000327388
11 *876:A *876:B 4.65954e-06
12 *877:B *876:B 7.40004e-05
13 *1517:A *876:B 5.07314e-05
14 *1517:A *1207:A 1.70077e-05
15 *106:232 *876:B 9.49707e-05
16 *106:236 *876:B 4.87439e-05
17 *166:10 *1207:A 0
18 *166:10 *533:8 0
*RES
1 *1110:Q *533:8 15.5811 
2 *533:8 *876:B 21.8994 
3 *533:8 *1207:A 23.2273 
*END

*D_NET *535 0.00401932
*CONN
*I *1205:A I *D sky130_fd_sc_hd__clkdlybuf4s50_1
*I *874:B I *D sky130_fd_sc_hd__nand2_1
*I *1111:Q O *D sky130_fd_sc_hd__dfrtp_1
*CAP
1 *1205:A 0.000261725
2 *874:B 0.000222688
3 *1111:Q 0.000414353
4 *535:10 0.000898767
5 *535:10 *1097:RESET_B 0.000363201
6 *535:10 *693:505 0.000135827
7 tl_o[40] *1205:A 5.04829e-06
8 *828:A *1205:A 4.69273e-05
9 *828:A *535:10 3.87022e-06
10 *874:A *874:B 0.000177515
11 *875:B *874:B 2.09306e-05
12 *106:138 *535:10 1.2819e-05
13 *106:146 *535:10 2.01653e-05
14 *106:189 *535:10 0.000109888
15 *106:193 *874:B 0.000206696
16 *179:32 *535:10 0.000312995
17 *493:16 *1205:A 0.000161841
18 *493:16 *535:10 0.000644067
*RES
1 *1111:Q *535:10 32.0841 
2 *535:10 *874:B 19.898 
3 *535:10 *1205:A 20.8779 
*END

*D_NET *536 0.00216463
*CONN
*I *1203:A I *D sky130_fd_sc_hd__clkdlybuf4s50_1
*I *872:B I *D sky130_fd_sc_hd__nand2_1
*I *1112:Q O *D sky130_fd_sc_hd__dfrtp_1
*CAP
1 *1203:A 0.000171547
2 *872:B 0.000439759
3 *1112:Q 0.000126934
4 *536:8 0.00073824
5 *872:B *691:226 2.20939e-06
6 *872:B *693:826 3.06126e-05
7 *536:8 *691:226 0
8 tl_o[34] *1203:A 0.000340696
9 tl_o[34] *536:8 0.000213341
10 tl_o[38] *872:B 1.04187e-05
11 *872:A *872:B 3.73079e-05
12 *873:B *872:B 7.97098e-06
13 *1114:D *872:B 4.55936e-05
14 *1114:D *536:8 0
*RES
1 *1112:Q *536:8 17.6574 
2 *536:8 *872:B 30.0201 
3 *536:8 *1203:A 19.7337 
*END

*D_NET *537 0.00198827
*CONN
*I *870:B I *D sky130_fd_sc_hd__nand2_1
*I *1201:A I *D sky130_fd_sc_hd__clkdlybuf4s50_1
*I *1113:Q O *D sky130_fd_sc_hd__dfrtp_1
*CAP
1 *870:B 8.3693e-05
2 *1201:A 0
3 *1113:Q 0.00042001
4 *537:12 0.000503703
5 *537:12 intr_gpio_o[2] 0.000293822
6 *537:12 *1122:RESET_B 0.000113867
7 *537:12 *693:679 0.00021355
8 *537:12 *708:12 7.86847e-05
9 *1122:D *870:B 0.00016195
10 *1122:D *537:12 0.00011899
*RES
1 *1113:Q *537:12 34.3741 
2 *537:12 *1201:A 9.24915 
3 *537:12 *870:B 12.2392 
*END

*D_NET *538 0.00157101
*CONN
*I *1199:A I *D sky130_fd_sc_hd__clkdlybuf4s50_1
*I *868:B I *D sky130_fd_sc_hd__nand2_1
*I *1114:Q O *D sky130_fd_sc_hd__dfrtp_1
*CAP
1 *1199:A 0.000294547
2 *868:B 1.98947e-05
3 *1114:Q 0.000140664
4 *538:10 0.000455105
5 *1199:A *705:8 9.10968e-05
6 *538:10 *1114:RESET_B 0.000118166
7 *538:10 *705:8 4.20662e-05
8 *1230:A *1199:A 0.000210014
9 *1230:A *538:10 0.000116971
10 *106:252 *868:B 2.16355e-05
11 *161:260 *868:B 6.08467e-05
*RES
1 *1114:Q *538:10 17.2744 
2 *538:10 *868:B 14.4725 
3 *538:10 *1199:A 22.263 
*END

*D_NET *539 0.000869344
*CONN
*I *866:B I *D sky130_fd_sc_hd__nand2_1
*I *1197:A I *D sky130_fd_sc_hd__clkdlybuf4s50_1
*I *1115:Q O *D sky130_fd_sc_hd__dfrtp_1
*CAP
1 *866:B 0.000205265
2 *1197:A 0
3 *1115:Q 0.000173992
4 *539:12 0.000379257
5 *866:A *866:B 9.38258e-05
6 *867:B *866:B 1.70053e-05
*RES
1 *1115:Q *539:12 22.1896 
2 *539:12 *1197:A 9.24915 
3 *539:12 *866:B 15.181 
*END

*D_NET *540 0.00194071
*CONN
*I *1196:A I *D sky130_fd_sc_hd__clkdlybuf4s50_1
*I *864:B I *D sky130_fd_sc_hd__nand2_1
*I *1116:Q O *D sky130_fd_sc_hd__dfrtp_1
*CAP
1 *1196:A 1.8878e-05
2 *864:B 8.47146e-05
3 *1116:Q 0.000507978
4 *540:14 0.00061157
5 *540:14 intr_gpio_o[2] 0
6 *540:14 tl_o[45] 1.43848e-05
7 *540:14 *1445:A 0.000134006
8 *540:14 *724:22 0.00029008
9 *842:B *540:14 2.41274e-06
10 *864:A *864:B 4.80635e-06
11 *864:A *1196:A 4.80635e-06
12 *106:224 *540:14 0.00011307
13 *106:230 *864:B 2.09985e-05
14 *106:230 *1196:A 5.58226e-05
15 *106:230 *540:14 2.15348e-05
16 *106:232 *864:B 5.56461e-05
*RES
1 *1116:Q *540:14 31.2321 
2 *540:14 *864:B 12.2151 
3 *540:14 *1196:A 10.4548 
*END

*D_NET *541 0.00473077
*CONN
*I *1195:A I *D sky130_fd_sc_hd__clkdlybuf4s50_1
*I *862:B I *D sky130_fd_sc_hd__nand2_1
*I *1117:Q O *D sky130_fd_sc_hd__dfrtp_1
*CAP
1 *1195:A 0.000199063
2 *862:B 0.000606063
3 *1117:Q 0.000726369
4 *541:10 0.00153149
5 *541:10 *1105:RESET_B 1.85244e-05
6 *541:10 *1112:CLK 1.36691e-05
7 *541:10 *1115:RESET_B 6.87915e-05
8 *541:10 *693:826 4.21171e-06
9 *862:A *862:B 0.000481213
10 *863:B *862:B 5.03748e-06
11 *867:A *1195:A 0.000114626
12 *867:A *541:10 0.000498011
13 *873:B *541:10 1.72464e-05
14 *161:244 *541:10 0
15 *528:8 *541:10 0.000446449
*RES
1 *1117:Q *541:10 32.3684 
2 *541:10 *862:B 23.7802 
3 *541:10 *1195:A 18.9382 
*END

*D_NET *542 0.00211098
*CONN
*I *830:A I *D sky130_fd_sc_hd__clkdlybuf4s50_1
*I *1056:B I *D sky130_fd_sc_hd__nand2_1
*I *1118:Q O *D sky130_fd_sc_hd__dfrtp_1
*CAP
1 *830:A 0.000197457
2 *1056:B 8.09729e-05
3 *1118:Q 0.000471344
4 *542:8 0.000749774
5 tl_o[43] *830:A 7.28994e-06
6 tl_o[43] *1056:B 3.16514e-05
7 *865:A *830:A 0.000208627
8 *1056:A *1056:B 1.03594e-05
9 *1057:B *830:A 0.000280847
10 *1057:B *1056:B 7.26606e-05
*RES
1 *1118:Q *542:8 20.0186 
2 *542:8 *1056:B 16.4116 
3 *542:8 *830:A 20.4599 
*END

*D_NET *544 0.00362052
*CONN
*I *796:A I *D sky130_fd_sc_hd__clkdlybuf4s50_1
*I *852:B I *D sky130_fd_sc_hd__nand2_1
*I *1119:Q O *D sky130_fd_sc_hd__dfrtp_1
*CAP
1 *796:A 0.000940427
2 *852:B 0
3 *1119:Q 0.000125782
4 *544:10 0.00106621
5 *796:A *840:B 0.000323143
6 *796:A *1126:RESET_B 0.000103412
7 *796:A *551:12 2.51196e-05
8 *544:10 *1125:RESET_B 0
9 *833:B *796:A 0.000138453
10 *841:B *796:A 0.000119987
11 *1058:A *796:A 0
12 *1059:A *796:A 2.40615e-05
13 *1060:A *796:A 0.000131075
14 *1060:B *796:A 0.000115859
15 *1119:D *544:10 2.65667e-05
16 *1126:D *796:A 2.95424e-06
17 *106:416 *796:A 1.03594e-05
18 *106:416 *544:10 0.000149244
19 *106:431 *796:A 0.000115976
20 *106:441 *796:A 0.000201887
*RES
1 *1119:Q *544:10 17.135 
2 *544:10 *852:B 13.7491 
3 *544:10 *796:A 38.2063 
*END

*D_NET *546 0.0026182
*CONN
*I *1443:A I *D sky130_fd_sc_hd__clkdlybuf4s50_1
*I *849:B I *D sky130_fd_sc_hd__nand2_1
*I *1120:Q O *D sky130_fd_sc_hd__dfrtp_1
*CAP
1 *1443:A 0.000261862
2 *849:B 0
3 *1120:Q 0.000549308
4 *546:10 0.00081117
5 *1443:A *1284:A 2.76794e-05
6 *1443:A *1494:A 0.000379954
7 *1443:A *724:22 5.04829e-06
8 *546:10 *1120:RESET_B 0.000133595
9 *546:10 *1120:CLK 7.13972e-05
10 *546:10 *1284:A 3.11022e-05
11 *546:10 *1494:A 0.000234081
12 *136:269 *546:10 0.000113002
*RES
1 *1120:Q *546:10 24.8967 
2 *546:10 *849:B 13.7491 
3 *546:10 *1443:A 21.8422 
*END

*D_NET *547 0.00188304
*CONN
*I *846:B I *D sky130_fd_sc_hd__nand2_1
*I *1444:A I *D sky130_fd_sc_hd__clkdlybuf4s50_1
*I *1121:Q O *D sky130_fd_sc_hd__dfrtp_1
*CAP
1 *846:B 0.000107094
2 *1444:A 0.000528932
3 *1121:Q 0.000160494
4 *547:6 0.00079652
5 *1121:D *1444:A 0.000153578
6 *106:108 *846:B 0.000129735
7 *106:112 *1444:A 6.68457e-06
8 *136:40 *846:B 0
*RES
1 *1121:Q *547:6 11.6364 
2 *547:6 *1444:A 27.1811 
3 *547:6 *846:B 20.9116 
*END

*D_NET *548 0.00185653
*CONN
*I *843:B I *D sky130_fd_sc_hd__nand2_1
*I *1445:A I *D sky130_fd_sc_hd__clkdlybuf4s50_1
*I *1122:Q O *D sky130_fd_sc_hd__dfrtp_1
*CAP
1 *843:B 0
2 *1445:A 0.000250436
3 *1122:Q 0.000251963
4 *548:10 0.000502398
5 *1445:A intr_gpio_o[2] 0
6 *1445:A *1284:A 0
7 *1445:A *724:22 0.000239177
8 *548:10 *1508:A 0.000118044
9 *548:10 *724:22 0.000325063
10 *844:A *548:10 3.54461e-05
11 *540:14 *1445:A 0.000134006
*RES
1 *1122:Q *548:10 21.0117 
2 *548:10 *1445:A 21.2876 
3 *548:10 *843:B 13.7491 
*END

*D_NET *549 0.00197821
*CONN
*I *1446:A I *D sky130_fd_sc_hd__clkdlybuf4s50_1
*I *840:B I *D sky130_fd_sc_hd__nand2_1
*I *1123:Q O *D sky130_fd_sc_hd__dfrtp_1
*CAP
1 *1446:A 0.000191162
2 *840:B 0.000481571
3 *1123:Q 0
4 *549:4 0.000672733
5 *796:A *840:B 0.000323143
6 *841:B *840:B 0.000250395
7 *1123:D *840:B 5.92039e-05
*RES
1 *1123:Q *549:4 9.24915 
2 *549:4 *840:B 29.0175 
3 *549:4 *1446:A 13.7342 
*END

*D_NET *550 0.00167727
*CONN
*I *837:B I *D sky130_fd_sc_hd__nand2_1
*I *1447:A I *D sky130_fd_sc_hd__clkdlybuf4s50_1
*I *1124:Q O *D sky130_fd_sc_hd__dfrtp_1
*CAP
1 *837:B 0
2 *1447:A 0.000406997
3 *1124:Q 0.00022327
4 *550:10 0.000630267
5 *1447:A tl_o[26] 8.95377e-06
6 *836:A *1447:A 4.88507e-05
7 *836:B *1447:A 2.14842e-06
8 *836:B *550:10 2.8103e-05
9 *837:A *1447:A 0.000113077
10 *838:A *1447:A 2.49771e-05
11 *106:401 *1447:A 1.03594e-05
12 *106:416 *1447:A 5.0587e-05
13 *106:416 *550:10 0.000129676
14 *136:40 *1447:A 0
*RES
1 *1124:Q *550:10 18.2442 
2 *550:10 *1447:A 20.8995 
3 *550:10 *837:B 13.7491 
*END

*D_NET *551 0.00178628
*CONN
*I *1448:A I *D sky130_fd_sc_hd__clkdlybuf4s50_1
*I *834:B I *D sky130_fd_sc_hd__nand2_1
*I *1125:Q O *D sky130_fd_sc_hd__dfrtp_1
*CAP
1 *1448:A 0.000291088
2 *834:B 0
3 *1125:Q 0.000204895
4 *551:12 0.000495983
5 *1448:A *1255:A 0.000502285
6 *1448:A *1257:A 0.000167479
7 *796:A *551:12 2.51196e-05
8 *1125:D *551:12 1.95129e-05
9 *106:441 *1448:A 6.95568e-05
10 *106:441 *551:12 1.03594e-05
*RES
1 *1125:Q *551:12 18.0072 
2 *551:12 *834:B 13.7491 
3 *551:12 *1448:A 23.5357 
*END

*D_NET *552 0.00137635
*CONN
*I *1449:A I *D sky130_fd_sc_hd__clkdlybuf4s50_1
*I *1059:B I *D sky130_fd_sc_hd__nand2_1
*I *1126:Q O *D sky130_fd_sc_hd__dfrtp_1
*CAP
1 *1449:A 0.000151982
2 *1059:B 0.000104367
3 *1126:Q 0.000365159
4 *552:8 0.000621508
5 *1059:B *1126:RESET_B 5.85383e-05
6 *1449:A *1126:RESET_B 4.89158e-05
7 *1058:A *552:8 2.58757e-05
*RES
1 *1126:Q *552:8 18.9094 
2 *552:8 *1059:B 16.4116 
3 *552:8 *1449:A 18.0727 
*END

*D_NET *553 0.0032607
*CONN
*I *831:B I *D sky130_fd_sc_hd__nand2_1
*I *1450:A I *D sky130_fd_sc_hd__clkdlybuf4s50_1
*I *1127:Q O *D sky130_fd_sc_hd__dfrtp_1
*CAP
1 *831:B 0.000583493
2 *1450:A 0.000420458
3 *1127:Q 0
4 *553:6 0.00100395
5 *1450:A tl_o[57] 0
6 *1450:A *1123:CLK 4.88955e-05
7 *1450:A *1128:RESET_B 0
8 *1450:A *709:107 0.000426709
9 *1450:A *709:113 0.000175689
10 *831:A *831:B 0.000518497
11 *1061:A *831:B 3.76645e-05
12 *1128:D *1450:A 4.53411e-05
*RES
1 *1127:Q *553:6 13.7491 
2 *553:6 *1450:A 26.9701 
3 *553:6 *831:B 25.0548 
*END

*D_NET *554 0.00137522
*CONN
*I *1451:A I *D sky130_fd_sc_hd__clkdlybuf4s50_1
*I *1062:B I *D sky130_fd_sc_hd__nand2_1
*I *1128:Q O *D sky130_fd_sc_hd__dfrtp_1
*CAP
1 *1451:A 0.000119806
2 *1062:B 0.000377415
3 *1128:Q 0
4 *554:4 0.000497221
5 *1062:B *1126:CLK 0.000192182
6 *1062:B *1128:RESET_B 2.52414e-06
7 *831:A *1062:B 5.03545e-06
8 *841:B *1062:B 0.000114594
9 *841:B *1451:A 6.64392e-05
10 *106:441 *1062:B 0
*RES
1 *1128:Q *554:4 9.24915 
2 *554:4 *1062:B 28.0116 
3 *554:4 *1451:A 12.2151 
*END

*D_NET *559 0.00123239
*CONN
*I *1452:A I *D sky130_fd_sc_hd__clkdlybuf4s50_1
*I *1070:B I *D sky130_fd_sc_hd__nand2_1
*I *1072:Q O *D sky130_fd_sc_hd__dfrtp_1
*CAP
1 *1452:A 0.000166115
2 *1070:B 9.73197e-05
3 *1072:Q 0.000233148
4 *559:14 0.000496583
5 *1452:A tl_o[17] 4.45999e-05
6 *559:14 *1263:A 7.34948e-06
7 *1070:A *1452:A 7.45068e-05
8 *1070:A *559:14 1.92758e-05
9 *1071:A *1070:B 1.24633e-05
10 *1071:A *1452:A 0
11 *400:12 *559:14 8.10238e-05
*RES
1 *1072:Q *559:14 18.8083 
2 *559:14 *1070:B 15.8376 
3 *559:14 *1452:A 18.3125 
*END

*D_NET *562 0.00223373
*CONN
*I *1453:A I *D sky130_fd_sc_hd__clkdlybuf4s50_1
*I *782:A I *D sky130_fd_sc_hd__clkinv_2
*I *1086:Q O *D sky130_fd_sc_hd__dfrtp_1
*CAP
1 *1453:A 0.000178384
2 *782:A 0.000299324
3 *1086:Q 0.000477709
4 *782:A cio_gpio_o[3] 6.38502e-06
5 *782:A *1292:A 0.000106178
6 *1453:A *693:464 0
7 *783:B *1453:A 0.000146888
8 *1223:A *1453:A 0.000263116
9 *1295:A *1453:A 2.10968e-05
10 *1523:A *782:A 0.000137714
11 *106:26 *1453:A 0.000130777
12 *106:93 *1453:A 0.000203042
13 *136:65 *1453:A 0.000263116
*RES
1 *1086:Q *782:A 33.1026 
2 *1086:Q *1453:A 36.4246 
*END

*D_NET *690 0.0497296
*CONN
*I *797:B I *D sky130_fd_sc_hd__nor2_1
*I *798:A2 I *D sky130_fd_sc_hd__a21oi_1
*I *1069:S I *D sky130_fd_sc_hd__mux2_1
*I *1068:S I *D sky130_fd_sc_hd__mux2_1
*I *802:A2 I *D sky130_fd_sc_hd__a21oi_1
*I *1066:B I *D sky130_fd_sc_hd__nor2_1
*I *1067:A2 I *D sky130_fd_sc_hd__a21oi_1
*I *808:B I *D sky130_fd_sc_hd__nor2_1
*I *809:A2 I *D sky130_fd_sc_hd__a21oi_1
*I *801:B I *D sky130_fd_sc_hd__nor2_1
*I *812:A2 I *D sky130_fd_sc_hd__a21oi_1
*I *811:B I *D sky130_fd_sc_hd__nor2_1
*I *804:A2 I *D sky130_fd_sc_hd__a21oi_1
*I *803:B I *D sky130_fd_sc_hd__nor2_1
*I *821:A2 I *D sky130_fd_sc_hd__a21oi_1
*I *820:B I *D sky130_fd_sc_hd__nor2_1
*I *824:A2 I *D sky130_fd_sc_hd__a21oi_1
*I *823:B I *D sky130_fd_sc_hd__nor2_1
*I *818:A2 I *D sky130_fd_sc_hd__a21oi_1
*I *817:B I *D sky130_fd_sc_hd__nor2_1
*I *1065:S I *D sky130_fd_sc_hd__mux2_1
*I *799:S I *D sky130_fd_sc_hd__mux2_1
*I *815:A2 I *D sky130_fd_sc_hd__a21oi_1
*I *814:B I *D sky130_fd_sc_hd__nor2_1
*I *805:B I *D sky130_fd_sc_hd__nor2_1
*I *806:A2 I *D sky130_fd_sc_hd__a21oi_1
*I *827:S I *D sky130_fd_sc_hd__mux2_1
*I *826:S I *D sky130_fd_sc_hd__mux2_1
*I *1064:S I *D sky130_fd_sc_hd__mux2_1
*I *825:S I *D sky130_fd_sc_hd__mux2_1
*I *800:S I *D sky130_fd_sc_hd__mux2_1
*I *1454:X O *D sky130_fd_sc_hd__buf_4
*CAP
1 *797:B 0
2 *798:A2 2.34926e-05
3 *1069:S 0
4 *1068:S 0.000106916
5 *802:A2 0
6 *1066:B 0.000669556
7 *1067:A2 0
8 *808:B 1.59994e-05
9 *809:A2 0
10 *801:B 6.83437e-05
11 *812:A2 0
12 *811:B 2.12792e-05
13 *804:A2 0
14 *803:B 0.000344495
15 *821:A2 1.59738e-05
16 *820:B 9.11983e-05
17 *824:A2 1.04217e-05
18 *823:B 7.38329e-05
19 *818:A2 0.000308777
20 *817:B 5.0761e-05
21 *1065:S 9.88732e-05
22 *799:S 2.53871e-05
23 *815:A2 0
24 *814:B 3.14959e-05
25 *805:B 0.000149546
26 *806:A2 8.45852e-05
27 *827:S 0
28 *826:S 0.000216541
29 *1064:S 0
30 *825:S 0.000184241
31 *800:S 0.000237631
32 *1454:X 8.40197e-05
33 *690:427 0.000263167
34 *690:376 0.0012472
35 *690:366 0.000635714
36 *690:350 0.000854992
37 *690:338 0.00101481
38 *690:325 0.000357347
39 *690:319 0.00094214
40 *690:285 0.000344495
41 *690:267 0.000212232
42 *690:245 0.000478379
43 *690:237 0.00084022
44 *690:235 0.000454584
45 *690:209 0.000922379
46 *690:192 0.000983113
47 *690:186 0.000474406
48 *690:184 0.000577351
49 *690:166 0.00208357
50 *690:152 0.0023597
51 *690:146 0.000231246
52 *690:99 0.000419755
53 *690:97 0.000532497
54 *690:93 0.00152566
55 *690:76 0.00141551
56 *690:59 0.000836167
57 *690:39 0.000775173
58 *690:16 0.000935117
59 *690:14 0.000858846
60 *690:12 0.000844971
61 *690:8 0.000818349
62 *690:6 0.000557874
63 *800:S *1294:A 0.000163492
64 *805:B *1186:RESET_B 3.46025e-05
65 *817:B *1168:RESET_B 5.88928e-05
66 *817:B *1168:CLK 0.00021217
67 *818:A2 *1169:RESET_B 3.51113e-05
68 *818:A2 *1169:CLK 0.000168253
69 *818:A2 *692:281 4.3116e-06
70 *825:S *1132:RESET_B 0.000162697
71 *825:S *699:37 4.97731e-05
72 *826:S *691:39 4.58003e-05
73 *1066:B *1283:A 0.000225041
74 *1066:B *705:8 0
75 *1066:B *705:10 0
76 *690:6 *734:16 0.000218833
77 *690:8 *734:16 0.000335964
78 *690:14 *698:12 8.62625e-06
79 *690:16 *698:12 9.24241e-05
80 *690:59 *691:35 5.35462e-05
81 *690:59 *691:39 3.79207e-05
82 *690:76 *691:56 3.5729e-05
83 *690:93 *1129:RESET_B 0.00010542
84 *690:93 *692:28 0.000407291
85 *690:97 *1186:RESET_B 1.24886e-05
86 *690:97 *692:28 9.03508e-06
87 *690:99 *1186:RESET_B 3.13487e-05
88 *690:99 *693:10 4.88645e-05
89 *690:146 *734:16 1.64789e-05
90 *690:152 *693:126 0.0001261
91 *690:166 *1144:CLK 0.000146986
92 *690:166 *1162:RESET_B 2.63292e-05
93 *690:166 *1162:CLK 8.34801e-05
94 *690:192 *1173:RESET_B 1.75176e-05
95 *690:192 *692:241 6.60603e-05
96 *690:192 *702:87 0.000159894
97 *690:209 *1136:RESET_B 0
98 *690:209 *1169:CLK 0.00029304
99 *690:209 *1170:RESET_B 0
100 *690:209 *692:274 7.35244e-05
101 *690:209 *702:51 0.000419247
102 *690:209 *702:55 0.000174221
103 *690:209 *702:81 0.00014847
104 *690:209 *702:87 5.46907e-05
105 *690:235 *692:241 7.98033e-05
106 *690:237 *1104:CLK 0
107 *690:237 *693:253 0
108 *690:245 *693:253 0
109 *690:245 *693:255 0
110 *690:245 *696:12 4.0752e-05
111 *690:245 *696:20 2.36813e-05
112 *690:245 *696:72 4.2372e-05
113 *690:245 *696:85 1.59525e-05
114 *690:319 *1148:RESET_B 0.0003949
115 *690:319 *691:195 0.000172391
116 *690:319 *691:290 8.10894e-05
117 *690:319 *693:126 9.06837e-05
118 *690:319 *693:136 7.57756e-05
119 *690:325 *739:12 1.03594e-05
120 *690:338 *739:12 0.000267557
121 *690:350 *1140:RESET_B 0.000200168
122 *690:366 *739:12 0.000112148
123 *766:A *690:93 2.20471e-05
124 *767:A2 *800:S 0.000110458
125 *768:A2 *690:93 5.69757e-05
126 *770:B1 *690:93 0.000221251
127 *770:B2 *690:93 5.69761e-05
128 *798:B1 *798:A2 0.000112228
129 *802:A1 *690:376 6.08467e-05
130 *802:B1 *801:B 2.41274e-06
131 *802:B1 *690:338 2.29287e-05
132 *803:A *803:B 1.87928e-05
133 *804:A1 *803:B 6.08467e-05
134 *804:B1 *803:B 0.000265476
135 *806:A1 *806:A2 0.000353694
136 *809:B1 *808:B 9.90203e-05
137 *809:B1 *690:350 0.000168313
138 *810:A *690:166 3.39578e-05
139 *811:A *1065:S 7.58194e-05
140 *812:A1 *690:166 9.81288e-06
141 *812:A1 *690:184 3.23546e-05
142 *812:B1 *690:166 7.62098e-06
143 *812:B1 *690:184 0.000671645
144 *812:B1 *690:186 7.01935e-06
145 *815:B1 *690:97 0.000209869
146 *818:A1 *818:A2 6.78549e-05
147 *820:A *820:B 1.4106e-05
148 *821:B1 *820:B 4.66889e-05
149 *824:A1 *690:245 0.000305881
150 *824:B1 *823:B 5.56461e-05
151 *826:A0 *690:76 0
152 *827:A0 *690:93 1.03403e-05
153 *885:B *798:A2 4.66121e-05
154 *895:B *690:427 0.000118017
155 *903:A *690:376 5.32194e-05
156 *904:B *1066:B 0.000262202
157 *904:B *690:376 9.12416e-06
158 *907:A2 *690:350 0.000104802
159 *909:A1 *690:166 1.4106e-05
160 *911:A1 *690:93 1.80303e-05
161 *916:A1 *825:S 7.45365e-06
162 *921:A1 *825:S 0.000137934
163 *926:A1 *690:76 0.00031669
164 *931:B1 *690:39 0.000623686
165 *932:A1 *690:39 4.19199e-05
166 *932:A2 *800:S 1.44467e-05
167 *932:A2 *690:14 7.61493e-05
168 *932:A2 *690:16 8.68133e-05
169 *932:A2 *690:39 0.000111722
170 *932:B1 *690:39 4.39461e-05
171 *936:A2 *690:12 9.60366e-05
172 *938:A3 *690:12 3.30805e-05
173 *943:A *690:427 7.1621e-05
174 *948:A2 *690:12 0.000176454
175 *953:B *800:S 9.03209e-05
176 *954:A2 *799:S 1.41976e-05
177 *954:A2 *690:12 5.92342e-05
178 *954:A2 *690:14 0.000312023
179 *961:A1 *825:S 1.72644e-05
180 *966:B *690:427 7.62543e-05
181 *968:A1 *799:S 6.08467e-05
182 *1032:B1 *690:325 6.49514e-05
183 *1032:B1 *690:338 1.74663e-05
184 *1049:B *690:12 1.41761e-05
185 *1065:A1 *1065:S 4.5332e-05
186 *1065:A1 *690:209 1.81863e-06
187 *1066:A *1066:B 6.68457e-06
188 *1067:B1 *1066:B 8.93709e-05
189 *1068:A1 *1068:S 4.36956e-05
190 *1068:A1 *690:319 0.000273839
191 *1068:A1 *690:325 4.47179e-05
192 *1069:A0 *690:146 1.94997e-06
193 *1069:A0 *690:152 2.41483e-05
194 *1069:A1 *690:146 0.00015511
195 *1069:A1 *690:152 6.92705e-05
196 *1108:D *1066:B 3.77804e-05
197 *1111:D *690:350 0
198 *1133:D *823:B 6.78549e-05
199 *1133:D *824:A2 4.58907e-05
200 *1133:D *690:245 2.66556e-05
201 *1140:D *1066:B 4.07765e-05
202 *1140:D *690:376 4.49912e-05
203 *1142:D *803:B 2.64162e-05
204 *1142:D *690:235 4.70104e-05
205 *1142:D *690:237 0.000714072
206 *1142:D *690:245 0.000175396
207 *1143:D *690:338 8.01687e-05
208 *1143:D *690:366 0.000103522
209 *1162:D *690:166 3.25052e-05
210 *1174:D *690:237 0.0001682
211 *1219:A *820:B 0.00031194
212 *1219:A *690:267 0.00030843
213 *1221:A *823:B 6.49003e-05
214 *1226:A *690:184 0.000199511
215 *1226:A *690:186 2.84892e-05
216 *1226:A *690:192 3.23874e-05
217 *1228:A *1066:B 2.48716e-05
218 *1245:A *690:93 4.53337e-05
219 *1246:A *690:6 0.000617942
220 *1246:A *690:8 6.50727e-05
221 *1454:A *690:6 0.00011818
222 *1455:A *690:166 3.25052e-05
223 *1457:A *805:B 0.000109427
224 *1457:A *806:A2 0.000350336
225 *84:14 *690:427 1.64983e-05
226 *88:8 *690:350 0.000144734
227 *88:31 *690:350 0
228 *106:146 *808:B 0.000114523
229 *106:146 *690:350 0.000267404
230 *106:150 *690:376 0.000232973
231 *106:503 *826:S 1.40978e-05
232 *106:503 *690:59 4.22777e-05
233 *128:8 *690:93 6.27718e-05
234 *128:8 *690:97 2.43327e-05
235 *161:96 *690:350 1.43983e-05
236 *175:48 *690:235 0
237 *175:48 *690:237 0
238 *175:71 *690:235 0
239 *184:6 *690:376 0.000447989
240 *228:24 *800:S 8.3179e-05
241 *228:24 *690:12 0.000408969
242 *228:24 *690:14 0.000791424
243 *228:24 *690:16 0.00027839
244 *228:73 *800:S 1.65872e-05
245 *228:135 *690:12 0.000559848
246 *313:10 *690:427 0.000169528
247 *327:29 *690:93 0
248 *378:8 *690:237 7.34661e-05
249 *383:14 *690:152 0
250 *383:14 *690:319 0
251 *384:14 *690:76 1.83992e-05
252 *384:14 *690:93 5.70034e-06
253 *420:6 *690:8 0.00048572
254 *420:6 *690:146 5.51483e-06
255 *430:22 *805:B 6.27718e-05
256 *437:14 *817:B 0.000110297
257 *437:14 *818:A2 1.09738e-05
258 *437:14 *690:209 0.000192134
259 *459:55 *690:12 3.57202e-05
260 *459:59 *690:14 1.64597e-05
261 *459:61 *690:14 0.00011459
262 *522:6 *690:184 0.000178053
*RES
1 *1454:X *690:6 16.0732 
2 *690:6 *690:8 9.59705 
3 *690:8 *690:12 23.7726 
4 *690:12 *690:14 14.7048 
5 *690:14 *690:16 5.15401 
6 *690:16 *800:S 21.803 
7 *690:16 *690:39 20.2218 
8 *690:39 *825:S 25.0642 
9 *690:39 *1064:S 9.24915 
10 *690:14 *690:59 10.7694 
11 *690:59 *826:S 13.0349 
12 *690:59 *690:76 15.2927 
13 *690:76 *827:S 9.24915 
14 *690:76 *690:93 33.9159 
15 *690:93 *690:97 5.59426 
16 *690:97 *690:99 2.94181 
17 *690:99 *806:A2 24.2337 
18 *690:99 *805:B 13.3484 
19 *690:97 *814:B 10.2378 
20 *690:93 *815:A2 9.24915 
21 *690:12 *799:S 14.4725 
22 *690:8 *690:146 3.37585 
23 *690:146 *690:152 8.57985 
24 *690:152 *690:166 38.9095 
25 *690:166 *690:184 21.0508 
26 *690:184 *690:186 1.278 
27 *690:186 *690:192 13.1476 
28 *690:192 *1065:S 16.8764 
29 *690:192 *690:209 21.0069 
30 *690:209 *817:B 16.7151 
31 *690:209 *818:A2 21.8478 
32 *690:186 *690:235 7.993 
33 *690:235 *690:237 13.0438 
34 *690:237 *690:245 17.3299 
35 *690:245 *823:B 12.7938 
36 *690:245 *824:A2 10.5271 
37 *690:237 *690:267 7.99641 
38 *690:267 *820:B 13.3243 
39 *690:267 *821:A2 9.82786 
40 *690:235 *690:285 4.5 
41 *690:285 *803:B 16.5554 
42 *690:285 *804:A2 9.24915 
43 *690:184 *811:B 9.82786 
44 *690:166 *812:A2 9.24915 
45 *690:152 *690:319 26.2641 
46 *690:319 *690:325 8.9951 
47 *690:325 *801:B 15.2053 
48 *690:325 *690:338 4.73876 
49 *690:338 *690:350 29.3953 
50 *690:350 *809:A2 9.24915 
51 *690:350 *808:B 10.5271 
52 *690:338 *690:366 6.74725 
53 *690:366 *690:376 16.256 
54 *690:376 *1067:A2 13.7491 
55 *690:376 *1066:B 39.8756 
56 *690:366 *802:A2 9.24915 
57 *690:319 *1068:S 12.0704 
58 *690:146 *1069:S 9.24915 
59 *690:6 *690:427 16.9631 
60 *690:427 *798:A2 10.5271 
61 *690:427 *797:B 9.24915 
*END

*D_NET *692 0.0391048
*CONN
*I *1163:RESET_B I *D sky130_fd_sc_hd__dfrtp_1
*I *1164:RESET_B I *D sky130_fd_sc_hd__dfrtp_1
*I *1075:RESET_B I *D sky130_fd_sc_hd__dfrtp_1
*I *1171:RESET_B I *D sky130_fd_sc_hd__dfrtp_1
*I *1166:RESET_B I *D sky130_fd_sc_hd__dfrtp_1
*I *1172:RESET_B I *D sky130_fd_sc_hd__dfrtp_1
*I *1160:RESET_B I *D sky130_fd_sc_hd__dfrtp_1
*I *1074:RESET_B I *D sky130_fd_sc_hd__dfrtp_1
*I *1174:RESET_B I *D sky130_fd_sc_hd__dfrtp_1
*I *1169:RESET_B I *D sky130_fd_sc_hd__dfrtp_1
*I *1168:RESET_B I *D sky130_fd_sc_hd__dfrtp_1
*I *1167:RESET_B I *D sky130_fd_sc_hd__dfrtp_1
*I *1170:RESET_B I *D sky130_fd_sc_hd__dfrtp_1
*I *1173:RESET_B I *D sky130_fd_sc_hd__dfrtp_1
*I *1161:RESET_B I *D sky130_fd_sc_hd__dfrtp_1
*I *1175:RESET_B I *D sky130_fd_sc_hd__dfrtp_1
*I *1183:RESET_B I *D sky130_fd_sc_hd__dfrtp_1
*I *1182:RESET_B I *D sky130_fd_sc_hd__dfrtp_1
*I *1181:RESET_B I *D sky130_fd_sc_hd__dfrtp_1
*I *1179:RESET_B I *D sky130_fd_sc_hd__dfrtp_1
*I *1165:RESET_B I *D sky130_fd_sc_hd__dfrtp_1
*I *1076:RESET_B I *D sky130_fd_sc_hd__dfrtp_1
*I *1162:RESET_B I *D sky130_fd_sc_hd__dfrtp_1
*I *1176:RESET_B I *D sky130_fd_sc_hd__dfrtp_1
*I *1185:RESET_B I *D sky130_fd_sc_hd__dfrtp_1
*I *1184:RESET_B I *D sky130_fd_sc_hd__dfrtp_1
*I *1187:RESET_B I *D sky130_fd_sc_hd__dfrtp_1
*I *1180:RESET_B I *D sky130_fd_sc_hd__dfrtp_1
*I *1178:RESET_B I *D sky130_fd_sc_hd__dfrtp_1
*I *1073:RESET_B I *D sky130_fd_sc_hd__dfrtp_1
*I *1177:RESET_B I *D sky130_fd_sc_hd__dfrtp_1
*I *1186:RESET_B I *D sky130_fd_sc_hd__dfrtp_1
*I *1456:X O *D sky130_fd_sc_hd__buf_4
*CAP
1 *1163:RESET_B 9.66138e-05
2 *1164:RESET_B 0.000438745
3 *1075:RESET_B 0.000538409
4 *1171:RESET_B 0.000277351
5 *1166:RESET_B 0.000622079
6 *1172:RESET_B 0.000711189
7 *1160:RESET_B 0.000124578
8 *1074:RESET_B 0.00010407
9 *1174:RESET_B 0.000139685
10 *1169:RESET_B 0.000356719
11 *1168:RESET_B 0.000248622
12 *1167:RESET_B 0
13 *1170:RESET_B 0.000537822
14 *1173:RESET_B 0.000781665
15 *1161:RESET_B 0.000325863
16 *1175:RESET_B 7.79987e-05
17 *1183:RESET_B 0.00018185
18 *1182:RESET_B 0.000183308
19 *1181:RESET_B 0
20 *1179:RESET_B 0.000157866
21 *1165:RESET_B 0.000539341
22 *1076:RESET_B 0.000190129
23 *1162:RESET_B 4.97264e-05
24 *1176:RESET_B 0.00052708
25 *1185:RESET_B 0.000164602
26 *1184:RESET_B 0.000425777
27 *1187:RESET_B 0
28 *1180:RESET_B 0.00118954
29 *1178:RESET_B 5.05087e-05
30 *1073:RESET_B 0.000766844
31 *1177:RESET_B 6.54283e-05
32 *1186:RESET_B 0.00122468
33 *1456:X 0.000146481
34 *692:351 0.000630951
35 *692:281 0.000723707
36 *692:274 0.000391241
37 *692:241 0.00108556
38 *692:227 0.00129912
39 *692:221 0.00110369
40 *692:217 0.000812197
41 *692:198 0.000462711
42 *692:189 0.000366028
43 *692:145 0.000699371
44 *692:135 0.000911616
45 *692:98 0.000557021
46 *692:87 0.000954338
47 *692:40 0.00073519
48 *692:38 0.000639469
49 *692:28 0.000786501
50 *692:12 0.00117603
51 *1073:RESET_B *1178:CLK 0.000165521
52 *1074:RESET_B *697:99 3.30132e-05
53 *1075:RESET_B *1166:CLK 0.0001195
54 *1075:RESET_B *703:52 8.02374e-05
55 *1076:RESET_B *1076:CLK 1.02497e-05
56 *1160:RESET_B *703:58 0
57 *1160:RESET_B *703:73 0
58 *1161:RESET_B *702:87 2.58616e-05
59 *1164:RESET_B *1164:CLK 1.84673e-05
60 *1168:RESET_B *1168:CLK 0.000312203
61 *1172:RESET_B *703:46 5.77377e-05
62 *1173:RESET_B *702:81 8.62625e-06
63 *1173:RESET_B *702:87 0.000211728
64 *1174:RESET_B *1104:CLK 1.83116e-05
65 *1176:RESET_B *1073:CLK 2.28919e-05
66 *1180:RESET_B *697:45 0
67 *1182:RESET_B *1182:CLK 7.25074e-05
68 *1182:RESET_B *1183:CLK 5.62568e-05
69 *1182:RESET_B *696:44 8.76374e-05
70 *1183:RESET_B *1183:CLK 5.04829e-06
71 *1186:RESET_B *693:10 0.000110458
72 *692:28 *1095:RESET_B 2.74189e-05
73 *692:87 *1186:CLK 1.43698e-05
74 *692:87 *694:8 0.000263038
75 *692:87 *694:48 0.000250013
76 *692:98 *1185:CLK 0.000240111
77 *692:98 *694:48 0.000108748
78 *692:135 *1191:CLK 0
79 *692:135 *697:78 3.00174e-06
80 *692:135 *697:93 7.40509e-05
81 *692:145 *1138:RESET_B 1.48325e-05
82 *692:241 *1136:RESET_B 0
83 *692:241 *696:85 0.000138395
84 *747:B *1075:RESET_B 0.000115406
85 *753:A *692:217 2.19131e-05
86 *753:B *1176:RESET_B 5.88662e-05
87 *753:B *692:217 0
88 *754:B1 *692:217 0.000174175
89 *761:A *692:135 4.15201e-05
90 *762:B1 *692:135 0
91 *805:B *1186:RESET_B 3.46025e-05
92 *814:A *1186:RESET_B 0.000114584
93 *814:A *692:12 0.000140689
94 *815:B1 *1186:RESET_B 3.95326e-05
95 *817:B *1168:RESET_B 5.88928e-05
96 *818:A2 *1169:RESET_B 3.51113e-05
97 *818:A2 *692:281 4.3116e-06
98 *818:B1 *1168:RESET_B 0.000314112
99 *819:A *692:227 3.20544e-05
100 *821:A1 *1175:RESET_B 2.22749e-05
101 *821:A1 *692:227 1.58236e-05
102 *822:A *692:189 0
103 *824:A1 *692:198 9.43419e-05
104 *891:A1 *692:227 7.53632e-05
105 *891:A2 *692:227 5.20546e-06
106 *891:B1 *692:227 3.13704e-05
107 *909:A1 *1075:RESET_B 0
108 *909:A1 *1160:RESET_B 0.000127179
109 *909:A1 *1166:RESET_B 0
110 *911:A1 *692:28 0.000709075
111 *970:A *1164:RESET_B 1.25799e-05
112 *971:A *1165:RESET_B 3.74738e-05
113 *971:A *692:145 4.17017e-05
114 *976:A *1076:RESET_B 4.80635e-06
115 *980:B *692:145 0.000141958
116 *983:A2 *1165:RESET_B 2.65667e-05
117 *984:B1 *1165:RESET_B 2.98157e-05
118 *995:A *692:98 0
119 *998:A1 *692:98 0
120 *1020:A1 *1171:RESET_B 1.86908e-05
121 *1023:B *1180:RESET_B 3.3442e-05
122 *1040:B *692:221 1.19726e-05
123 *1043:B *1075:RESET_B 5.92342e-05
124 *1044:B1 *1075:RESET_B 0
125 *1065:A1 *1170:RESET_B 0
126 *1065:A1 *1173:RESET_B 6.50727e-05
127 *1076:D *1076:RESET_B 0.000102658
128 *1095:D *692:28 5.3633e-05
129 *1104:D *692:227 6.27718e-05
130 *1135:D *1169:RESET_B 7.28994e-06
131 *1137:D *1186:RESET_B 2.08133e-05
132 *1137:D *692:28 1.50924e-05
133 *1142:D *692:241 0.000572471
134 *1152:D *1177:RESET_B 0.00015441
135 *1158:D *1186:RESET_B 1.03403e-05
136 *1164:D *1164:RESET_B 8.87149e-05
137 *1165:D *1160:RESET_B 3.94956e-05
138 *1165:D *1166:RESET_B 4.89548e-05
139 *1165:D *692:351 0.000140361
140 *1166:D *1166:RESET_B 7.89002e-05
141 *1169:D *1169:RESET_B 0.000536767
142 *1169:D *692:274 3.55179e-05
143 *1169:D *692:281 0.000413155
144 *1170:D *1170:RESET_B 4.21512e-05
145 *1170:D *692:274 7.23391e-05
146 *1171:D *1171:RESET_B 2.89271e-05
147 *1173:D *1170:RESET_B 2.692e-05
148 *1173:D *1173:RESET_B 0.00011462
149 *1174:D *1175:RESET_B 7.01935e-06
150 *1174:D *692:227 5.20167e-05
151 *1176:D *692:217 4.00463e-05
152 *1177:D *1180:RESET_B 1.62054e-05
153 *1177:D *692:38 5.9598e-05
154 *1178:D *1073:RESET_B 9.95542e-06
155 *1179:D *1179:RESET_B 4.40158e-05
156 *1179:D *1180:RESET_B 5.297e-05
157 *1181:D *1182:RESET_B 0.000157346
158 *1183:D *1183:RESET_B 4.57151e-05
159 *1185:D *1185:RESET_B 2.65667e-05
160 *1185:D *692:98 1.82696e-05
161 *1185:D *692:189 0
162 *1186:D *692:87 6.27718e-05
163 *1191:RESET_B *692:135 0
164 *1227:A *692:12 0.000162131
165 *1457:A *1186:RESET_B 0.000109427
166 *97:12 *1180:RESET_B 0.000148754
167 *97:18 *1180:RESET_B 0.0002212
168 *101:12 *1180:RESET_B 2.15266e-05
169 *102:12 *1180:RESET_B 0.000146645
170 *128:8 *692:28 6.75398e-05
171 *134:12 *692:189 0
172 *161:163 *1171:RESET_B 0.000198319
173 *175:26 *1183:RESET_B 5.37479e-05
174 *175:71 *1170:RESET_B 0
175 *175:71 *692:274 0
176 *239:10 *692:351 0
177 *243:10 *1165:RESET_B 0.000101133
178 *243:10 *692:145 0.000183213
179 *271:6 *1171:RESET_B 5.03013e-06
180 *314:26 *692:135 2.69306e-06
181 *314:26 *692:145 1.25698e-05
182 *327:6 *1177:RESET_B 6.08467e-05
183 *327:14 *692:28 0.00050389
184 *327:29 *692:28 0
185 *381:50 *1179:RESET_B 3.18216e-05
186 *381:50 *692:135 0.000164002
187 *430:22 *1186:RESET_B 0.000168343
188 *437:14 *1168:RESET_B 0.000210067
189 *437:14 *692:274 8.23577e-05
190 *437:14 *692:281 0.00037675
191 *527:16 *692:221 0.000200955
192 *527:16 *692:227 0.00056556
193 *577:12 *1184:RESET_B 2.11607e-05
194 *577:12 *1185:RESET_B 4.89898e-06
195 *577:12 *692:98 6.28402e-05
196 *579:10 *1186:RESET_B 9.50523e-05
197 *584:8 *1073:RESET_B 1.9791e-05
198 *589:10 *1180:RESET_B 0
199 *589:10 *692:38 0
200 *589:28 *1180:RESET_B 0
201 *589:41 *1180:RESET_B 0
202 *594:10 *1074:RESET_B 6.09513e-05
203 *594:10 *692:217 0.000279553
204 *596:12 *1074:RESET_B 0.000177496
205 *596:12 *692:217 5.2153e-05
206 *603:14 *1172:RESET_B 0.000110458
207 *604:8 *1171:RESET_B 2.58757e-05
208 *615:6 *1165:RESET_B 7.16754e-05
209 *619:14 *1161:RESET_B 7.99666e-05
210 *619:14 *1171:RESET_B 0.000155189
211 *625:45 *692:135 0
212 *690:93 *692:28 0.000407291
213 *690:97 *1186:RESET_B 1.24886e-05
214 *690:97 *692:28 9.03508e-06
215 *690:99 *1186:RESET_B 3.13487e-05
216 *690:166 *1162:RESET_B 2.63292e-05
217 *690:192 *1173:RESET_B 1.75176e-05
218 *690:192 *692:241 6.60603e-05
219 *690:209 *1170:RESET_B 0
220 *690:209 *692:274 7.35244e-05
221 *690:235 *692:241 7.98033e-05
222 *691:98 *1176:RESET_B 5.53934e-05
223 *691:118 *692:217 0
224 *691:310 *692:351 0.000107248
225 *691:332 *1166:RESET_B 1.0509e-05
226 *691:332 *692:351 5.45757e-05
*RES
1 *1456:X *692:12 22.6049 
2 *692:12 *1186:RESET_B 14.5282 
3 *692:12 *692:28 25.7687 
4 *692:28 *1177:RESET_B 6.80281 
5 *692:28 *692:38 5.15401 
6 *692:38 *692:40 4.5 
7 *692:40 *1073:RESET_B 10.8148 
8 *692:40 *1178:RESET_B 1.21772 
9 *692:38 *1180:RESET_B 18.4476 
10 *1186:RESET_B *692:87 20.9404 
11 *692:87 *1187:RESET_B 4.5 
12 *692:87 *692:98 12.4631 
13 *692:98 *1184:RESET_B 3.41202 
14 *692:98 *1185:RESET_B 3.41202 
15 *1073:RESET_B *1176:RESET_B 11.8862 
16 *1180:RESET_B *692:135 19.1527 
17 *692:135 *1162:RESET_B 5.6936 
18 *692:135 *692:145 7.23027 
19 *692:145 *1076:RESET_B 9.04534 
20 *692:145 *1165:RESET_B 10.8532 
21 *1180:RESET_B *1179:RESET_B 13.1589 
22 *1184:RESET_B *692:189 11.315 
23 *692:189 *1181:RESET_B 4.5 
24 *692:189 *692:198 7.1625 
25 *692:198 *1182:RESET_B 5.63043 
26 *692:198 *1183:RESET_B 4.52122 
27 *1176:RESET_B *692:217 16.298 
28 *692:217 *692:221 8.55102 
29 *692:221 *692:227 14.2268 
30 *692:227 *1175:RESET_B 1.74821 
31 *692:227 *692:241 20.9391 
32 *692:241 *1161:RESET_B 11.7942 
33 *692:241 *1173:RESET_B 12.0962 
34 *1173:RESET_B *1170:RESET_B 15.815 
35 *1170:RESET_B *692:274 12.8114 
36 *692:274 *1167:RESET_B 4.5 
37 *692:274 *692:281 7.23027 
38 *692:281 *1168:RESET_B 15.1942 
39 *692:281 *1169:RESET_B 15.6941 
40 *692:221 *1174:RESET_B 12.0256 
41 *692:217 *1074:RESET_B 8.24367 
42 *1165:RESET_B *1160:RESET_B 12.4409 
43 *1165:RESET_B *692:351 10.8998 
44 *692:351 *1172:RESET_B 9.04534 
45 *692:351 *1166:RESET_B 10.8476 
46 *1173:RESET_B *1171:RESET_B 17.4483 
47 *1172:RESET_B *1075:RESET_B 23.3628 
48 *1166:RESET_B *1164:RESET_B 6.65524 
49 *1164:RESET_B *1163:RESET_B 11.2472 
*END

*D_NET *693 0.0681197
*CONN
*I *1109:RESET_B I *D sky130_fd_sc_hd__dfrtp_1
*I *1135:RESET_B I *D sky130_fd_sc_hd__dfrtp_1
*I *1117:RESET_B I *D sky130_fd_sc_hd__dfrtp_1
*I *1115:RESET_B I *D sky130_fd_sc_hd__dfrtp_1
*I *1105:RESET_B I *D sky130_fd_sc_hd__dfrtp_1
*I *1112:RESET_B I *D sky130_fd_sc_hd__dfrtp_1
*I *1127:RESET_B I *D sky130_fd_sc_hd__dfrtp_1
*I *1114:RESET_B I *D sky130_fd_sc_hd__dfrtp_1
*I *1120:RESET_B I *D sky130_fd_sc_hd__dfrtp_1
*I *1140:RESET_B I *D sky130_fd_sc_hd__dfrtp_1
*I *1108:RESET_B I *D sky130_fd_sc_hd__dfrtp_1
*I *1118:RESET_B I *D sky130_fd_sc_hd__dfrtp_1
*I *1122:RESET_B I *D sky130_fd_sc_hd__dfrtp_1
*I *1116:RESET_B I *D sky130_fd_sc_hd__dfrtp_1
*I *1096:RESET_B I *D sky130_fd_sc_hd__dfrtp_1
*I *1143:RESET_B I *D sky130_fd_sc_hd__dfrtp_1
*I *1110:RESET_B I *D sky130_fd_sc_hd__dfrtp_1
*I *1113:RESET_B I *D sky130_fd_sc_hd__dfrtp_1
*I *1098:RESET_B I *D sky130_fd_sc_hd__dfrtp_1
*I *1101:RESET_B I *D sky130_fd_sc_hd__dfrtp_1
*I *1126:RESET_B I *D sky130_fd_sc_hd__dfrtp_1
*I *1139:RESET_B I *D sky130_fd_sc_hd__dfrtp_1
*I *1128:RESET_B I *D sky130_fd_sc_hd__dfrtp_1
*I *1123:RESET_B I *D sky130_fd_sc_hd__dfrtp_1
*I *1089:RESET_B I *D sky130_fd_sc_hd__dfrtp_1
*I *1107:RESET_B I *D sky130_fd_sc_hd__dfrtp_1
*I *1097:RESET_B I *D sky130_fd_sc_hd__dfrtp_1
*I *1125:RESET_B I *D sky130_fd_sc_hd__dfrtp_1
*I *1119:RESET_B I *D sky130_fd_sc_hd__dfrtp_1
*I *1124:RESET_B I *D sky130_fd_sc_hd__dfrtp_1
*I *1121:RESET_B I *D sky130_fd_sc_hd__dfrtp_1
*I *1090:RESET_B I *D sky130_fd_sc_hd__dfrtp_1
*I *1072:RESET_B I *D sky130_fd_sc_hd__dfrtp_1
*I *1092:RESET_B I *D sky130_fd_sc_hd__dfrtp_1
*I *1094:RESET_B I *D sky130_fd_sc_hd__dfrtp_1
*I *1093:RESET_B I *D sky130_fd_sc_hd__dfrtp_1
*I *1091:RESET_B I *D sky130_fd_sc_hd__dfrtp_1
*I *1111:RESET_B I *D sky130_fd_sc_hd__dfrtp_1
*I *1087:RESET_B I *D sky130_fd_sc_hd__dfrtp_1
*I *1086:RESET_B I *D sky130_fd_sc_hd__dfrtp_1
*I *1085:RESET_B I *D sky130_fd_sc_hd__dfrtp_1
*I *1154:RESET_B I *D sky130_fd_sc_hd__dfrtp_1
*I *1106:RESET_B I *D sky130_fd_sc_hd__dfrtp_1
*I *1136:RESET_B I *D sky130_fd_sc_hd__dfrtp_1
*I *1088:RESET_B I *D sky130_fd_sc_hd__dfrtp_1
*I *1132:RESET_B I *D sky130_fd_sc_hd__dfrtp_1
*I *1102:RESET_B I *D sky130_fd_sc_hd__dfrtp_1
*I *1142:RESET_B I *D sky130_fd_sc_hd__dfrtp_1
*I *1103:RESET_B I *D sky130_fd_sc_hd__dfrtp_1
*I *1133:RESET_B I *D sky130_fd_sc_hd__dfrtp_1
*I *1134:RESET_B I *D sky130_fd_sc_hd__dfrtp_1
*I *1131:RESET_B I *D sky130_fd_sc_hd__dfrtp_1
*I *1147:RESET_B I *D sky130_fd_sc_hd__dfrtp_1
*I *1100:RESET_B I *D sky130_fd_sc_hd__dfrtp_1
*I *1104:RESET_B I *D sky130_fd_sc_hd__dfrtp_1
*I *1145:RESET_B I *D sky130_fd_sc_hd__dfrtp_1
*I *1148:RESET_B I *D sky130_fd_sc_hd__dfrtp_1
*I *1138:RESET_B I *D sky130_fd_sc_hd__dfrtp_1
*I *1144:RESET_B I *D sky130_fd_sc_hd__dfrtp_1
*I *1155:RESET_B I *D sky130_fd_sc_hd__dfrtp_1
*I *1153:RESET_B I *D sky130_fd_sc_hd__dfrtp_1
*I *1146:RESET_B I *D sky130_fd_sc_hd__dfrtp_1
*I *1130:RESET_B I *D sky130_fd_sc_hd__dfrtp_1
*I *1152:RESET_B I *D sky130_fd_sc_hd__dfrtp_1
*I *1095:RESET_B I *D sky130_fd_sc_hd__dfrtp_1
*I *1129:RESET_B I *D sky130_fd_sc_hd__dfrtp_1
*I *1099:RESET_B I *D sky130_fd_sc_hd__dfrtp_1
*I *1141:RESET_B I *D sky130_fd_sc_hd__dfrtp_1
*I *1137:RESET_B I *D sky130_fd_sc_hd__dfrtp_1
*I *1457:X O *D sky130_fd_sc_hd__buf_4
*CAP
1 *1109:RESET_B 2.65893e-05
2 *1135:RESET_B 0.000105588
3 *1117:RESET_B 7.10878e-05
4 *1115:RESET_B 0.000173483
5 *1105:RESET_B 0.000296595
6 *1112:RESET_B 0.000393466
7 *1127:RESET_B 0.000267164
8 *1114:RESET_B 0.000495163
9 *1120:RESET_B 0.000571011
10 *1140:RESET_B 0.000411964
11 *1108:RESET_B 0.000528171
12 *1118:RESET_B 0.000313005
13 *1122:RESET_B 0.000144749
14 *1116:RESET_B 0.000303847
15 *1096:RESET_B 0.000275989
16 *1143:RESET_B 0.000642198
17 *1110:RESET_B 0.000655092
18 *1113:RESET_B 0.000400558
19 *1098:RESET_B 0.000753936
20 *1101:RESET_B 0.000787793
21 *1126:RESET_B 0.000198768
22 *1139:RESET_B 0.000526268
23 *1128:RESET_B 0.000443578
24 *1123:RESET_B 0.000119751
25 *1089:RESET_B 0.000259248
26 *1107:RESET_B 9.89854e-05
27 *1097:RESET_B 0.000426901
28 *1125:RESET_B 0.000657931
29 *1119:RESET_B 0
30 *1124:RESET_B 0
31 *1121:RESET_B 0
32 *1090:RESET_B 0.000402967
33 *1072:RESET_B 0
34 *1092:RESET_B 0
35 *1094:RESET_B 0
36 *1093:RESET_B 0.000104005
37 *1091:RESET_B 0
38 *1111:RESET_B 0.000313241
39 *1087:RESET_B 0.00031247
40 *1086:RESET_B 0.000685918
41 *1085:RESET_B 0.00103523
42 *1154:RESET_B 0.000500873
43 *1106:RESET_B 0
44 *1136:RESET_B 0.000707795
45 *1088:RESET_B 0.000694125
46 *1132:RESET_B 0.000259942
47 *1102:RESET_B 0.000896012
48 *1142:RESET_B 0
49 *1103:RESET_B 0
50 *1133:RESET_B 0.00016273
51 *1134:RESET_B 0.000882003
52 *1131:RESET_B 0.000291294
53 *1147:RESET_B 0.000844309
54 *1100:RESET_B 0
55 *1104:RESET_B 0.000465568
56 *1145:RESET_B 0.000752297
57 *1148:RESET_B 0.000589635
58 *1138:RESET_B 0.00209531
59 *1144:RESET_B 2.84367e-05
60 *1155:RESET_B 0
61 *1153:RESET_B 0
62 *1146:RESET_B 4.89744e-05
63 *1130:RESET_B 3.65123e-05
64 *1152:RESET_B 0.00128423
65 *1095:RESET_B 0.000878242
66 *1129:RESET_B 0.000465426
67 *1099:RESET_B 0.000561913
68 *1141:RESET_B 0
69 *1137:RESET_B 0.000776786
70 *1457:X 0.000209052
71 *693:857 0.000314058
72 *693:855 0.000323622
73 *693:826 0.000567949
74 *693:679 0.000452235
75 *693:628 0.000506058
76 *693:624 0.00049592
77 *693:548 0.000802659
78 *693:505 0.000417959
79 *693:478 0.000312515
80 *693:471 0.000378339
81 *693:464 0.00079499
82 *693:427 0.000280888
83 *693:418 0.000663167
84 *693:416 0.000775688
85 *693:414 0.000411183
86 *693:412 0.00103189
87 *693:357 0.000647948
88 *693:335 0.000603052
89 *693:299 0.000641597
90 *693:255 0.000290937
91 *693:253 0.000593711
92 *693:241 0.00082496
93 *693:195 0.00104802
94 *693:136 0.00153356
95 *693:126 0.000455525
96 *693:119 0.000596626
97 *693:112 0.000291785
98 *693:102 0.000274174
99 *693:92 0.000509826
100 *693:20 0.000304497
101 *693:10 0.000640148
102 *1086:RESET_B *707:10 0
103 *1087:RESET_B *1087:CLK 2.84758e-05
104 *1088:RESET_B *699:16 0.000117395
105 *1095:RESET_B *1095:CLK 3.55179e-05
106 *1096:RESET_B *1096:CLK 0.000302279
107 *1101:RESET_B *708:22 0.000114606
108 *1102:RESET_B *1102:CLK 0
109 *1107:RESET_B *1107:CLK 7.95943e-05
110 *1107:RESET_B *716:14 0.000109421
111 *1108:RESET_B *1280:A 0
112 *1110:RESET_B *739:12 3.56217e-05
113 *1111:RESET_B *1486:A 6.97989e-05
114 *1114:RESET_B *1108:CLK 6.50727e-05
115 *1114:RESET_B *1114:CLK 6.0209e-05
116 *1117:RESET_B *1115:CLK 0
117 *1117:RESET_B *704:104 4.26859e-05
118 *1118:RESET_B *1110:CLK 8.58902e-06
119 *1120:RESET_B *1120:CLK 4.06297e-05
120 *1120:RESET_B *1284:A 6.82954e-05
121 *1127:RESET_B *1127:CLK 0
122 *1128:RESET_B *1126:CLK 7.72722e-05
123 *1129:RESET_B *698:51 3.70569e-05
124 *1131:RESET_B *699:16 7.31241e-05
125 *1131:RESET_B *699:22 2.65831e-05
126 *1132:RESET_B *699:16 5.25402e-05
127 *1136:RESET_B *1281:A 0
128 *1137:RESET_B *1137:CLK 6.64392e-05
129 *1143:RESET_B *708:22 1.18339e-05
130 *1144:RESET_B *1144:CLK 3.89532e-05
131 *1145:RESET_B *1145:CLK 0.000106142
132 *1145:RESET_B *698:12 0.000200794
133 *1145:RESET_B *700:19 9.67138e-05
134 *1147:RESET_B *706:16 5.19713e-05
135 *1147:RESET_B *706:31 0
136 *1152:RESET_B *1152:CLK 8.50236e-05
137 *693:102 *700:59 0
138 *693:102 *700:68 0
139 *693:112 *700:68 0
140 *693:253 *1104:CLK 0.000122083
141 *693:357 *1292:A 0.000654923
142 *693:624 *708:22 1.94472e-05
143 *693:628 *708:22 1.9939e-05
144 *693:628 *739:12 0.000140341
145 *693:679 *708:12 5.68225e-06
146 *693:857 *1115:CLK 0
147 intr_gpio_o[3] *1108:RESET_B 0.000108448
148 intr_gpio_o[3] *1118:RESET_B 0.000608645
149 tl_o[18] *693:412 0
150 tl_o[27] *1118:RESET_B 0.000233405
151 tl_o[30] *693:679 0
152 tl_o[34] *1112:RESET_B 0.000153225
153 tl_o[36] *693:471 1.11499e-05
154 tl_o[42] *1122:RESET_B 3.17474e-05
155 tl_o[45] *1122:RESET_B 0.000373086
156 tl_o[45] *693:679 9.40857e-05
157 tl_o[51] *693:464 4.18215e-05
158 *758:A1 *1147:RESET_B 0
159 *758:A2 *1154:RESET_B 6.43498e-06
160 *761:A *1138:RESET_B 0
161 *763:A2 *693:102 7.06474e-05
162 *763:A2 *693:112 5.41116e-05
163 *763:A2 *693:119 0.000180828
164 *763:A2 *693:126 0.000113148
165 *764:A *1104:RESET_B 0
166 *783:B *693:464 4.0813e-05
167 *791:A1 *1102:RESET_B 0.000298797
168 *791:A1 *693:357 9.65701e-05
169 *793:A1 *1085:RESET_B 0.000116652
170 *793:A2 *1085:RESET_B 0.000191279
171 *796:A *1126:RESET_B 0.000103412
172 *799:A0 *1145:RESET_B 0.000460238
173 *800:A1 *1131:RESET_B 3.07384e-05
174 *801:A *1143:RESET_B 6.79641e-05
175 *801:A *693:628 0.000105423
176 *806:A1 *1099:RESET_B 0
177 *810:A *1138:RESET_B 0.000154404
178 *810:A *693:195 5.5232e-05
179 *813:A *1129:RESET_B 3.39578e-05
180 *824:A1 *1133:RESET_B 0
181 *825:S *1132:RESET_B 0.000162697
182 *826:A1 *1152:RESET_B 0.000114367
183 *829:A *1127:RESET_B 2.65831e-05
184 *832:B *1127:RESET_B 0.000116385
185 *842:A *1120:RESET_B 3.5063e-05
186 *842:B *1120:RESET_B 6.08467e-05
187 *843:A *1120:RESET_B 6.04813e-06
188 *844:A *1120:RESET_B 8.35605e-05
189 *844:B *1120:RESET_B 0.000179133
190 *857:A1 *693:412 2.80312e-05
191 *857:B1 *693:412 0.000118017
192 *858:B1 *693:412 9.6868e-05
193 *863:A *693:855 0.000162843
194 *863:A *693:857 0
195 *866:A *1105:RESET_B 0.000119733
196 *867:B *1105:RESET_B 4.21844e-05
197 *872:A *693:826 4.97328e-05
198 *872:B *693:826 3.06126e-05
199 *875:A *1139:RESET_B 0
200 *877:A *1118:RESET_B 5.41227e-05
201 *882:B *1107:RESET_B 5.37479e-05
202 *883:B *693:505 0.000148524
203 *895:B *1102:RESET_B 0.000259244
204 *895:C *1102:RESET_B 1.77537e-06
205 *899:B *1104:RESET_B 1.18802e-05
206 *901:B *1095:RESET_B 9.75356e-05
207 *901:B *1099:RESET_B 0
208 *902:A1 *1099:RESET_B 0
209 *907:A2 *1140:RESET_B 2.52414e-06
210 *907:A2 *1143:RESET_B 0.000141497
211 *908:B *1096:RESET_B 6.83043e-05
212 *911:A1 *1095:RESET_B 1.90335e-05
213 *916:A1 *1132:RESET_B 0
214 *923:A *693:418 2.10465e-05
215 *926:A1 *1145:RESET_B 5.52256e-05
216 *927:A1 *1145:RESET_B 1.92362e-05
217 *928:A *693:418 0
218 *936:A2 *693:126 0
219 *951:A *1087:RESET_B 0.000109421
220 *953:A *1088:RESET_B 0
221 *956:A1 *1131:RESET_B 6.64392e-05
222 *966:B *1102:RESET_B 8.95297e-05
223 *980:A *1138:RESET_B 7.89082e-05
224 *1047:A *1138:RESET_B 0.00030685
225 *1049:B *693:126 0
226 *1053:A1 *693:412 7.50722e-05
227 *1053:B1 *693:412 6.31809e-05
228 *1059:B *1126:RESET_B 5.85383e-05
229 *1062:B *1128:RESET_B 2.52414e-06
230 *1068:A1 *1148:RESET_B 0.000347798
231 *1071:A *693:412 0
232 *1072:D *693:414 0
233 *1072:D *693:416 0
234 *1095:D *1095:RESET_B 0.000127683
235 *1097:D *1139:RESET_B 0
236 *1101:D *1098:RESET_B 9.61815e-05
237 *1101:D *1143:RESET_B 0.000120594
238 *1102:D *1102:RESET_B 3.00829e-05
239 *1105:D *1117:RESET_B 2.19131e-05
240 *1105:D *693:855 4.39396e-05
241 *1105:D *693:857 0.000110767
242 *1108:D *1114:RESET_B 6.50586e-05
243 *1109:D *1109:RESET_B 2.28919e-05
244 *1113:D *1113:RESET_B 6.20356e-05
245 *1113:D *1143:RESET_B 6.79079e-05
246 *1114:D *1112:RESET_B 0
247 *1114:D *693:826 0
248 *1120:D *1120:RESET_B 0.000100397
249 *1121:D *693:464 4.77834e-05
250 *1123:D *1123:RESET_B 0.000124416
251 *1124:D *693:471 0
252 *1125:D *1125:RESET_B 3.00174e-06
253 *1127:D *1127:RESET_B 0.000163986
254 *1128:D *1128:RESET_B 3.67528e-06
255 *1129:D *1129:RESET_B 9.28161e-05
256 *1131:D *1132:RESET_B 0
257 *1138:D *693:195 6.27782e-05
258 *1144:D *693:126 3.00174e-06
259 *1144:D *693:136 5.71941e-06
260 *1146:D *1146:RESET_B 4.32761e-05
261 *1155:D *693:126 0
262 *1186:RESET_B *693:10 0.000110458
263 *1190:RESET_B *1102:RESET_B 9.63733e-05
264 *1190:RESET_B *1147:RESET_B 0
265 *1235:A *693:418 0
266 *1237:A *693:412 0
267 *1239:A *1087:RESET_B 5.78706e-05
268 *1245:A *1129:RESET_B 0.000268834
269 *1265:A *693:412 4.86536e-05
270 *1295:A *693:464 9.57699e-05
271 *1449:A *1126:RESET_B 4.89158e-05
272 *1450:A *1128:RESET_B 0
273 *1453:A *693:464 0
274 *1457:A *693:10 3.00174e-06
275 *84:8 *1102:RESET_B 5.79739e-05
276 *88:31 *1143:RESET_B 2.78238e-05
277 *106:26 *1086:RESET_B 0
278 *106:26 *693:464 0
279 *106:32 *1085:RESET_B 0
280 *106:32 *693:412 6.10804e-05
281 *106:93 *693:464 0
282 *106:118 *1097:RESET_B 9.83825e-05
283 *106:118 *693:505 3.21615e-05
284 *106:138 *1097:RESET_B 5.1573e-05
285 *106:216 *1120:RESET_B 4.16407e-05
286 *106:224 *1120:RESET_B 0.000313885
287 *106:252 *1112:RESET_B 0.000216299
288 *106:256 *693:826 4.70567e-05
289 *106:416 *1125:RESET_B 0
290 *106:416 *693:471 0
291 *106:416 *693:478 0
292 *106:441 *1126:RESET_B 0.000150238
293 *106:441 *1128:RESET_B 0
294 *106:441 *693:548 0
295 *106:499 *1089:RESET_B 0.000381425
296 *106:528 *1095:RESET_B 4.13804e-05
297 *110:17 *1085:RESET_B 5.92192e-05
298 *110:17 *693:412 0
299 *128:8 *1129:RESET_B 0.000147061
300 *136:65 *1154:RESET_B 0.000237192
301 *136:65 *693:335 8.71534e-05
302 *136:158 *693:418 7.41826e-05
303 *136:162 *693:418 0.000105824
304 *136:269 *1127:RESET_B 8.77922e-05
305 *161:27 *693:335 2.01274e-05
306 *161:56 *1154:RESET_B 1.45944e-05
307 *161:163 *1104:RESET_B 0.000165488
308 *161:163 *693:195 0.000111135
309 *161:194 *1095:RESET_B 0
310 *161:325 *693:857 0
311 *175:37 *1133:RESET_B 3.07997e-05
312 *175:37 *693:253 0.000280545
313 *175:37 *693:255 0.000276874
314 *175:48 *693:253 0.000485144
315 *179:32 *1111:RESET_B 0.000169924
316 *190:10 *1089:RESET_B 0.000199217
317 *190:12 *1089:RESET_B 0.000226267
318 *202:12 *1087:RESET_B 0.000100397
319 *211:18 *1089:RESET_B 7.28994e-06
320 *311:39 *1090:RESET_B 0.000528096
321 *318:12 *1140:RESET_B 4.46568e-05
322 *318:14 *1140:RESET_B 3.74372e-05
323 *319:10 *693:126 0
324 *329:20 *1134:RESET_B 6.95759e-05
325 *329:20 *1136:RESET_B 2.17234e-05
326 *329:20 *693:241 4.56505e-05
327 *371:14 *1139:RESET_B 6.12969e-05
328 *376:10 *1144:RESET_B 0.000101881
329 *376:10 *1148:RESET_B 4.83709e-05
330 *376:10 *693:136 5.54585e-05
331 *378:8 *693:253 0
332 *379:10 *1117:RESET_B 0.000101118
333 *379:10 *1135:RESET_B 2.16355e-05
334 *383:12 *1147:RESET_B 0
335 *383:14 *693:126 0
336 *385:10 *693:92 6.77426e-05
337 *385:10 *693:102 5.25402e-05
338 *386:36 *693:335 0
339 *419:12 *1102:RESET_B 8.5518e-05
340 *419:12 *693:357 0.000610735
341 *459:14 *693:412 0
342 *459:14 *693:414 0
343 *459:14 *693:416 0
344 *493:16 *1139:RESET_B 0.000223294
345 *510:12 *1089:RESET_B 6.08467e-05
346 *511:10 *1090:RESET_B 2.63704e-05
347 *511:10 *693:412 0
348 *515:10 *1093:RESET_B 2.5496e-05
349 *515:10 *693:418 4.05509e-05
350 *515:10 *693:427 7.9539e-05
351 *517:12 *1152:RESET_B 2.65433e-05
352 *520:6 *1098:RESET_B 0.000156314
353 *524:8 *1101:RESET_B 0.000156314
354 *525:10 *1154:RESET_B 0
355 *525:10 *693:335 0
356 *528:8 *693:826 0.000160408
357 *531:10 *1108:RESET_B 0.000159977
358 *535:10 *1097:RESET_B 0.000363201
359 *535:10 *693:505 0.000135827
360 *537:12 *1122:RESET_B 0.000113867
361 *537:12 *693:679 0.00021355
362 *538:10 *1114:RESET_B 0.000118166
363 *541:10 *1105:RESET_B 1.85244e-05
364 *541:10 *1115:RESET_B 6.87915e-05
365 *541:10 *693:826 4.21171e-06
366 *544:10 *1125:RESET_B 0
367 *546:10 *1120:RESET_B 0.000133595
368 *571:8 *693:126 4.43428e-05
369 *618:27 *1138:RESET_B 0.000285998
370 *625:12 *1095:RESET_B 0.000297319
371 *625:12 *1152:RESET_B 0.000104815
372 *674:20 *1154:RESET_B 2.85274e-05
373 *690:93 *1129:RESET_B 0.00010542
374 *690:99 *693:10 4.88645e-05
375 *690:152 *693:126 0.0001261
376 *690:209 *1136:RESET_B 0
377 *690:237 *693:253 0
378 *690:245 *693:253 0
379 *690:245 *693:255 0
380 *690:319 *1148:RESET_B 0.0003949
381 *690:319 *693:126 9.06837e-05
382 *690:319 *693:136 7.57756e-05
383 *690:350 *1140:RESET_B 0.000200168
384 *691:17 *1138:RESET_B 0.000302131
385 *691:118 *693:253 7.86825e-06
386 *691:195 *1138:RESET_B 0
387 *691:214 *1110:RESET_B 4.55675e-05
388 *691:214 *693:628 0.000116596
389 *691:310 *1138:RESET_B 0.000100972
390 *692:28 *1095:RESET_B 2.74189e-05
391 *692:145 *1138:RESET_B 1.48325e-05
392 *692:241 *1136:RESET_B 0
*RES
1 *1457:X *693:10 19.3507 
2 *693:10 *1137:RESET_B 10.685 
3 *693:10 *693:20 2.6625 
4 *693:20 *1141:RESET_B 4.5 
5 *693:20 *1099:RESET_B 8.82351 
6 *1137:RESET_B *1129:RESET_B 23.2514 
7 *1099:RESET_B *1095:RESET_B 20.4206 
8 *1095:RESET_B *1152:RESET_B 20.8443 
9 *1152:RESET_B *693:92 12.0478 
10 *693:92 *1130:RESET_B 5.139 
11 *693:92 *693:102 4.73876 
12 *693:102 *1146:RESET_B 5.6936 
13 *693:102 *693:112 2.24725 
14 *693:112 *1153:RESET_B 4.5 
15 *693:112 *693:119 6.81502 
16 *693:119 *1155:RESET_B 4.5 
17 *693:119 *693:126 11.3828 
18 *693:126 *1144:RESET_B 5.6936 
19 *693:126 *693:136 1.62437 
20 *693:136 *1138:RESET_B 20.4654 
21 *693:136 *1148:RESET_B 11.9379 
22 *1152:RESET_B *1145:RESET_B 22.2746 
23 *1138:RESET_B *693:195 17.562 
24 *693:195 *1104:RESET_B 11.315 
25 *693:195 *1100:RESET_B 4.5 
26 *1148:RESET_B *1147:RESET_B 18.6259 
27 *1145:RESET_B *1131:RESET_B 7.76445 
28 *1104:RESET_B *693:241 3.96662 
29 *693:241 *1134:RESET_B 3.96662 
30 *693:241 *693:253 18.953 
31 *693:253 *693:255 4.73876 
32 *693:255 *1133:RESET_B 8.04186 
33 *693:255 *1103:RESET_B 4.5 
34 *693:253 *1142:RESET_B 4.5 
35 *1147:RESET_B *1102:RESET_B 22.4048 
36 *1131:RESET_B *693:299 4.5 
37 *693:299 *1132:RESET_B 11.315 
38 *693:299 *1088:RESET_B 13.3913 
39 *1134:RESET_B *1136:RESET_B 25.7289 
40 *1102:RESET_B *693:335 10.8998 
41 *693:335 *1106:RESET_B 4.5 
42 *693:335 *1154:RESET_B 13.2054 
43 *1102:RESET_B *693:357 15.146 
44 *693:357 *1085:RESET_B 12.1455 
45 *693:357 *1086:RESET_B 8.40826 
46 *1088:RESET_B *1087:RESET_B 8.15026 
47 *1154:RESET_B *1111:RESET_B 15.3998 
48 *1085:RESET_B *693:412 25.0916 
49 *693:412 *693:414 2.6625 
50 *693:414 *693:416 6.81502 
51 *693:416 *693:418 13.4591 
52 *693:418 *1091:RESET_B 4.5 
53 *693:418 *693:427 5.47156 
54 *693:427 *1093:RESET_B 7.1625 
55 *693:427 *1094:RESET_B 4.5 
56 *693:416 *1092:RESET_B 4.5 
57 *693:414 *1072:RESET_B 4.5 
58 *693:412 *1090:RESET_B 10.685 
59 *1086:RESET_B *693:464 18.3743 
60 *693:464 *1121:RESET_B 4.5 
61 *693:464 *693:471 6.81502 
62 *693:471 *1124:RESET_B 4.5 
63 *693:471 *693:478 2.24725 
64 *693:478 *1119:RESET_B 4.5 
65 *693:478 *1125:RESET_B 9.62597 
66 *1111:RESET_B *693:505 8.49545 
67 *693:505 *1097:RESET_B 11.315 
68 *693:505 *1107:RESET_B 7.53561 
69 *1090:RESET_B *1089:RESET_B 18.6724 
70 *1125:RESET_B *693:548 14.2951 
71 *693:548 *1123:RESET_B 7.91202 
72 *693:548 *1128:RESET_B 10.4324 
73 *1097:RESET_B *1139:RESET_B 16.5132 
74 *1128:RESET_B *1126:RESET_B 15.815 
75 *1139:RESET_B *1101:RESET_B 7.20985 
76 *1101:RESET_B *1098:RESET_B 10.5375 
77 *1101:RESET_B *693:624 5.61141 
78 *693:624 *693:628 8.1707 
79 *693:628 *1113:RESET_B 6.82692 
80 *693:628 *1110:RESET_B 8.63481 
81 *693:624 *1143:RESET_B 12.0112 
82 *1098:RESET_B *1096:RESET_B 7.76445 
83 *1113:RESET_B *693:679 14.0303 
84 *693:679 *1116:RESET_B 4.5 
85 *693:679 *1122:RESET_B 11.315 
86 *1110:RESET_B *1118:RESET_B 21.1611 
87 *1110:RESET_B *1108:RESET_B 13.5501 
88 *1143:RESET_B *1140:RESET_B 8.70487 
89 *1116:RESET_B *1120:RESET_B 21.8258 
90 *1108:RESET_B *1114:RESET_B 8.15026 
91 *1120:RESET_B *1127:RESET_B 16.4075 
92 *1114:RESET_B *1112:RESET_B 13.9653 
93 *1112:RESET_B *693:826 12.7163 
94 *693:826 *1105:RESET_B 8.47603 
95 *693:826 *1115:RESET_B 9.03113 
96 *1105:RESET_B *693:855 9.05006 
97 *693:855 *693:857 4.32351 
98 *693:857 *1117:RESET_B 7.1625 
99 *693:857 *1135:RESET_B 6.80281 
100 *693:855 *1109:RESET_B 5.139 
*END

*D_NET *710 0.000380117
*CONN
*I *1302:A I *D sky130_fd_sc_hd__clkdlybuf4s50_1
*I *1488:X O *D sky130_fd_sc_hd__dlygate4sd3_1
*CAP
1 *1302:A 0.000100931
2 *1488:X 0.000100931
3 *1150:D *1302:A 6.50586e-05
4 *1488:A *1302:A 0.000113197
*RES
1 *1488:X *1302:A 21.9947 
*END

*D_NET *711 0.000905778
*CONN
*I *1306:A I *D sky130_fd_sc_hd__clkdlybuf4s50_1
*I *1489:X O *D sky130_fd_sc_hd__dlygate4sd3_1
*CAP
1 *1306:A 0.000452889
2 *1489:X 0.000452889
3 tl_o[32] *1306:A 0
*RES
1 *1489:X *1306:A 27.0103 
*END

*D_NET *712 0.000431172
*CONN
*I *1303:A I *D sky130_fd_sc_hd__clkdlybuf4s50_1
*I *1490:X O *D sky130_fd_sc_hd__dlygate4sd3_1
*CAP
1 *1303:A 0.000182503
2 *1490:X 0.000182503
3 *1161:D *1303:A 1.72278e-05
4 *1507:A *1303:A 4.89392e-05
*RES
1 *1490:X *1303:A 31.4388 
*END

*D_NET *713 0.000790442
*CONN
*I *1304:A I *D sky130_fd_sc_hd__clkdlybuf4s50_1
*I *1491:X O *D sky130_fd_sc_hd__dlygate4sd3_1
*CAP
1 *1304:A 0.000395221
2 *1491:X 0.000395221
3 *1168:D *1304:A 0
*RES
1 *1491:X *1304:A 34.2118 
*END

*D_NET *714 0.000504125
*CONN
*I *1305:A I *D sky130_fd_sc_hd__clkdlybuf4s50_1
*I *1492:X O *D sky130_fd_sc_hd__dlygate4sd3_1
*CAP
1 *1305:A 0.000252062
2 *1492:X 0.000252062
3 *1134:CLK *1305:A 0
*RES
1 *1492:X *1305:A 31.9934 
*END

*D_NET *715 0.00208337
*CONN
*I *1299:A I *D sky130_fd_sc_hd__clkdlybuf4s50_1
*I *1493:X O *D sky130_fd_sc_hd__dlygate4sd3_1
*CAP
1 *1299:A 0.000553274
2 *1493:X 0.000553274
3 tl_o[57] *1299:A 0.000243953
4 *1493:A *1299:A 0.000732869
5 *709:113 *1299:A 0
*RES
1 *1493:X *1299:A 44.1779 
*END

*D_NET *716 0.00426894
*CONN
*I *1261:A I *D sky130_fd_sc_hd__clkdlybuf4s50_1
*I *1494:X O *D sky130_fd_sc_hd__dlygate4sd3_1
*CAP
1 *1261:A 3.63664e-05
2 *1494:X 0.00126812
3 *716:14 0.00130448
4 tl_o[40] *716:14 1.79807e-05
5 *760:B1 *716:14 1.43698e-05
6 *828:A *716:14 0.000198963
7 *882:B *716:14 8.36586e-06
8 *894:B *716:14 0
9 *1107:D *716:14 0.000255248
10 *1107:RESET_B *716:14 0.000109421
11 *1107:CLK *716:14 7.67734e-06
12 *1120:CLK *716:14 1.84293e-05
13 *1124:CLK *716:14 0
14 *106:118 *716:14 0.000261076
15 *106:138 *716:14 0.000206648
16 *106:189 *716:14 0.000379871
17 *136:14 *716:14 3.17869e-05
18 *136:263 *716:14 8.71681e-05
19 *161:56 *716:14 4.76104e-05
20 *493:16 *716:14 5.27547e-06
21 *709:14 *716:14 0
22 *709:79 *716:14 1.00846e-05
*RES
1 *1494:X *716:14 49.2273 
2 *716:14 *1261:A 10.2378 
*END

*D_NET *717 0.000346913
*CONN
*I *1300:A I *D sky130_fd_sc_hd__clkdlybuf4s50_1
*I *1495:X O *D sky130_fd_sc_hd__dlygate4sd3_1
*CAP
1 *1300:A 0.000147095
2 *1495:X 0.000147095
3 *1495:A *1300:A 5.27224e-05
*RES
1 *1495:X *1300:A 31.0235 
*END

*D_NET *718 0.00106684
*CONN
*I *1260:A I *D sky130_fd_sc_hd__clkdlybuf4s50_1
*I *1496:X O *D sky130_fd_sc_hd__dlygate4sd3_1
*CAP
1 *1260:A 0.000352313
2 *1496:X 0.000352313
3 *845:B *1260:A 0.000362216
*RES
1 *1496:X *1260:A 28.6741 
*END

*D_NET *719 0.000982621
*CONN
*I *1256:A I *D sky130_fd_sc_hd__clkdlybuf4s50_1
*I *1497:X O *D sky130_fd_sc_hd__dlygate4sd3_1
*CAP
1 *1256:A 0.000302366
2 *1497:X 0.000302366
3 *836:B *1256:A 0.000377889
*RES
1 *1497:X *1256:A 26.9861 
*END

*D_NET *720 0.000825672
*CONN
*I *1254:A I *D sky130_fd_sc_hd__clkdlybuf4s50_1
*I *1498:X O *D sky130_fd_sc_hd__dlygate4sd3_1
*CAP
1 *1254:A 0.000342239
2 *1498:X 0.000342239
3 *1058:B *1254:A 0.000141193
*RES
1 *1498:X *1254:A 28.2641 
*END

*D_NET *721 0.00106339
*CONN
*I *1262:A I *D sky130_fd_sc_hd__clkdlybuf4s50_1
*I *1499:X O *D sky130_fd_sc_hd__dlygate4sd3_1
*CAP
1 *1262:A 0.000337737
2 *1499:X 0.000337737
3 *851:B *1262:A 0.000387915
*RES
1 *1499:X *1262:A 28.6741 
*END

*D_NET *722 0.00253955
*CONN
*I *1255:A I *D sky130_fd_sc_hd__clkdlybuf4s50_1
*I *1500:X O *D sky130_fd_sc_hd__dlygate4sd3_1
*CAP
1 *1255:A 0.000837832
2 *1500:X 0.000837832
3 *1255:A *1257:A 0.000188532
4 *833:B *1255:A 0.000109421
5 *839:B *1255:A 6.36477e-05
6 *1448:A *1255:A 0.000502285
*RES
1 *1500:X *1255:A 39.9349 
*END

*D_NET *723 0.00144025
*CONN
*I *1257:A I *D sky130_fd_sc_hd__clkdlybuf4s50_1
*I *1501:X O *D sky130_fd_sc_hd__dlygate4sd3_1
*CAP
1 *1257:A 0.000542119
2 *1501:X 0.000542119
3 *1255:A *1257:A 0.000188532
4 *1448:A *1257:A 0.000167479
*RES
1 *1501:X *1257:A 32.0017 
*END

*D_NET *724 0.00271124
*CONN
*I *1259:A I *D sky130_fd_sc_hd__clkdlybuf4s50_1
*I *1502:X O *D sky130_fd_sc_hd__dlygate4sd3_1
*CAP
1 *1259:A 0
2 *1502:X 0.000825811
3 *724:22 0.000825811
4 *724:22 *1284:A 6.31068e-05
5 intr_gpio_o[2] *724:22 2.25812e-05
6 *842:B *724:22 5.03261e-05
7 *1120:CLK *724:22 2.16355e-05
8 *1443:A *724:22 5.04829e-06
9 *1445:A *724:22 0.000239177
10 *1502:A *724:22 4.25952e-05
11 *540:14 *724:22 0.00029008
12 *548:10 *724:22 0.000325063
*RES
1 *1502:X *724:22 47.6284 
2 *724:22 *1259:A 9.24915 
*END

*D_NET *725 0.00210522
*CONN
*I *1156:RESET_B I *D sky130_fd_sc_hd__dfrtp_1
*I *1158:RESET_B I *D sky130_fd_sc_hd__dfrtp_1
*I *1503:X O *D sky130_fd_sc_hd__dlygate4sd3_1
*CAP
1 *1156:RESET_B 0.000159317
2 *1158:RESET_B 0.000369053
3 *1503:X 0
4 *725:6 0.000528369
5 *806:A1 *1158:RESET_B 0.000157479
6 *806:B1 *1158:RESET_B 0.000103412
7 *902:A1 *1156:RESET_B 3.75608e-05
8 *902:A1 *1158:RESET_B 8.96235e-05
9 *1099:D *1156:RESET_B 1.07248e-05
10 *1099:D *1158:RESET_B 0.000101148
11 *1503:A *1156:RESET_B 2.352e-05
12 *1503:A *1158:RESET_B 0.000206804
13 *161:194 *1156:RESET_B 0
14 *175:26 *1156:RESET_B 8.31793e-05
15 *430:22 *1158:RESET_B 0.00023503
16 *691:98 *1156:RESET_B 0
*RES
1 *1503:X *725:6 13.7491 
2 *725:6 *1158:RESET_B 19.6201 
3 *725:6 *1156:RESET_B 9.65401 
*END

*D_NET *726 0.00217527
*CONN
*I *1301:A I *D sky130_fd_sc_hd__clkdlybuf4s50_1
*I *1504:X O *D sky130_fd_sc_hd__dlygate4sd3_1
*CAP
1 *1301:A 0.000621253
2 *1504:X 0.000621253
3 *790:A *1301:A 6.46815e-05
4 *790:B *1301:A 6.46815e-05
5 *791:A2 *1301:A 8.1808e-05
6 *856:A *1301:A 0
7 *1055:A2 *1301:A 7.66711e-05
8 *1267:A *1301:A 0.000305874
9 *1512:A *1301:A 0.000313186
10 *106:26 *1301:A 2.58616e-05
*RES
1 *1504:X *1301:A 43.9373 
*END

*D_NET *727 0.000425565
*CONN
*I *1275:A I *D sky130_fd_sc_hd__clkdlybuf4s50_1
*I *1505:X O *D sky130_fd_sc_hd__dlygate4sd3_1
*CAP
1 *1275:A 0.000212782
2 *1505:X 0.000212782
*RES
1 *1505:X *1275:A 31.4388 
*END

*D_NET *728 0.000886068
*CONN
*I *1276:A I *D sky130_fd_sc_hd__clkdlybuf4s50_1
*I *1506:X O *D sky130_fd_sc_hd__dlygate4sd3_1
*CAP
1 *1276:A 0.000405696
2 *1506:X 0.000405696
3 tl_o[32] *1276:A 7.3752e-05
4 tl_o[33] *1276:A 9.23798e-07
*RES
1 *1506:X *1276:A 26.4556 
*END

*D_NET *729 0.000603795
*CONN
*I *1281:A I *D sky130_fd_sc_hd__clkdlybuf4s50_1
*I *1507:X O *D sky130_fd_sc_hd__dlygate4sd3_1
*CAP
1 *1281:A 0.000220922
2 *1507:X 0.000220922
3 tl_o[29] *1281:A 0.00016195
4 *1136:RESET_B *1281:A 0
5 *1161:D *1281:A 0
*RES
1 *1507:X *1281:A 31.9934 
*END

*D_NET *730 0.00166957
*CONN
*I *1284:A I *D sky130_fd_sc_hd__clkdlybuf4s50_1
*I *1508:X O *D sky130_fd_sc_hd__dlygate4sd3_1
*CAP
1 *1284:A 0.000667572
2 *1508:X 0.000667572
3 *808:A *1284:A 2.84892e-05
4 *842:B *1284:A 0.000115753
5 *1120:RESET_B *1284:A 6.82954e-05
6 *1443:A *1284:A 2.76794e-05
7 *1445:A *1284:A 0
8 *1494:A *1284:A 0
9 *106:212 *1284:A 0
10 *546:10 *1284:A 3.11022e-05
11 *724:22 *1284:A 6.31068e-05
*RES
1 *1508:X *1284:A 44.486 
*END

*D_NET *731 0.00101977
*CONN
*I *1286:A I *D sky130_fd_sc_hd__clkdlybuf4s50_1
*I *1509:X O *D sky130_fd_sc_hd__dlygate4sd3_1
*CAP
1 *1286:A 0.000461439
2 *1509:X 0.000461439
3 *1457:A *1286:A 7.14746e-05
4 *1509:A *1286:A 2.54199e-05
5 *1515:A *1286:A 0
*RES
1 *1509:X *1286:A 35.321 
*END

*D_NET *732 0.000808067
*CONN
*I *1271:A I *D sky130_fd_sc_hd__clkdlybuf4s50_1
*I *1510:X O *D sky130_fd_sc_hd__dlygate4sd3_1
*CAP
1 *1271:A 0.000359234
2 *1510:X 0.000359234
3 *1161:CLK *1271:A 2.85274e-05
4 *1510:A *1271:A 2.52518e-05
5 *1521:A *1271:A 3.58185e-05
*RES
1 *1510:X *1271:A 33.7966 
*END

*D_NET *733 0.00184169
*CONN
*I *1280:A I *D sky130_fd_sc_hd__clkdlybuf4s50_1
*I *1511:X O *D sky130_fd_sc_hd__dlygate4sd3_1
*CAP
1 *1280:A 0.000734326
2 *1511:X 0.000734326
3 intr_gpio_o[3] *1280:A 0
4 *1108:RESET_B *1280:A 0
5 *708:30 *1280:A 1.03594e-05
6 *708:52 *1280:A 0.000100454
7 *708:61 *1280:A 0.000105517
8 *708:82 *1280:A 0.000156703
*RES
1 *1511:X *1280:A 44.1779 
*END

*D_NET *734 0.00398416
*CONN
*I *1291:A I *D sky130_fd_sc_hd__clkdlybuf4s50_1
*I *1512:X O *D sky130_fd_sc_hd__dlygate4sd3_1
*CAP
1 *1291:A 0
2 *1512:X 0.00145429
3 *734:16 0.00145429
4 *793:B1 *734:16 5.13389e-05
5 *795:A *734:16 4.31539e-05
6 *1033:A1 *734:16 3.82228e-05
7 *1246:A *734:16 1.80122e-05
8 *1454:A *734:16 0.000113968
9 *1512:A *734:16 1.4091e-06
10 *136:100 *734:16 0.000120779
11 *674:20 *734:16 0.000117421
12 *690:6 *734:16 0.000218833
13 *690:8 *734:16 0.000335964
14 *690:146 *734:16 1.64789e-05
*RES
1 *1512:X *734:16 49.6975 
2 *734:16 *1291:A 9.24915 
*END

*D_NET *735 0.00053951
*CONN
*I *1273:A I *D sky130_fd_sc_hd__clkdlybuf4s50_1
*I *1513:X O *D sky130_fd_sc_hd__dlygate4sd3_1
*CAP
1 *1273:A 0.000255617
2 *1513:X 0.000255617
3 *1513:A *1273:A 2.82756e-05
*RES
1 *1513:X *1273:A 32.1327 
*END

*D_NET *736 0.00155133
*CONN
*I *1287:A I *D sky130_fd_sc_hd__clkdlybuf4s50_1
*I *1514:X O *D sky130_fd_sc_hd__dlygate4sd3_1
*CAP
1 *1287:A 0.000370131
2 *1514:X 0.000370131
3 *1287:A *1288:A 0
4 *1084:RESET_B *1287:A 5.08751e-05
5 *1514:A *1287:A 0.000323445
6 *1519:A *1287:A 0
7 *425:10 *1287:A 0.000116792
8 *625:186 *1287:A 0.000319954
*RES
1 *1514:X *1287:A 37.5338 
*END

*D_NET *737 0.000104755
*CONN
*I *1282:A I *D sky130_fd_sc_hd__clkdlybuf4s50_1
*I *1515:X O *D sky130_fd_sc_hd__dlygate4sd3_1
*CAP
1 *1282:A 1.77424e-05
2 *1515:X 1.77424e-05
3 *1515:A *1282:A 6.92705e-05
*RES
1 *1515:X *1282:A 19.2217 
*END

*D_NET *738 0.00199517
*CONN
*I *1283:A I *D sky130_fd_sc_hd__clkdlybuf4s50_1
*I *1516:X O *D sky130_fd_sc_hd__dlygate4sd3_1
*CAP
1 *1283:A 0.000479619
2 *1516:X 0.000479619
3 *1066:A *1283:A 1.43698e-05
4 *1066:B *1283:A 0.000225041
5 *1067:B1 *1283:A 0.000330638
6 *1211:A *1283:A 0.000135769
7 *161:273 *1283:A 0.000237307
8 *161:294 *1283:A 7.37686e-05
9 *531:10 *1283:A 1.90335e-05
10 *705:8 *1283:A 0
*RES
1 *1516:X *1283:A 44.7325 
*END

*D_NET *739 0.00301475
*CONN
*I *1278:A I *D sky130_fd_sc_hd__clkdlybuf4s50_1
*I *1517:X O *D sky130_fd_sc_hd__dlygate4sd3_1
*CAP
1 *1278:A 0
2 *1517:X 0.000727937
3 *739:12 0.000727937
4 *801:A *739:12 0.000665551
5 *876:B *739:12 6.08467e-05
6 *1110:RESET_B *739:12 3.56217e-05
7 *1143:D *739:12 1.47967e-05
8 *1143:CLK *739:12 0
9 *106:232 *739:12 1.8078e-05
10 *166:10 *739:12 0
11 *533:8 *739:12 7.50722e-05
12 *690:325 *739:12 1.03594e-05
13 *690:338 *739:12 0.000267557
14 *690:366 *739:12 0.000112148
15 *691:214 *739:12 5.51393e-07
16 *693:628 *739:12 0.000140341
17 *708:52 *739:12 6.69129e-05
18 *708:61 *739:12 7.30552e-05
19 *708:82 *739:12 1.79807e-05
*RES
1 *1517:X *739:12 42.6764 
2 *739:12 *1278:A 9.24915 
*END

*D_NET *740 0.001061
*CONN
*I *1290:A I *D sky130_fd_sc_hd__clkdlybuf4s50_1
*I *1518:X O *D sky130_fd_sc_hd__dlygate4sd3_1
*CAP
1 *1290:A 0.000445322
2 *1518:X 0.000445322
3 *1518:A *1290:A 6.08467e-05
4 *421:10 *1290:A 0.000109513
*RES
1 *1518:X *1290:A 28.5294 
*END

*D_NET *741 0.00167874
*CONN
*I *1288:A I *D sky130_fd_sc_hd__clkdlybuf4s50_1
*I *1519:X O *D sky130_fd_sc_hd__dlygate4sd3_1
*CAP
1 *1288:A 0.000754699
2 *1519:X 0.000754699
3 *1083:D *1288:A 9.9028e-05
4 *1251:A *1288:A 0
5 *1287:A *1288:A 0
6 *1519:A *1288:A 2.71397e-05
7 *304:8 *1288:A 4.31703e-05
8 *424:10 *1288:A 0
9 *425:10 *1288:A 0
*RES
1 *1519:X *1288:A 39.7578 
*END

*D_NET *742 0.00202368
*CONN
*I *1296:A I *D sky130_fd_sc_hd__clkdlybuf4s50_1
*I *1520:X O *D sky130_fd_sc_hd__dlygate4sd3_1
*CAP
1 *1296:A 0.000928479
2 *1520:X 0.000928479
3 tl_o[17] *1296:A 4.51619e-05
4 tl_o[19] *1296:A 1.85244e-05
5 tl_o[62] *1296:A 0
6 *400:12 *1296:A 0.000103035
7 *460:16 *1296:A 0
*RES
1 *1520:X *1296:A 49.7183 
*END

*D_NET *743 0.000669172
*CONN
*I *1285:A I *D sky130_fd_sc_hd__clkdlybuf4s50_1
*I *1521:X O *D sky130_fd_sc_hd__dlygate4sd3_1
*CAP
1 *1285:A 0.000305588
2 *1521:X 0.000305588
3 *1136:D *1285:A 0
4 *1161:CLK *1285:A 5.7995e-05
5 *1521:A *1285:A 0
*RES
1 *1521:X *1285:A 34.3456 
*END

*D_NET *744 0.00253086
*CONN
*I *1294:A I *D sky130_fd_sc_hd__clkdlybuf4s50_1
*I *1522:X O *D sky130_fd_sc_hd__dlygate4sd3_1
*CAP
1 *1294:A 0.000486628
2 *1522:X 0.000486628
3 *800:S *1294:A 0.000163492
4 *953:B *1294:A 3.91554e-05
5 *969:A1 *1294:A 0.000512092
6 *228:24 *1294:A 0.000101177
7 *418:16 *1294:A 0.000741685
*RES
1 *1522:X *1294:A 46.53 
*END

*D_NET *745 0.00324793
*CONN
*I *1292:A I *D sky130_fd_sc_hd__clkdlybuf4s50_1
*I *1523:X O *D sky130_fd_sc_hd__dlygate4sd3_1
*CAP
1 *1292:A 0.00044814
2 *1523:X 0.00044814
3 cio_gpio_o[3] *1292:A 3.9313e-05
4 *782:A *1292:A 0.000106178
5 *791:A1 *1292:A 0.00079922
6 *791:A2 *1292:A 0.000213488
7 *791:B1_N *1292:A 8.10464e-05
8 *856:A *1292:A 1.69657e-06
9 *1055:A1 *1292:A 0.000305766
10 *501:6 *1292:A 0.000150019
11 *693:357 *1292:A 0.000654923
*RES
1 *1523:X *1292:A 47.4687 
*END

*D_NET *343 0.000419373
*CONN
*I *1150:D I *D sky130_fd_sc_hd__dfrtp_1
*I *1279:HI O *D sky130_fd_sc_hd__conb_1
*CAP
1 *1150:D 0.000118458
2 *1279:HI 0.000118458
3 *1150:D *1150:CLK 5.23399e-05
4 *1150:D *1302:A 6.50586e-05
5 *1150:D *1488:A 6.50586e-05
*RES
1 *1279:HI *1150:D 31.2994 
*END

*D_NET *345 0.00267208
*CONN
*I *1156:D I *D sky130_fd_sc_hd__dfrtp_1
*I *1151:HI O *D sky130_fd_sc_hd__conb_1
*CAP
1 *1156:D 0
2 *1151:HI 0.000965051
3 *345:20 0.000965051
4 *345:20 *1035:A1 0
5 *345:20 *1036:B 0.0001178
6 *345:20 *1475:A 3.12828e-05
7 *345:20 *579:10 0
8 *345:20 *691:69 0.000141282
9 *345:20 *691:79 7.86825e-06
10 *345:20 *691:98 0
11 *345:20 *695:21 0
12 *345:20 *695:27 0.000382421
13 *345:20 *695:56 5.18865e-05
14 *161:194 *345:20 9.43222e-06
*RES
1 *1151:HI *345:20 43.2604 
2 *345:20 *1156:D 9.24915 
*END

*D_NET *346 0.00034932
*CONN
*I *1158:D I *D sky130_fd_sc_hd__dfrtp_1
*I *1157:HI O *D sky130_fd_sc_hd__conb_1
*CAP
1 *1158:D 9.85245e-05
2 *1157:HI 9.85245e-05
3 *1158:D *1186:RESET_B 1.03403e-05
4 *1141:D *1158:D 0.000100054
5 *1503:A *1158:D 4.18761e-05
*RES
1 *1157:HI *1158:D 30.0537 
*END

*D_NET *347 0.000351408
*CONN
*I *1193:D I *D sky130_fd_sc_hd__dfrtp_1
*I *1159:HI O *D sky130_fd_sc_hd__conb_1
*CAP
1 *1193:D 0.000138272
2 *1159:HI 0.000138272
3 *1193:D *1193:CLK 7.48633e-05
*RES
1 *1159:HI *1193:D 21.9947 
*END

*D_NET *306 0.000485451
*CONN
*I *1182:D I *D sky130_fd_sc_hd__dfrtp_1
*I *1306:X O *D sky130_fd_sc_hd__clkdlybuf4s50_1
*CAP
1 *1182:D 0.000207002
2 *1306:X 0.000207002
3 *1182:D *1182:CLK 7.14469e-05
*RES
1 *1306:X *1182:D 31.1877 
*END

*D_NET *307 0.000622537
*CONN
*I *1175:D I *D sky130_fd_sc_hd__dfrtp_1
*I *1305:X O *D sky130_fd_sc_hd__clkdlybuf4s50_1
*CAP
1 *1175:D 0.000265019
2 *1305:X 0.000265019
3 *1175:D *1175:CLK 2.47163e-05
4 *1175:D *696:89 6.77815e-05
*RES
1 *1305:X *1175:D 32.2721 
*END

*D_NET *308 0.000538865
*CONN
*I *1168:D I *D sky130_fd_sc_hd__dfrtp_1
*I *1304:X O *D sky130_fd_sc_hd__clkdlybuf4s50_1
*CAP
1 *1168:D 0.000269432
2 *1304:X 0.000269432
3 *1168:D *1304:A 0
4 *1168:D *1491:A 0
*RES
1 *1304:X *1168:D 33.3757 
*END

*D_NET *309 0.000846883
*CONN
*I *1161:D I *D sky130_fd_sc_hd__dfrtp_1
*I *1303:X O *D sky130_fd_sc_hd__clkdlybuf4s50_1
*CAP
1 *1161:D 0.000369878
2 *1303:X 0.000369878
3 *1161:D tl_o[29] 8.98982e-05
4 *1161:D *1281:A 0
5 *1161:D *1303:A 1.72278e-05
6 *1161:D *1521:A 0
*RES
1 *1303:X *1161:D 35.0395 
*END

*D_NET *391 0.00329663
*CONN
*I *1193:RESET_B I *D sky130_fd_sc_hd__dfrtp_1
*I *1192:RESET_B I *D sky130_fd_sc_hd__dfrtp_1
*I *1149:RESET_B I *D sky130_fd_sc_hd__dfrtp_2
*I *1150:RESET_B I *D sky130_fd_sc_hd__dfrtp_1
*I *1302:X O *D sky130_fd_sc_hd__clkdlybuf4s50_1
*CAP
1 *1193:RESET_B 0.000344611
2 *1192:RESET_B 0.000492741
3 *1149:RESET_B 3.73546e-05
4 *1150:RESET_B 0.000345205
5 *1302:X 0.000337465
6 *391:12 0.000537811
7 *391:8 0.000640847
8 *1149:RESET_B *1149:CLK 4.70567e-05
9 *1150:RESET_B *1149:D 0.00027251
10 *1150:RESET_B *1149:CLK 3.80872e-05
11 *1192:RESET_B *1149:CLK 0
12 *1193:RESET_B *1192:D 3.83967e-05
13 *1193:RESET_B *1192:CLK 9.94834e-05
14 *391:8 *1515:A 6.50586e-05
15 *391:12 *1149:CLK 0
16 *391:12 *1515:A 0
*RES
1 *1302:X *391:8 21.1278 
2 *391:8 *391:12 7.993 
3 *391:12 *1150:RESET_B 7.51126 
4 *391:12 *1149:RESET_B 1.1936 
5 *391:8 *1192:RESET_B 7.993 
6 *1192:RESET_B *1193:RESET_B 8.15026 
*END

*D_NET *392 0.000696612
*CONN
*I *1055:A2 I *D sky130_fd_sc_hd__o21ai_0
*I *1301:X O *D sky130_fd_sc_hd__clkdlybuf4s50_1
*CAP
1 *1055:A2 0.000247682
2 *1301:X 0.000247682
3 *1055:A2 *1301:A 7.66711e-05
4 *1512:A *1055:A2 1.22085e-05
5 *106:26 *1055:A2 0.000112367
*RES
1 *1301:X *1055:A2 24.7918 
*END

*D_NET *393 0.00122302
*CONN
*I *829:B I *D sky130_fd_sc_hd__nand2_1
*I *1300:X O *D sky130_fd_sc_hd__clkdlybuf4s50_1
*CAP
1 *829:B 0.000362657
2 *1300:X 0.000362657
3 *832:B *829:B 0
4 *1493:A *829:B 0.000497703
*RES
1 *1300:X *829:B 37.6842 
*END

*D_NET *394 0.00014591
*CONN
*I *1061:B I *D sky130_fd_sc_hd__nand2_1
*I *1299:X O *D sky130_fd_sc_hd__clkdlybuf4s50_1
*CAP
1 *1061:B 8.27332e-06
2 *1299:X 8.27332e-06
3 *831:A *1061:B 6.46815e-05
4 *1061:A *1061:B 6.46815e-05
*RES
1 *1299:X *1061:B 19.2217 
*END

*D_NET *398 0.00056269
*CONN
*I *855:A I *D sky130_fd_sc_hd__nor2_1
*I *1298:X O *D sky130_fd_sc_hd__clkdlybuf4s50_1
*CAP
1 *855:A 0.000208199
2 *1298:X 0.000208199
3 *855:A tl_o[19] 0.000114875
4 *855:A *855:B 3.14179e-05
*RES
1 *1298:X *855:A 24.2372 
*END

*D_NET *399 0.00145367
*CONN
*I *855:B I *D sky130_fd_sc_hd__nor2_1
*I *784:A I *D sky130_fd_sc_hd__nor3_1
*I *1297:X O *D sky130_fd_sc_hd__clkdlybuf4s50_1
*CAP
1 *855:B 0.000239242
2 *784:A 0.000109622
3 *1297:X 0.000140788
4 *399:6 0.000489652
5 *784:A *784:B 4.64934e-05
6 *855:B cio_gpio_o[2] 5.54675e-05
7 *855:B tl_o[19] 2.09463e-05
8 *855:B *784:B 0.000194842
9 *855:B *400:12 8.36429e-06
10 *399:6 *784:B 1.03403e-05
11 *855:A *855:B 3.14179e-05
12 *856:A *855:B 2.82673e-05
13 *856:C *855:B 4.11367e-05
14 *1298:A *855:B 3.70881e-05
*RES
1 *1297:X *399:6 12.191 
2 *399:6 *784:A 11.6364 
3 *399:6 *855:B 26.0851 
*END

*D_NET *400 0.00440758
*CONN
*I *784:B I *D sky130_fd_sc_hd__nor3_1
*I *856:B I *D sky130_fd_sc_hd__nand3_1
*I *1296:X O *D sky130_fd_sc_hd__clkdlybuf4s50_1
*CAP
1 *784:B 0.00038017
2 *856:B 6.85065e-05
3 *1296:X 0.000791699
4 *400:12 0.00124038
5 *784:B cio_gpio_o[2] 0.000107496
6 *784:B *460:16 0.000188528
7 *856:B cio_gpio_o[2] 0.000158451
8 *856:B *460:16 0.000161234
9 *400:12 tl_o[16] 6.84945e-05
10 *400:12 *1263:A 0
11 *400:12 *1296:A 0.000103035
12 *400:12 *460:16 0
13 *400:12 *559:14 8.10238e-05
14 *784:A *784:B 4.64934e-05
15 *855:B *784:B 0.000194842
16 *855:B *400:12 8.36429e-06
17 *856:C *400:12 9.29777e-05
18 *1070:A *400:12 0.000399435
19 *1297:A *784:B 1.16345e-05
20 *1298:A *784:B 6.97784e-05
21 *1520:A *784:B 3.89804e-05
22 *106:64 *784:B 2.57847e-05
23 *106:64 *856:B 2.01179e-05
24 *106:64 *400:12 0.000139817
25 *399:6 *784:B 1.03403e-05
*RES
1 *1296:X *400:12 37.9748 
2 *400:12 *856:B 21.0832 
3 *400:12 *784:B 29.4261 
*END

*D_NET *401 0.000795236
*CONN
*I *783:B I *D sky130_fd_sc_hd__nand2_8
*I *1295:X O *D sky130_fd_sc_hd__clkdlybuf4s50_1
*CAP
1 *783:B 0.000247767
2 *1295:X 0.000247767
3 *783:B *1453:A 0.000146888
4 *783:B *693:464 4.0813e-05
5 *1295:A *783:B 7.13655e-06
6 *136:65 *783:B 0.000104864
*RES
1 *1295:X *783:B 33.1026 
*END

*D_NET *417 0.00229751
*CONN
*I *800:A0 I *D sky130_fd_sc_hd__mux2_1
*I *969:A1 I *D sky130_fd_sc_hd__mux2_1
*I *1294:X O *D sky130_fd_sc_hd__clkdlybuf4s50_1
*CAP
1 *800:A0 0.000205894
2 *969:A1 0.000583775
3 *1294:X 0.000377881
4 *969:A1 *1294:A 0.000512092
5 *969:A1 *418:16 1.1246e-05
6 *800:A1 *800:A0 6.08467e-05
7 *930:A *800:A0 3.44412e-06
8 *930:A *969:A1 0
9 *953:B *800:A0 0.000244613
10 *965:A2 *969:A1 2.41961e-05
11 *1253:A *969:A1 0
12 *206:14 *800:A0 3.00174e-06
13 *228:73 *800:A0 0.000205839
14 *310:29 *969:A1 6.46815e-05
*RES
1 *1294:X *969:A1 38.6374 
2 *969:A1 *800:A0 33.5151 
*END

*D_NET *418 0.00744558
*CONN
*I *968:A1 I *D sky130_fd_sc_hd__mux2_1
*I *799:A0 I *D sky130_fd_sc_hd__mux2_1
*I *1293:X O *D sky130_fd_sc_hd__clkdlybuf4s50_1
*CAP
1 *968:A1 0.000359374
2 *799:A0 0.00075237
3 *1293:X 0.000932887
4 *418:16 0.00132588
5 *799:A0 *1078:RESET_B 0.00016524
6 *799:A0 *1145:RESET_B 0.000460238
7 *799:A0 *1145:CLK 6.06269e-06
8 *799:A0 *700:19 1.67286e-05
9 *799:A0 *700:34 1.21985e-05
10 *968:A1 *799:S 6.08467e-05
11 *968:A1 *954:A2 0.000165684
12 *968:A1 *954:B1 0.000107496
13 *968:A1 *459:47 0.000120779
14 *418:16 cio_gpio_o[0] 0
15 *418:16 *1145:CLK 1.05601e-05
16 *418:16 *1294:A 0.000741685
17 *767:A2 *418:16 2.97532e-05
18 *926:A1 *418:16 0
19 *942:B1 *968:A1 0.000112367
20 *950:A1 *968:A1 5.84746e-05
21 *955:B *968:A1 5.41377e-05
22 *965:B1 *418:16 4.78409e-05
23 *969:A1 *418:16 1.1246e-05
24 *1077:D *418:16 9.64718e-05
25 *1078:D *968:A1 5.90539e-05
26 *1081:D *418:16 9.46009e-05
27 *1145:D *418:16 0.000314524
28 *1253:A *418:16 0
29 *1522:A *418:16 2.70061e-05
30 *111:29 *968:A1 0.000259516
31 *111:40 *968:A1 6.17846e-05
32 *228:18 *968:A1 3.99086e-06
33 *228:24 *799:A0 0.000829045
34 *228:24 *418:16 2.60419e-05
35 *381:16 *799:A0 6.08467e-05
36 *381:16 *968:A1 6.08467e-05
37 *385:10 *799:A0 0
*RES
1 *1293:X *418:16 41.137 
2 *418:16 *799:A0 29.8002 
3 *799:A0 *968:A1 40.1381 
*END

*D_NET *419 0.00427724
*CONN
*I *966:B I *D sky130_fd_sc_hd__nand2_1
*I *797:A I *D sky130_fd_sc_hd__nor2_1
*I *1292:X O *D sky130_fd_sc_hd__clkdlybuf4s50_1
*CAP
1 *966:B 0.000303528
2 *797:A 0
3 *1292:X 0.00106167
4 *419:12 0.0013652
5 *966:B *1102:RESET_B 8.95297e-05
6 *966:B *1190:RESET_B 0.00015796
7 *966:B *625:139 0.000372951
8 *966:B *690:427 7.62543e-05
9 *419:12 *1102:RESET_B 8.5518e-05
10 *419:12 *525:10 6.55651e-05
11 *419:12 *693:357 0.000610735
12 *791:A1 *419:12 2.69346e-05
13 *895:B *966:B 3.553e-05
14 *935:A *966:B 0
15 *1102:D *419:12 2.58616e-05
*RES
1 *1292:X *419:12 29.8659 
2 *419:12 *797:A 9.24915 
3 *419:12 *966:B 29.2489 
*END

*D_NET *420 0.0018268
*CONN
*I *1049:B I *D sky130_fd_sc_hd__nand2_1
*I *1069:A0 I *D sky130_fd_sc_hd__mux2_1
*I *1291:X O *D sky130_fd_sc_hd__clkdlybuf4s50_1
*CAP
1 *1049:B 8.03297e-05
2 *1069:A0 9.09671e-05
3 *1291:X 0.000382893
4 *420:6 0.00055419
5 *1049:B *690:12 1.41761e-05
6 *1049:B *693:126 0
7 *1069:A0 *690:146 1.94997e-06
8 *1069:A0 *690:152 2.41483e-05
9 *420:6 *690:8 0.00048572
10 *420:6 *690:146 5.51483e-06
11 *763:A2 *1049:B 1.77537e-06
12 *936:A2 *1049:B 2.99929e-05
13 *1069:A1 *1069:A0 0.000104118
14 *1069:A1 *420:6 4.58003e-05
15 *228:135 *1049:B 5.22654e-06
*RES
1 *1291:X *420:6 16.0732 
2 *420:6 *1069:A0 11.8293 
3 *420:6 *1049:B 20.4964 
*END

*D_NET *421 0.0033699
*CONN
*I *964:B I *D sky130_fd_sc_hd__nand2_1
*I *827:A0 I *D sky130_fd_sc_hd__mux2_1
*I *1290:X O *D sky130_fd_sc_hd__clkdlybuf4s50_1
*CAP
1 *964:B 0.000174857
2 *827:A0 0.000138461
3 *1290:X 0.000518903
4 *421:10 0.000832221
5 *827:A0 *826:A0 0.000134727
6 *827:A0 *690:93 1.03403e-05
7 *421:10 *826:A0 0.00028576
8 *421:10 *1082:RESET_B 0
9 *421:10 *1290:A 0.000109513
10 *767:A2 *964:B 9.16863e-05
11 *768:A2 *827:A0 6.08467e-05
12 *925:A *421:10 2.73957e-05
13 *962:A *421:10 0.000360083
14 *963:A1 *964:B 0.000112367
15 *1082:D *421:10 7.8435e-05
16 *1252:A *421:10 8.3647e-05
17 *1518:A *421:10 4.70559e-05
18 *200:12 *964:B 3.52873e-06
19 *228:47 *964:B 0.000300073
*RES
1 *1290:X *421:10 29.9396 
2 *421:10 *827:A0 17.3427 
3 *421:10 *964:B 19.4734 
*END

*D_NET *422 0.00453563
*CONN
*I *962:B I *D sky130_fd_sc_hd__nand2_1
*I *826:A0 I *D sky130_fd_sc_hd__mux2_1
*I *1289:X O *D sky130_fd_sc_hd__clkdlybuf4s50_1
*CAP
1 *962:B 0.000171726
2 *826:A0 0.000884348
3 *1289:X 0.000532923
4 *422:10 0.001589
5 *826:A0 *568:12 0
6 *826:A0 *625:89 0
7 *826:A0 *690:76 0
8 *826:A0 *691:56 4.62298e-05
9 *962:B *698:68 6.25842e-05
10 *422:10 *1081:CLK 7.58595e-05
11 *826:A1 *826:A0 5.00509e-05
12 *827:A0 *826:A0 0.000134727
13 *925:A *962:B 3.19445e-05
14 *925:A *422:10 0.000244818
15 *962:A *962:B 6.08467e-05
16 *963:B1 *826:A0 5.74984e-05
17 *963:B1 *962:B 6.50727e-05
18 *1082:D *826:A0 1.23455e-05
19 *1130:D *826:A0 0
20 *1252:A *422:10 0.000113333
21 *1522:A *826:A0 0
22 *1522:A *422:10 0
23 *106:503 *826:A0 1.37189e-05
24 *200:12 *826:A0 6.1096e-05
25 *200:12 *962:B 4.17481e-05
26 *421:10 *826:A0 0.00028576
*RES
1 *1289:X *422:10 26.5521 
2 *422:10 *826:A0 39.0514 
3 *422:10 *962:B 18.5812 
*END

*D_NET *424 0.00204308
*CONN
*I *960:B I *D sky130_fd_sc_hd__nand2_1
*I *825:A0 I *D sky130_fd_sc_hd__mux2_1
*I *1288:X O *D sky130_fd_sc_hd__clkdlybuf4s50_1
*CAP
1 *960:B 9.51899e-06
2 *825:A0 0.000223928
3 *1288:X 0.000243615
4 *424:10 0.000477062
5 *825:A0 *699:39 4.98283e-05
6 *825:A0 *699:67 0.000112361
7 *424:10 *1288:A 0
8 *825:A1 *825:A0 6.27718e-05
9 *920:A *960:B 4.3663e-05
10 *920:A *424:10 0.000372129
11 *961:A1 *825:A0 9.54187e-05
12 *961:A1 *960:B 1.07248e-05
13 *1083:D *424:10 0.000154914
14 *1251:A *424:10 0.000122083
15 *1519:A *424:10 6.50586e-05
*RES
1 *1288:X *424:10 23.1562 
2 *424:10 *825:A0 20.1689 
3 *424:10 *960:B 14.543 
*END

*D_NET *425 0.0029287
*CONN
*I *1064:A0 I *D sky130_fd_sc_hd__mux2_1
*I *1051:B I *D sky130_fd_sc_hd__nand2_1
*I *1287:X O *D sky130_fd_sc_hd__clkdlybuf4s50_1
*CAP
1 *1064:A0 0.000411699
2 *1051:B 0
3 *1287:X 0.000552057
4 *425:10 0.000963755
5 *1064:A0 *699:26 7.22559e-05
6 *425:10 *1083:RESET_B 0
7 *425:10 *1083:CLK 0
8 *425:10 *1287:A 0.000116792
9 *425:10 *1288:A 0
10 *425:10 *699:39 0
11 *931:B1 *1064:A0 0.000357395
12 *1052:B1 *425:10 0
13 *1083:D *425:10 0
14 *1131:D *1064:A0 7.93774e-05
15 *1132:D *1064:A0 0.000205763
16 *1249:A *1064:A0 0
17 *1249:A *425:10 0
18 *1514:A *425:10 8.11078e-06
19 *1519:A *425:10 6.50727e-05
20 *228:92 *1064:A0 9.11986e-05
21 *228:92 *425:10 5.22654e-06
22 *310:29 *1064:A0 0
*RES
1 *1287:X *425:10 25.9975 
2 *425:10 *1051:B 13.7491 
3 *425:10 *1064:A0 27.1067 
*END

*D_NET *426 0.00160588
*CONN
*I *814:A I *D sky130_fd_sc_hd__nor2_1
*I *1286:X O *D sky130_fd_sc_hd__clkdlybuf4s50_1
*CAP
1 *814:A 0.000563643
2 *1286:X 0.000563643
3 *814:A tl_o[28] 0
4 *814:A *1186:RESET_B 0.000114584
5 *814:A *1227:A 0.000108741
6 *814:A *692:12 0.000140689
7 *815:B1 *814:A 0.000114584
8 *1245:A *814:A 0
9 *1457:A *814:A 0
*RES
1 *1286:X *814:A 42.2676 
*END

*D_NET *427 0.00263908
*CONN
*I *811:A I *D sky130_fd_sc_hd__nor2_1
*I *1285:X O *D sky130_fd_sc_hd__clkdlybuf4s50_1
*CAP
1 *811:A 0.00105843
2 *1285:X 0.00105843
3 *811:A *1065:A0 9.32174e-05
4 *811:A *1065:S 7.58194e-05
5 *811:A *1100:CLK 0.000193478
6 *811:A *1173:D 0.000113909
7 *811:A *1173:CLK 1.2954e-05
8 *1065:A1 *811:A 1.09575e-05
9 *175:71 *811:A 2.18741e-05
*RES
1 *1285:X *811:A 46.5468 
*END

*D_NET *428 0.00120486
*CONN
*I *808:A I *D sky130_fd_sc_hd__nor2_1
*I *1284:X O *D sky130_fd_sc_hd__clkdlybuf4s50_1
*CAP
1 *808:A 0.000409172
2 *1284:X 0.000409172
3 *808:A intr_gpio_o[2] 0
4 *808:A *1111:CLK 1.07248e-05
5 *808:A *1284:A 2.84892e-05
6 *875:A *808:A 0.000153473
7 *1111:D *808:A 4.67686e-05
8 *371:14 *808:A 0.000147065
*RES
1 *1284:X *808:A 38.0828 
*END

*D_NET *429 0.00121235
*CONN
*I *1066:A I *D sky130_fd_sc_hd__nor2_1
*I *1283:X O *D sky130_fd_sc_hd__clkdlybuf4s50_1
*CAP
1 *1066:A 0.000435168
2 *1283:X 0.000435168
3 *1066:A tl_o[27] 0
4 *1066:A *880:B 6.50586e-05
5 *1066:A *1066:B 6.68457e-06
6 *1066:A *1283:A 1.43698e-05
7 *1066:A *531:10 7.50872e-05
8 *880:A *1066:A 3.01683e-06
9 *881:B *1066:A 1.00981e-05
10 *1067:B1 *1066:A 0.000146358
11 *106:246 *1066:A 7.98425e-06
12 *161:260 *1066:A 1.03434e-05
13 *161:273 *1066:A 3.01683e-06
*RES
1 *1283:X *1066:A 37.6143 
*END

*D_NET *430 0.00186624
*CONN
*I *805:A I *D sky130_fd_sc_hd__nor2_1
*I *1282:X O *D sky130_fd_sc_hd__clkdlybuf4s50_1
*CAP
1 *805:A 0
2 *1282:X 0.000385805
3 *430:22 0.000385805
4 *430:22 *805:B 6.27718e-05
5 *430:22 *1149:CLK 0
6 *430:22 *1158:RESET_B 0.00023503
7 *430:22 *1186:RESET_B 0.000168343
8 *806:A1 *430:22 0.000436312
9 *806:B1 *430:22 0.000108726
10 *1457:A *430:22 5.89474e-05
11 *1503:A *430:22 2.44969e-05
*RES
1 *1282:X *430:22 41.943 
2 *430:22 *805:A 9.24915 
*END

*D_NET *431 0.000209517
*CONN
*I *803:A I *D sky130_fd_sc_hd__nor2_1
*I *1281:X O *D sky130_fd_sc_hd__clkdlybuf4s50_1
*CAP
1 *803:A 8.03976e-05
2 *1281:X 8.03976e-05
3 *803:A *803:B 1.87928e-05
4 *804:B1 *803:A 2.99287e-05
*RES
1 *1281:X *803:A 20.9096 
*END

*D_NET *432 0.00189322
*CONN
*I *801:A I *D sky130_fd_sc_hd__nor2_1
*I *1280:X O *D sky130_fd_sc_hd__clkdlybuf4s50_1
*CAP
1 *801:A 0.000452261
2 *1280:X 0.000452261
3 *801:A *1143:RESET_B 6.79641e-05
4 *801:A *693:628 0.000105423
5 *801:A *708:26 2.16355e-05
6 *801:A *739:12 0.000665551
7 *907:A2 *801:A 7.3125e-05
8 *1113:D *801:A 0
9 *88:31 *801:A 5.50027e-05
10 *161:109 *801:A 0
*RES
1 *1280:X *801:A 42.2917 
*END

*D_NET *433 0.00047243
*CONN
*I *1068:A0 I *D sky130_fd_sc_hd__mux2_1
*I *1278:X O *D sky130_fd_sc_hd__clkdlybuf4s50_1
*CAP
1 *1068:A0 0.000232137
2 *1278:X 0.000232137
3 *1113:D *1068:A0 3.86207e-06
4 *161:109 *1068:A0 4.29314e-06
*RES
1 *1278:X *1068:A0 31.3022 
*END

*D_NET *435 0.0016552
*CONN
*I *823:A I *D sky130_fd_sc_hd__nor2_1
*I *1276:X O *D sky130_fd_sc_hd__clkdlybuf4s50_1
*CAP
1 *823:A 0.000827602
2 *1276:X 0.000827602
3 *823:A *696:72 0
4 *1133:D *823:A 0
*RES
1 *1276:X *823:A 40.3125 
*END

*D_NET *436 0.000405946
*CONN
*I *820:A I *D sky130_fd_sc_hd__nor2_1
*I *1275:X O *D sky130_fd_sc_hd__clkdlybuf4s50_1
*CAP
1 *820:A 0.000157576
2 *1275:X 0.000157576
3 *820:A *820:B 1.4106e-05
4 *820:A *1219:A 1.04731e-05
5 *821:A1 *820:A 3.44412e-06
6 *821:B1 *820:A 6.27718e-05
*RES
1 *1275:X *820:A 30.3324 
*END

*D_NET *437 0.00333935
*CONN
*I *817:A I *D sky130_fd_sc_hd__nor2_1
*I *1273:X O *D sky130_fd_sc_hd__clkdlybuf4s50_1
*CAP
1 *817:A 0
2 *1273:X 0.00113468
3 *437:14 0.00113468
4 *437:14 *817:B 0.000110297
5 *437:14 *818:A2 1.09738e-05
6 *437:14 *1167:CLK 3.99835e-05
7 *437:14 *1168:RESET_B 0.000210067
8 *437:14 *1168:CLK 4.0752e-05
9 *437:14 *690:209 0.000192134
10 *437:14 *692:274 8.23577e-05
11 *437:14 *692:281 0.00037675
12 *437:14 *702:34 6.68457e-06
*RES
1 *1273:X *437:14 42.1764 
2 *437:14 *817:A 9.24915 
*END

*D_NET *438 0.00109128
*CONN
*I *1065:A0 I *D sky130_fd_sc_hd__mux2_1
*I *1271:X O *D sky130_fd_sc_hd__clkdlybuf4s50_1
*CAP
1 *1065:A0 0.000305075
2 *1271:X 0.000305075
3 *811:A *1065:A0 9.32174e-05
4 *1136:D *1065:A0 0.000387915
*RES
1 *1271:X *1065:A0 28.0953 
*END

*D_NET *452 0.00134569
*CONN
*I *791:B1_N I *D sky130_fd_sc_hd__a21boi_0
*I *1269:X O *D sky130_fd_sc_hd__clkdlybuf4s50_1
*CAP
1 *791:B1_N 0.000424945
2 *1269:X 0.000424945
3 *791:B1_N *1055:A1 0.000302956
4 *791:B1_N *1292:A 8.10464e-05
5 *791:B1_N *501:6 0.000111802
*RES
1 *1269:X *791:B1_N 25.901 
*END

*D_NET *453 0.000783755
*CONN
*I *790:A I *D sky130_fd_sc_hd__nand2_1
*I *1268:X O *D sky130_fd_sc_hd__clkdlybuf4s50_1
*CAP
1 *790:A 0.000359537
2 *1268:X 0.000359537
3 *790:A *1301:A 6.46815e-05
*RES
1 *1268:X *790:A 26.0457 
*END

*D_NET *454 0.000101215
*CONN
*I *790:B I *D sky130_fd_sc_hd__nand2_1
*I *1267:X O *D sky130_fd_sc_hd__clkdlybuf4s50_1
*CAP
1 *790:B 1.82665e-05
2 *1267:X 1.82665e-05
3 *790:B *1301:A 6.46815e-05
*RES
1 *1267:X *790:B 19.2217 
*END

*D_NET *457 0.000799915
*CONN
*I *785:A I *D sky130_fd_sc_hd__inv_1
*I *1266:X O *D sky130_fd_sc_hd__clkdlybuf4s50_1
*CAP
1 *785:A 0.000198028
2 *1266:X 0.000198028
3 *785:A *1266:A 0.000383717
4 *857:A1 *785:A 2.01413e-05
*RES
1 *1266:X *785:A 24.5567 
*END

*D_NET *458 0.000684072
*CONN
*I *786:A I *D sky130_fd_sc_hd__inv_1
*I *1265:X O *D sky130_fd_sc_hd__clkdlybuf4s50_1
*CAP
1 *786:A 0.000199695
2 *1265:X 0.000199695
3 *857:A1 *786:A 6.08467e-05
4 *106:49 *786:A 0.000130014
5 *107:8 *786:A 3.0274e-05
6 *109:6 *786:A 6.35467e-05
*RES
1 *1265:X *786:A 32.4093 
*END

*D_NET *459 0.0192782
*CONN
*I *792:B I *D sky130_fd_sc_hd__nand2_1
*I *948:B1 I *D sky130_fd_sc_hd__a21oi_1
*I *789:A I *D sky130_fd_sc_hd__nor2_4
*I *954:B1 I *D sky130_fd_sc_hd__a21oi_1
*I *927:A2 I *D sky130_fd_sc_hd__o21ai_0
*I *917:A2 I *D sky130_fd_sc_hd__o21ai_0
*I *922:A2 I *D sky130_fd_sc_hd__o21ai_0
*I *915:A I *D sky130_fd_sc_hd__lpflow_clkinvkapwr_1
*I *932:A2 I *D sky130_fd_sc_hd__o21ai_0
*I *936:B1 I *D sky130_fd_sc_hd__a21oi_1
*I *1264:X O *D sky130_fd_sc_hd__clkdlybuf4s50_1
*CAP
1 *792:B 1.99394e-05
2 *948:B1 4.35285e-05
3 *789:A 0.00049967
4 *954:B1 2.60774e-05
5 *927:A2 0
6 *917:A2 1.82395e-05
7 *922:A2 7.82009e-05
8 *915:A 0
9 *932:A2 0.000280043
10 *936:B1 3.17117e-05
11 *1264:X 0.00112715
12 *459:93 0.000426406
13 *459:84 0.00129609
14 *459:61 0.00136989
15 *459:59 0.000260179
16 *459:57 0.000217221
17 *459:55 0.000658373
18 *459:47 0.000433073
19 *459:32 0.000991887
20 *459:14 0.00182174
21 *789:A *954:A2 0.000100151
22 *789:A *1480:A 6.50586e-05
23 *932:A2 *800:S 1.44467e-05
24 *932:A2 *690:14 7.61493e-05
25 *932:A2 *690:16 8.68133e-05
26 *932:A2 *690:39 0.000111722
27 *932:A2 *698:12 9.60366e-05
28 *936:B1 *936:A1 1.41976e-05
29 *936:B1 *938:A3 6.27718e-05
30 *948:B1 *948:A2 3.58044e-05
31 *459:14 *957:A 3.86207e-06
32 *459:14 *1092:CLK 4.17467e-05
33 *459:14 *1237:A 0.000136409
34 *459:14 *1239:A 0
35 *459:14 *1240:A 8.05028e-05
36 *459:14 *460:28 9.43286e-05
37 *459:14 *511:10 0.000170592
38 *459:14 *693:412 0
39 *459:14 *693:414 0
40 *459:14 *693:416 0
41 *459:32 *936:A1 4.66492e-05
42 *459:32 *460:28 0.00110064
43 *459:32 *460:38 0.000107496
44 *459:47 *936:A1 0.000259137
45 *459:47 *938:A3 0.000122978
46 *459:55 *948:A2 0.00014491
47 *459:55 *690:12 3.57202e-05
48 *459:57 *954:A2 8.89094e-05
49 *459:59 *954:A2 0.000273736
50 *459:59 *690:14 1.64597e-05
51 *459:61 *690:14 0.00011459
52 *459:84 *953:A 0.000263225
53 *787:A *459:14 6.08467e-05
54 *794:B *459:32 5.30717e-05
55 *854:A *459:14 4.04935e-05
56 *859:A *459:14 1.45799e-05
57 *887:A *459:84 6.92705e-05
58 *887:A *459:93 0.000504318
59 *912:A *459:14 0.000139684
60 *931:A1 *932:A2 0
61 *932:A1 *932:A2 6.27718e-05
62 *936:A2 *459:47 1.03594e-05
63 *937:A2 *459:32 6.27718e-05
64 *937:B1 *936:B1 4.89251e-05
65 *937:B1 *459:32 8.52561e-05
66 *937:B1 *459:47 4.76161e-06
67 *938:B1 *459:32 7.48715e-05
68 *944:A1 *459:32 0.00023711
69 *944:B2 *459:32 0.000208062
70 *946:A2 *459:32 0.00048994
71 *948:A1 *948:B1 5.04829e-06
72 *950:A1 *789:A 3.314e-05
73 *950:A1 *954:B1 0.000107496
74 *950:A2 *789:A 2.57847e-05
75 *950:B1 *789:A 3.57594e-05
76 *952:A2 *789:A 0.000568122
77 *953:B *932:A2 0.00033614
78 *955:A *459:84 8.21793e-05
79 *955:B *459:59 6.99617e-05
80 *955:B *459:61 8.79352e-05
81 *955:B *459:84 5.45523e-05
82 *956:A1 *459:84 3.71132e-05
83 *956:B1 *459:84 5.99529e-06
84 *959:B *459:32 3.99086e-06
85 *959:C *459:14 1.55915e-05
86 *959:C *459:32 2.8212e-05
87 *968:A1 *954:B1 0.000107496
88 *968:A1 *459:47 0.000120779
89 *1072:D *459:14 0.000104731
90 *1078:D *459:47 0.000124362
91 *1078:D *459:55 0.000118485
92 *1078:D *459:57 9.24241e-05
93 *1078:D *459:59 0.000162884
94 *106:499 *459:14 0
95 *111:40 *459:47 2.44579e-05
96 *111:55 *459:47 2.6655e-05
97 *111:74 *459:32 1.97124e-05
98 *112:8 *789:A 0.000122239
99 *116:18 *459:14 6.46815e-05
100 *116:27 *792:B 3.13805e-06
101 *116:27 *459:14 5.62568e-05
102 *116:27 *459:32 0.000207179
103 *192:10 *459:84 0.000104131
104 *192:25 *932:A2 0
105 *311:39 *789:A 0
106 *381:8 *948:B1 2.16355e-05
107 *381:8 *459:55 1.80257e-05
108 *386:8 *922:A2 0.000261007
109 *386:32 *917:A2 5.41377e-05
110 *386:32 *922:A2 6.43474e-05
111 *387:21 *917:A2 4.55115e-05
112 *387:21 *922:A2 0.000325354
*RES
1 *1264:X *459:14 45.9025 
2 *459:14 *459:32 28.9358 
3 *459:32 *936:B1 10.5271 
4 *459:32 *459:47 19.3005 
5 *459:47 *459:55 8.60396 
6 *459:55 *459:57 1.832 
7 *459:57 *459:59 5.98452 
8 *459:59 *459:61 4.73876 
9 *459:61 *932:A2 23.9184 
10 *459:61 *459:84 30.0865 
11 *459:84 *915:A 9.24915 
12 *459:84 *459:93 10.2148 
13 *459:93 *922:A2 19.3184 
14 *459:93 *917:A2 14.7506 
15 *459:59 *927:A2 13.7491 
16 *459:57 *954:B1 15.0271 
17 *459:55 *789:A 26.7462 
18 *459:47 *948:B1 10.5271 
19 *459:14 *792:B 9.82786 
*END

*D_NET *460 0.015025
*CONN
*I *792:A I *D sky130_fd_sc_hd__nand2_1
*I *959:A I *D sky130_fd_sc_hd__nor4_4
*I *788:A I *D sky130_fd_sc_hd__inv_4
*I *953:A I *D sky130_fd_sc_hd__nor3_1
*I *936:A1 I *D sky130_fd_sc_hd__a21oi_1
*I *947:A I *D sky130_fd_sc_hd__nor3_1
*I *1263:X O *D sky130_fd_sc_hd__clkdlybuf4s50_1
*CAP
1 *792:A 2.68696e-05
2 *959:A 0
3 *788:A 0
4 *953:A 0.000420302
5 *936:A1 0.000713206
6 *947:A 2.32904e-05
7 *1263:X 0.00145871
8 *460:72 0.000628467
9 *460:40 0.000778484
10 *460:38 0.000664957
11 *460:28 0.0012438
12 *460:20 0.00097932
13 *460:16 0.00158217
14 *936:A1 *625:132 0
15 *947:A *625:132 2.7837e-05
16 *953:A *1088:RESET_B 0
17 *953:A *1088:CLK 0
18 *953:A *691:155 0.00015233
19 *953:A *691:169 2.28433e-06
20 *460:16 cio_gpio_o[1] 1.1573e-05
21 *460:16 cio_gpio_o[2] 0.00034282
22 *460:16 tl_o[62] 0.000152007
23 *460:16 *1263:A 0.000103042
24 *460:16 *1296:A 0
25 *460:38 *944:A3 0.000122992
26 *460:38 *1079:CLK 0.000180318
27 *460:38 *625:132 7.21811e-05
28 *460:38 *625:139 7.0179e-06
29 *460:38 *701:64 0.000198747
30 *460:40 *625:132 2.44829e-05
31 *460:72 *1088:CLK 0
32 *460:72 *701:40 0
33 *460:72 *701:64 0
34 *784:B *460:16 0.000188528
35 *856:B *460:16 0.000161234
36 *859:A *792:A 9.05084e-06
37 *859:A *460:16 0.000406978
38 *859:A *460:20 3.31432e-05
39 *860:B *792:A 4.39919e-05
40 *860:B *460:20 0.0001195
41 *887:B *953:A 0.00014612
42 *936:B1 *936:A1 1.41976e-05
43 *947:B *947:A 0.000117376
44 *947:B *460:40 4.81452e-05
45 *947:B *460:72 0.000280466
46 *956:A1 *953:A 4.73113e-06
47 *967:A1 *936:A1 4.75615e-05
48 *1298:A *460:16 0.00013792
49 *111:55 *936:A1 0.0001195
50 *111:74 *936:A1 0.000124804
51 *112:21 *953:A 0.000155629
52 *112:21 *460:72 1.75024e-05
53 *112:45 *460:38 9.97824e-05
54 *116:18 *792:A 5.03545e-06
55 *192:10 *953:A 8.17142e-05
56 *192:42 *936:A1 0
57 *228:8 *460:38 2.16355e-05
58 *228:14 *936:A1 0.000267394
59 *228:14 *460:38 0.000279468
60 *228:18 *936:A1 0.00025808
61 *228:160 *460:38 4.68256e-05
62 *400:12 *460:16 0
63 *459:14 *460:28 9.43286e-05
64 *459:32 *936:A1 4.66492e-05
65 *459:32 *460:28 0.00110064
66 *459:32 *460:38 0.000107496
67 *459:47 *936:A1 0.000259137
68 *459:84 *953:A 0.000263225
*RES
1 *1263:X *460:16 48.0169 
2 *460:16 *460:20 7.57775 
3 *460:20 *460:28 19.6913 
4 *460:28 *460:38 24.4661 
5 *460:38 *460:40 1.278 
6 *460:40 *947:A 10.5271 
7 *460:40 *936:A1 43.1649 
8 *460:38 *460:72 10.8998 
9 *460:72 *953:A 27.6585 
10 *460:72 *788:A 13.7491 
11 *460:28 *959:A 9.24915 
12 *460:20 *792:A 14.7506 
*END

*D_NET *370 0.00533031
*CONN
*I *767:A2 I *D sky130_fd_sc_hd__a21oi_1
*I *956:A1 I *D sky130_fd_sc_hd__a21oi_1
*I *800:A1 I *D sky130_fd_sc_hd__mux2_1
*I *1145:Q O *D sky130_fd_sc_hd__dfrtp_1
*CAP
1 *767:A2 0.00097646
2 *956:A1 0.000303043
3 *800:A1 0.00147179
4 *1145:Q 0.000798374
5 *767:A2 *800:S 0.000110458
6 *767:A2 *964:B 9.16863e-05
7 *767:A2 *418:16 2.97532e-05
8 *800:A1 *800:A0 6.08467e-05
9 *800:A1 *1131:RESET_B 3.07384e-05
10 *800:A1 *699:22 0
11 *956:A1 *953:A 4.73113e-06
12 *956:A1 *1131:RESET_B 6.64392e-05
13 *956:A1 *459:84 3.71132e-05
14 *887:B *956:A1 0.000198788
15 *931:A1 *800:A1 5.39608e-05
16 *931:A1 *956:A1 0
17 *931:A2 *800:A1 0.000138334
18 *953:B *800:A1 0
19 *963:A1 *767:A2 0.000206718
20 *965:B1 *767:A2 6.27718e-05
21 *1522:A *767:A2 9.76854e-05
22 *206:14 *800:A1 0.00015901
23 *228:28 *767:A2 4.19058e-05
24 *228:47 *767:A2 0.000113558
25 *228:73 *767:A2 0.000168646
26 *228:73 *800:A1 0.000107496
*RES
1 *1145:Q *800:A1 39.0905 
2 *1145:Q *956:A1 35.11 
3 *800:A1 *767:A2 46.3783 
*END

*D_NET *371 0.00231215
*CONN
*I *807:A I *D sky130_fd_sc_hd__inv_1
*I *757:A I *D sky130_fd_sc_hd__nor2_1
*I *1139:Q O *D sky130_fd_sc_hd__dfrtp_1
*CAP
1 *807:A 0
2 *757:A 0.000190934
3 *1139:Q 0.000549638
4 *371:14 0.000740571
5 *371:14 *808:A 0.000147065
6 *371:14 *1111:CLK 6.5742e-05
7 *371:14 *1139:RESET_B 6.12969e-05
8 *760:B2 *757:A 0
9 *809:A1 *757:A 2.20593e-05
10 *809:A1 *371:14 8.10303e-05
11 *1111:D *757:A 0.000200045
12 *1111:D *371:14 8.89373e-05
13 *161:96 *757:A 0.000150398
14 *161:96 *371:14 1.44314e-05
*RES
1 *1139:Q *371:14 29.8527 
2 *371:14 *757:A 23.8393 
3 *371:14 *807:A 9.24915 
*END

*D_NET *372 0.00331124
*CONN
*I *1032:B1 I *D sky130_fd_sc_hd__a21oi_1
*I *903:A I *D sky130_fd_sc_hd__inv_1
*I *1140:Q O *D sky130_fd_sc_hd__dfrtp_1
*CAP
1 *1032:B1 0.000649698
2 *903:A 0.000224565
3 *1140:Q 0
4 *372:4 0.000874263
5 *903:A intr_gpio_o[3] 0
6 *903:A *1143:CLK 6.00497e-05
7 *903:A *690:376 5.32194e-05
8 *1032:B1 *1031:A 1.56822e-05
9 *1032:B1 *1068:A1 1.67286e-05
10 *1032:B1 *690:325 6.49514e-05
11 *1032:B1 *690:338 1.74663e-05
12 *802:B1 *903:A 1.4476e-05
13 *802:B1 *1032:B1 7.50722e-05
14 *1144:D *1032:B1 0.000347036
15 *1242:A *1032:B1 0.000535454
16 *106:150 *903:A 0.000187816
17 *184:6 *903:A 6.32655e-05
18 *318:12 *1032:B1 0.000111495
*RES
1 *1140:Q *372:4 9.24915 
2 *372:4 *903:A 24.6524 
3 *372:4 *1032:B1 40.7539 
*END

*D_NET *373 0.000385019
*CONN
*I *769:A I *D sky130_fd_sc_hd__inv_1
*I *1141:Q O *D sky130_fd_sc_hd__dfrtp_1
*CAP
1 *769:A 0.000100076
2 *1141:Q 0.000100076
3 *96:8 *769:A 0.000184868
*RES
1 *1141:Q *769:A 21.5305 
*END

*D_NET *374 0.00201219
*CONN
*I *764:A I *D sky130_fd_sc_hd__inv_1
*I *1142:Q O *D sky130_fd_sc_hd__dfrtp_1
*CAP
1 *764:A 0.000536159
2 *1142:Q 0.000536159
3 *764:A *899:B 1.77537e-06
4 *764:A *1104:RESET_B 0
5 *764:A *696:10 0
6 *899:A *764:A 0.000569739
7 *92:6 *764:A 3.21692e-05
8 *106:537 *764:A 0.000336193
*RES
1 *1142:Q *764:A 44.1368 
*END

*D_NET *375 0.000190733
*CONN
*I *759:A I *D sky130_fd_sc_hd__inv_1
*I *1143:Q O *D sky130_fd_sc_hd__dfrtp_1
*CAP
1 *759:A 3.48433e-05
2 *1143:Q 3.48433e-05
3 *907:A2 *759:A 3.57699e-05
4 *88:8 *759:A 8.52766e-05
*RES
1 *1143:Q *759:A 20.0114 
*END

*D_NET *376 0.00679676
*CONN
*I *895:B I *D sky130_fd_sc_hd__nand3_1
*I *1068:A1 I *D sky130_fd_sc_hd__mux2_1
*I *1033:B1 I *D sky130_fd_sc_hd__a211oi_1
*I *1144:Q O *D sky130_fd_sc_hd__dfrtp_1
*CAP
1 *895:B 0.000869603
2 *1068:A1 0.000396979
3 *1033:B1 1.47608e-05
4 *1144:Q 0
5 *376:10 0.000976895
6 *376:4 0.00143476
7 *895:B *758:A1 6.50727e-05
8 *895:B *758:A2 2.61147e-05
9 *895:B *885:B 0.000119367
10 *895:B *966:B 3.553e-05
11 *895:B *1033:A1 9.92478e-05
12 *895:B *1080:CLK 1.4106e-05
13 *895:B *1102:RESET_B 0.000259244
14 *895:B *690:427 0.000118017
15 *1068:A1 *1068:S 4.36956e-05
16 *1068:A1 *1148:RESET_B 0.000347798
17 *1068:A1 *690:319 0.000273839
18 *1068:A1 *690:325 4.47179e-05
19 *376:10 *1080:CLK 2.84892e-05
20 *376:10 *1144:RESET_B 0.000101881
21 *376:10 *1144:CLK 0.000130863
22 *376:10 *1148:RESET_B 4.83709e-05
23 *376:10 *693:136 5.54585e-05
24 *756:B *895:B 3.77804e-05
25 *760:B1 *895:B 1.21461e-06
26 *895:C *895:B 6.50586e-05
27 *1032:B1 *1068:A1 1.67286e-05
28 *1033:C1 *1033:B1 6.08467e-05
29 *1034:B1 *1033:B1 6.08467e-05
30 *1144:D *1068:A1 0.000896167
31 *1144:D *376:10 0.000110531
32 *84:14 *895:B 4.27717e-05
*RES
1 *1144:Q *376:4 9.24915 
2 *376:4 *376:10 14.6805 
3 *376:10 *1033:B1 14.4725 
4 *376:10 *1068:A1 32.9174 
5 *376:4 *895:B 37.0456 
*END

*D_NET *377 0.00471778
*CONN
*I *753:A I *D sky130_fd_sc_hd__nand2_1
*I *754:A1 I *D sky130_fd_sc_hd__o21ai_1
*I *822:A I *D sky130_fd_sc_hd__inv_1
*I *1133:Q O *D sky130_fd_sc_hd__dfrtp_1
*CAP
1 *753:A 0.000243185
2 *754:A1 9.85767e-05
3 *822:A 0.000305281
4 *1133:Q 0
5 *377:25 0.000734489
6 *377:4 0.000698009
7 *753:A *753:B 5.55377e-05
8 *753:A *1073:CLK 0.000205317
9 *753:A *1176:D 0.000147306
10 *753:A *692:217 2.19131e-05
11 *822:A *1185:D 5.92342e-05
12 *822:A *692:189 0
13 *377:25 *752:A 1.15863e-05
14 *377:25 *892:B 3.00829e-05
15 *754:B1 *753:A 0.000437819
16 *754:B1 *754:A1 0.000126335
17 *893:A2 *822:A 0.000122978
18 *997:B *822:A 0
19 *1037:A1 *754:A1 8.23577e-05
20 *1073:D *754:A1 8.72115e-06
21 *82:10 *754:A1 7.26606e-05
22 *82:10 *377:25 0.00048496
23 *134:12 *822:A 7.0148e-05
24 *161:175 *822:A 0.000375247
25 *175:26 *754:A1 0.000112228
26 *175:37 *822:A 0.000213809
*RES
1 *1133:Q *377:4 9.24915 
2 *377:4 *822:A 29.5684 
3 *377:4 *377:25 15.2304 
4 *377:25 *754:A1 17.6896 
5 *377:25 *753:A 24.3606 
*END

*D_NET *378 0.00297893
*CONN
*I *751:A1 I *D sky130_fd_sc_hd__o21ai_1
*I *750:A I *D sky130_fd_sc_hd__nand2_1
*I *819:A I *D sky130_fd_sc_hd__inv_1
*I *1134:Q O *D sky130_fd_sc_hd__dfrtp_1
*CAP
1 *751:A1 2.26966e-05
2 *750:A 0
3 *819:A 7.30101e-06
4 *1134:Q 0.000185076
5 *378:29 0.00107387
6 *378:8 0.00124355
7 *819:A *692:227 3.20544e-05
8 *378:8 *1104:CLK 2.12377e-05
9 *378:8 *1174:D 0.000143027
10 *378:8 *690:237 7.34661e-05
11 *378:8 *693:253 0
12 *378:29 *596:12 7.86825e-06
13 *378:29 *691:118 9.44462e-05
14 *751:B1 *751:A1 6.46815e-05
15 *821:A1 *819:A 9.65956e-06
*RES
1 *1134:Q *378:8 19.3184 
2 *378:8 *819:A 14.1289 
3 *378:8 *378:29 13.9608 
4 *378:29 *750:A 9.24915 
5 *378:29 *751:A1 9.97254 
*END

*D_NET *379 0.00339973
*CONN
*I *816:A I *D sky130_fd_sc_hd__inv_1
*I *747:A I *D sky130_fd_sc_hd__nand2_1
*I *748:A1 I *D sky130_fd_sc_hd__o21ai_1
*I *1135:Q O *D sky130_fd_sc_hd__dfrtp_1
*CAP
1 *816:A 4.48486e-05
2 *747:A 0.000242864
3 *748:A1 0
4 *1135:Q 0.000314796
5 *379:16 0.000614774
6 *379:10 0.000731555
7 *379:10 *1117:RESET_B 0.000101118
8 *379:10 *1135:RESET_B 2.16355e-05
9 *379:10 *704:35 4.6329e-05
10 *379:10 *704:46 6.17244e-05
11 *379:10 *704:104 1.2704e-05
12 *379:16 *1011:B 0
13 *379:16 *1168:CLK 2.65667e-05
14 *748:B1 *747:A 9.63981e-05
15 *889:A1 *379:10 1.77631e-05
16 *889:A1 *379:16 1.82832e-05
17 *889:C1 *379:10 0.000158979
18 *1105:D *379:10 0.000554384
19 *130:6 *816:A 6.54015e-05
20 *161:163 *379:10 1.07248e-05
21 *161:163 *379:16 0.000200251
22 *175:83 *816:A 2.06815e-05
23 *175:83 *379:10 2.57102e-05
24 *318:12 *747:A 1.22404e-05
*RES
1 *1135:Q *379:10 26.6858 
2 *379:10 *379:16 13.7078 
3 *379:16 *748:A1 9.24915 
4 *379:16 *747:A 15.0122 
5 *379:10 *816:A 15.2984 
*END

*D_NET *380 0.0121748
*CONN
*I *885:B I *D sky130_fd_sc_hd__nand3_1
*I *1029:A I *D sky130_fd_sc_hd__nand2_1
*I *1030:A1 I *D sky130_fd_sc_hd__o21ai_1
*I *1065:A1 I *D sky130_fd_sc_hd__mux2_1
*I *1136:Q O *D sky130_fd_sc_hd__dfrtp_1
*CAP
1 *885:B 0.00112061
2 *1029:A 2.72332e-05
3 *1030:A1 0
4 *1065:A1 0.000466645
5 *1136:Q 0.000291369
6 *380:44 0.00128633
7 *380:33 0.00263486
8 *380:12 0.0032544
9 *885:B *755:A 5.54631e-05
10 *885:B *798:A2 4.66121e-05
11 *885:B *1033:A1 0.000139929
12 *885:B *1190:RESET_B 0.000203756
13 *1029:A *1047:B 4.76161e-06
14 *1065:A1 *811:A 1.09575e-05
15 *1065:A1 *1065:S 4.5332e-05
16 *1065:A1 *1170:RESET_B 0
17 *1065:A1 *1173:RESET_B 6.50727e-05
18 *1065:A1 *1173:CLK 0.000110297
19 *1065:A1 *690:209 1.81863e-06
20 *1065:A1 *702:81 6.27614e-05
21 *380:12 *702:55 7.13655e-06
22 *380:33 *1191:CLK 0
23 *380:33 *691:310 3.77955e-05
24 *380:33 *691:332 0
25 *380:33 *703:10 0
26 *380:44 *1047:B 7.5794e-05
27 *798:B1 *885:B 5.12333e-05
28 *885:C *885:B 2.58757e-05
29 *895:B *885:B 0.000119367
30 *895:C *885:B 1.94203e-05
31 *1013:B1 *380:33 0.000714865
32 *1030:A2 *380:44 2.58757e-05
33 *1030:B1 *380:44 0.000111352
34 *1034:B1 *885:B 0.000441873
35 *1147:D *885:B 0.000265272
36 *1242:A *885:B 0.000112367
37 *84:8 *885:B 5.04423e-06
38 *84:14 *885:B 5.08975e-05
39 *136:96 *885:B 3.30022e-05
40 *314:26 *380:33 0.000195679
41 *319:6 *885:B 4.37866e-05
42 *319:6 *380:44 1.00017e-05
*RES
1 *1136:Q *380:12 18.0054 
2 *380:12 *1065:A1 25.7029 
3 *380:12 *380:33 21.0168 
4 *380:33 *1030:A1 9.24915 
5 *380:33 *380:44 4.65385 
6 *380:44 *1029:A 10.2378 
7 *380:44 *885:B 48.9982 
*END

*D_NET *381 0.00816102
*CONN
*I *762:A2 I *D sky130_fd_sc_hd__a21oi_1
*I *799:A1 I *D sky130_fd_sc_hd__mux2_1
*I *950:A1 I *D sky130_fd_sc_hd__a21oi_1
*I *1146:Q O *D sky130_fd_sc_hd__dfrtp_1
*CAP
1 *762:A2 0.000106209
2 *799:A1 0
3 *950:A1 0.00047878
4 *1146:Q 0.000303971
5 *381:50 0.00206378
6 *381:16 0.000652843
7 *381:8 0.00243561
8 *762:A2 *761:A 3.48806e-05
9 *950:A1 *789:A 3.314e-05
10 *950:A1 *954:A2 3.58044e-05
11 *950:A1 *954:B1 0.000107496
12 *950:A1 *968:A1 5.84746e-05
13 *381:8 *948:A2 3.99086e-06
14 *381:8 *948:B1 2.16355e-05
15 *381:8 *459:55 1.80257e-05
16 *381:16 *763:A2 0
17 *381:16 *799:A0 6.08467e-05
18 *381:16 *968:A1 6.08467e-05
19 *381:16 *385:10 0
20 *381:50 *763:A2 0
21 *381:50 *1155:CLK 1.24597e-05
22 *381:50 *1179:RESET_B 3.18216e-05
23 *381:50 *1179:CLK 9.63981e-05
24 *381:50 *1189:CLK 4.57966e-05
25 *381:50 *692:135 0.000164002
26 *762:A1 *762:A2 4.86342e-05
27 *765:A2 *762:A2 3.01683e-06
28 *765:B1 *762:A2 9.98601e-05
29 *950:A2 *950:A1 0
30 *950:B1 *950:A1 0.000111442
31 *1146:D *381:16 3.58321e-05
32 *1155:D *381:50 2.57847e-05
33 *1189:D *762:A2 0.000144916
34 *228:24 *381:16 0.000283455
35 *228:24 *381:50 0.000174403
36 *228:135 *381:50 0.000406868
*RES
1 *1146:Q *381:8 17.8002 
2 *381:8 *381:16 11.0955 
3 *381:16 *950:A1 18.7015 
4 *381:16 *799:A1 9.24915 
5 *381:8 *381:50 49.6223 
6 *381:50 *762:A2 14.8193 
*END

*D_NET *382 0.000280385
*CONN
*I *755:A I *D sky130_fd_sc_hd__inv_1
*I *1147:Q O *D sky130_fd_sc_hd__dfrtp_1
*CAP
1 *755:A 4.43923e-05
2 *1147:Q 4.43923e-05
3 *885:B *755:A 5.54631e-05
4 *895:C *755:A 0.000136138
*RES
1 *1147:Q *755:A 20.566 
*END

*D_NET *383 0.00370581
*CONN
*I *1032:A2 I *D sky130_fd_sc_hd__a21oi_1
*I *1069:A1 I *D sky130_fd_sc_hd__mux2_1
*I *936:A2 I *D sky130_fd_sc_hd__a21oi_1
*I *1148:Q O *D sky130_fd_sc_hd__dfrtp_1
*CAP
1 *1032:A2 0.000143567
2 *1069:A1 3.1927e-05
3 *936:A2 0.00048794
4 *1148:Q 0.000158247
5 *383:14 0.00100482
6 *383:12 0.000786762
7 *936:A2 *1049:B 2.99929e-05
8 *936:A2 *459:47 1.03594e-05
9 *936:A2 *690:12 9.60366e-05
10 *936:A2 *693:126 0
11 *1032:A2 *1485:A 0.000122378
12 *1032:A2 *706:42 0.000102003
13 *1069:A1 *1069:A0 0.000104118
14 *1069:A1 *420:6 4.58003e-05
15 *1069:A1 *690:146 0.00015511
16 *1069:A1 *690:152 6.92705e-05
17 *383:12 *1147:RESET_B 0
18 *383:12 *691:195 4.11559e-07
19 *383:12 *706:31 1.63278e-05
20 *383:14 *690:152 0
21 *383:14 *690:319 0
22 *383:14 *691:195 6.66111e-08
23 *383:14 *693:126 0
24 *937:A2 *936:A2 0
25 *938:B1 *936:A2 1.65315e-05
26 *1050:B1 *936:A2 0.000324151
27 *1080:D *936:A2 0
28 *1080:D *383:14 0
*RES
1 *1148:Q *383:12 17.462 
2 *383:12 *383:14 10.5523 
3 *383:14 *936:A2 33.2316 
4 *383:14 *1069:A1 16.1364 
5 *383:12 *1032:A2 17.8002 
*END

*D_NET *384 0.00265717
*CONN
*I *932:A1 I *D sky130_fd_sc_hd__o21ai_0
*I *768:A2 I *D sky130_fd_sc_hd__a21oi_1
*I *827:A1 I *D sky130_fd_sc_hd__mux2_1
*I *1129:Q O *D sky130_fd_sc_hd__dfrtp_1
*CAP
1 *932:A1 0.000393003
2 *768:A2 0.000169663
3 *827:A1 0
4 *1129:Q 0.000197752
5 *384:14 0.000411955
6 *384:12 0.000833047
7 *768:A2 *827:A0 6.08467e-05
8 *768:A2 *690:93 5.69757e-05
9 *932:A1 *932:A2 6.27718e-05
10 *932:A1 *690:39 4.19199e-05
11 *384:14 *690:76 1.83992e-05
12 *384:14 *690:93 5.70034e-06
13 *926:A1 *384:12 2.91598e-05
14 *1129:D *768:A2 0.000114594
15 *1522:A *384:12 9.78933e-05
16 *200:12 *384:12 0.000163492
*RES
1 *1129:Q *384:12 23.7113 
2 *384:12 *384:14 3.49641 
3 *384:14 *827:A1 9.24915 
4 *384:14 *768:A2 14.4576 
5 *384:12 *932:A1 16.676 
*END

*D_NET *385 0.00538161
*CONN
*I *763:A2 I *D sky130_fd_sc_hd__a21oi_1
*I *927:A1 I *D sky130_fd_sc_hd__o21ai_0
*I *826:A1 I *D sky130_fd_sc_hd__mux2_1
*I *1130:Q O *D sky130_fd_sc_hd__dfrtp_1
*CAP
1 *763:A2 0.000914029
2 *927:A1 0.000180374
3 *826:A1 0.00065834
4 *1130:Q 0
5 *385:10 0.00105944
6 *385:6 0.00113476
7 *763:A2 *1049:B 1.77537e-06
8 *763:A2 *693:102 7.06474e-05
9 *763:A2 *693:112 5.41116e-05
10 *763:A2 *693:119 0.000180828
11 *763:A2 *693:126 0.000113148
12 *826:A1 *826:A0 5.00509e-05
13 *826:A1 *1152:RESET_B 0.000114367
14 *826:A1 *1152:CLK 0.000196676
15 *927:A1 *954:A2 4.24629e-05
16 *927:A1 *1078:RESET_B 5.14187e-05
17 *927:A1 *1145:RESET_B 1.92362e-05
18 *927:A1 *1152:CLK 1.50924e-05
19 *385:10 *799:A0 0
20 *385:10 *1078:RESET_B 1.59968e-05
21 *385:10 *693:92 6.77426e-05
22 *385:10 *693:102 5.25402e-05
23 *385:10 *700:34 0.000109569
24 *926:A1 *927:A1 7.74477e-05
25 *1130:D *826:A1 0
26 *1146:D *763:A2 0.000127179
27 *1146:D *385:10 1.07248e-05
28 *106:503 *826:A1 6.36477e-05
29 *228:24 *385:10 0
30 *228:135 *763:A2 0
31 *381:16 *763:A2 0
32 *381:16 *385:10 0
33 *381:50 *763:A2 0
*RES
1 *1130:Q *385:6 13.7491 
2 *385:6 *385:10 11.315 
3 *385:10 *826:A1 32.6821 
4 *385:10 *927:A1 14.6264 
5 *385:6 *763:A2 38.7422 
*END

*D_NET *386 0.0101752
*CONN
*I *758:A2 I *D sky130_fd_sc_hd__a21oi_1
*I *922:A1 I *D sky130_fd_sc_hd__o21ai_0
*I *825:A1 I *D sky130_fd_sc_hd__mux2_1
*I *1131:Q O *D sky130_fd_sc_hd__dfrtp_1
*CAP
1 *758:A2 0.000551125
2 *922:A1 4.19981e-05
3 *825:A1 0.000701305
4 *1131:Q 0
5 *386:36 0.00192278
6 *386:32 0.00148069
7 *386:8 0.000871007
8 *386:6 0.000236743
9 *758:A2 *1154:RESET_B 6.43498e-06
10 *758:A2 *674:20 6.50727e-05
11 *758:A2 *707:49 6.50727e-05
12 *758:A2 *707:64 0.000101148
13 *825:A1 *825:A0 6.27718e-05
14 *825:A1 *387:10 5.6562e-05
15 *825:A1 *387:21 1.75816e-05
16 *825:A1 *699:67 8.2176e-05
17 *386:8 *922:A2 0.000261007
18 *386:8 *387:21 5.89323e-06
19 *386:32 *917:A2 5.41377e-05
20 *386:32 *922:A2 6.43474e-05
21 *386:32 *387:21 1.2693e-05
22 *386:32 *387:36 6.34651e-06
23 *386:36 *945:A 2.22198e-05
24 *386:36 *1087:CLK 0.000229373
25 *386:36 *387:36 0.00124589
26 *386:36 *510:12 0
27 *386:36 *674:20 0.000120118
28 *386:36 *693:335 0
29 *386:36 *701:23 0.000141001
30 *794:B *386:36 9.77204e-05
31 *887:A *386:32 2.19276e-05
32 *887:A *386:36 1.19122e-05
33 *895:A *758:A2 2.15184e-05
34 *895:B *758:A2 2.61147e-05
35 *895:C *758:A2 2.65667e-05
36 *914:A *825:A1 8.58366e-05
37 *917:B1 *386:32 2.26985e-05
38 *917:B1 *386:36 1.16596e-05
39 *920:A *825:A1 9.55569e-06
40 *922:B1 *922:A1 0.000110458
41 *1093:D *386:8 0
42 *136:119 *386:36 7.34868e-05
43 *161:12 *386:36 0.000749662
44 *161:27 *386:36 8.23973e-05
45 *161:56 *386:36 0.000191624
46 *179:32 *758:A2 1.79672e-05
47 *202:12 *386:36 0.000188637
*RES
1 *1131:Q *386:6 13.7491 
2 *386:6 *386:8 4.73876 
3 *386:8 *825:A1 27.1095 
4 *386:8 *922:A1 15.0271 
5 *386:6 *386:32 3.60292 
6 *386:32 *386:36 49.2807 
7 *386:36 *758:A2 33.6718 
*END

*D_NET *387 0.0104284
*CONN
*I *1033:A1 I *D sky130_fd_sc_hd__a211oi_1
*I *917:A1 I *D sky130_fd_sc_hd__o21ai_0
*I *1064:A1 I *D sky130_fd_sc_hd__mux2_1
*I *1132:Q O *D sky130_fd_sc_hd__dfrtp_1
*CAP
1 *1033:A1 0.00132264
2 *917:A1 0
3 *1064:A1 0.000295301
4 *1132:Q 0.000130326
5 *387:36 0.00215587
6 *387:21 0.000977554
7 *387:10 0.000569951
8 *1033:A1 *734:16 3.82228e-05
9 *387:21 *917:A2 4.55115e-05
10 *387:21 *922:A2 0.000325354
11 *387:36 *674:20 0.000340606
12 *789:B *387:36 0
13 *795:B *1033:A1 6.27782e-05
14 *825:A1 *387:10 5.6562e-05
15 *825:A1 *387:21 1.75816e-05
16 *885:B *1033:A1 0.000139929
17 *895:B *1033:A1 9.92478e-05
18 *921:A1 *1064:A1 2.16355e-05
19 *921:A2 *387:21 7.17398e-06
20 *922:B1 *1064:A1 6.27718e-05
21 *931:B1 *1064:A1 8.60162e-05
22 *946:A2 *387:36 0.000574411
23 *952:A1 *387:36 0.000195139
24 *952:B1 *387:36 7.99878e-05
25 *1033:C1 *1033:A1 0.000154145
26 *1034:B1 *1033:A1 1.19705e-05
27 *1080:D *1033:A1 1.03594e-05
28 *1089:D *387:36 0
29 *111:116 *387:21 1.07248e-05
30 *111:116 *387:36 0.000407635
31 *111:120 *387:21 0.000393329
32 *161:12 *387:36 0.000359439
33 *206:14 *387:10 1.43832e-05
34 *313:10 *1033:A1 0.000190974
35 *386:8 *387:21 5.89323e-06
36 *386:32 *387:21 1.2693e-05
37 *386:32 *387:36 6.34651e-06
38 *386:36 *387:36 0.00124589
*RES
1 *1132:Q *387:10 17.135 
2 *387:10 *1064:A1 18.3548 
3 *387:10 *387:21 8.06078 
4 *387:21 *917:A1 13.7491 
5 *387:21 *387:36 41.7017 
6 *387:36 *1033:A1 45.4464 
*END

*D_NET *388 0.00083393
*CONN
*I *767:B1 I *D sky130_fd_sc_hd__a21oi_1
*I *813:A I *D sky130_fd_sc_hd__inv_1
*I *1137:Q O *D sky130_fd_sc_hd__dfrtp_1
*CAP
1 *767:B1 4.82662e-05
2 *813:A 0.000203161
3 *1137:Q 0.000251427
4 *813:A *1129:RESET_B 3.39578e-05
5 *813:A *1129:CLK 1.6989e-05
6 *813:A *1231:A 0.000146519
7 *813:A *698:34 1.29078e-05
8 *770:A2 *767:B1 2.58757e-05
9 *770:A2 *813:A 6.27718e-05
10 *128:8 *813:A 3.20544e-05
*RES
1 *1137:Q *813:A 32.3732 
2 *1137:Q *767:B1 19.8004 
*END

*D_NET *389 0.00231487
*CONN
*I *762:B1 I *D sky130_fd_sc_hd__a21oi_1
*I *810:A I *D sky130_fd_sc_hd__inv_1
*I *1138:Q O *D sky130_fd_sc_hd__dfrtp_1
*CAP
1 *762:B1 0.000375279
2 *810:A 0.000558265
3 *1138:Q 0
4 *389:4 0.000933544
5 *762:B1 *692:135 0
6 *810:A *1138:RESET_B 0.000154404
7 *810:A *1162:CLK 0.000121689
8 *810:A *690:166 3.39578e-05
9 *810:A *693:195 5.5232e-05
10 *765:A2 *762:B1 7.34948e-06
11 *765:B1 *762:B1 1.00937e-05
12 *765:B2 *762:B1 0
13 *1189:D *762:B1 6.50586e-05
14 *317:12 *762:B1 0
*RES
1 *1138:Q *389:4 9.24915 
2 *389:4 *810:A 27.7002 
3 *389:4 *762:B1 27.4486 
*END

*D_NET *390 0.00187446
*CONN
*I *1457:A I *D sky130_fd_sc_hd__buf_4
*I *1149:Q O *D sky130_fd_sc_hd__dfrtp_2
*CAP
1 *1457:A 0.000552686
2 *1149:Q 0.000552686
3 *1457:A *805:B 0.000109427
4 *1457:A *806:A2 0.000350336
5 *1457:A *814:A 0
6 *1457:A *1186:RESET_B 0.000109427
7 *1457:A *1286:A 7.14746e-05
8 *1457:A *1515:A 0
9 *1457:A *430:22 5.89474e-05
10 *1457:A *693:10 3.00174e-06
11 *806:A1 *1457:A 1.59966e-05
12 *1509:A *1457:A 5.04734e-05
*RES
1 *1149:Q *1457:A 43.555 
*END

*D_NET *359 0.00136128
*CONN
*P rst_ni I
*I *1488:A I *D sky130_fd_sc_hd__dlygate4sd3_1
*CAP
1 rst_ni 0.000591511
2 *1488:A 0.000591511
3 *1488:A *1302:A 0.000113197
4 *1150:D *1488:A 6.50586e-05
*RES
1 rst_ni *1488:A 28.5043 
*END

*D_NET *358 0.000754949
*CONN
*P tl_i[0] I
*I *1504:A I *D sky130_fd_sc_hd__dlygate4sd3_1
*CAP
1 tl_i[0] 0.000120626
2 *1504:A 0.000120626
3 *1504:A cio_gpio_o[3] 0.000237264
4 *1504:A tl_o[65] 0.000276433
5 *856:A *1504:A 0
*RES
1 tl_i[0] *1504:A 18.3371 
*END

*D_NET *357 0.00102311
*CONN
*P tl_i[100] I
*I *1495:A I *D sky130_fd_sc_hd__dlygate4sd3_1
*CAP
1 tl_i[100] 0.000379423
2 *1495:A 0.000379423
3 *1495:A tl_o[50] 0
4 *1495:A *1300:A 5.27224e-05
5 tl_o[40] *1495:A 0
6 *1061:A *1495:A 0.000211539
7 *1493:A *1495:A 0
*RES
1 tl_i[100] *1495:A 24.3925 
*END

*D_NET *356 0.00248642
*CONN
*P tl_i[101] I
*I *1493:A I *D sky130_fd_sc_hd__dlygate4sd3_1
*CAP
1 tl_i[101] 0.000578873
2 *1493:A 0.000578873
3 *1493:A tl_o[57] 9.81023e-05
4 *1493:A *829:B 0.000497703
5 *1493:A *1299:A 0.000732869
6 *1493:A *1495:A 0
7 *1493:A *709:77 0
8 *136:263 *1493:A 0
*RES
1 tl_i[101] *1493:A 35.6016 
*END

*D_NET *354 0.00120267
*CONN
*P tl_i[105] I
*I *1298:A I *D sky130_fd_sc_hd__clkdlybuf4s50_1
*CAP
1 tl_i[105] 0.000258005
2 *1298:A 0.000258005
3 *1298:A cio_gpio_o[2] 0.000207997
4 *1298:A *784:B 6.97784e-05
5 *1298:A *855:B 3.70881e-05
6 *1298:A *460:16 0.00013792
7 *1297:A *1298:A 3.97063e-06
8 *1520:A *1298:A 0.000229905
*RES
1 tl_i[105] *1298:A 21.9979 
*END

*D_NET *353 0.00103928
*CONN
*P tl_i[106] I
*I *1297:A I *D sky130_fd_sc_hd__clkdlybuf4s50_1
*CAP
1 tl_i[106] 0.00021668
2 *1297:A 0.00021668
3 *1297:A *784:B 1.16345e-05
4 *1297:A *1265:A 0.000346418
5 *1297:A *1298:A 3.97063e-06
6 *856:A *1297:A 4.81207e-05
7 *1520:A *1297:A 0.000195772
*RES
1 tl_i[106] *1297:A 18.9818 
*END

*D_NET *352 0.000843862
*CONN
*P tl_i[107] I
*I *1520:A I *D sky130_fd_sc_hd__dlygate4sd3_1
*CAP
1 tl_i[107] 0.000189602
2 *1520:A 0.000189602
3 *1520:A *784:B 3.89804e-05
4 *1520:A *1297:A 0.000195772
5 *1520:A *1298:A 0.000229905
*RES
1 tl_i[107] *1520:A 19.8451 
*END

*D_NET *351 0.00221387
*CONN
*P tl_i[108] I
*I *1295:A I *D sky130_fd_sc_hd__clkdlybuf4s50_1
*CAP
1 tl_i[108] 0.000727534
2 *1295:A 0.000727534
3 *1295:A tl_o[0] 0.000179528
4 *1295:A tl_o[35] 0.000409558
5 *1295:A tl_o[51] 0
6 *1295:A tl_o[65] 4.57127e-05
7 *1295:A *783:B 7.13655e-06
8 *1295:A *1453:A 2.10968e-05
9 *1295:A *693:464 9.57699e-05
10 *1523:A *1295:A 0
*RES
1 tl_i[108] *1295:A 20.8067 
*END

*D_NET *350 0.00239703
*CONN
*P tl_i[24] I
*I *1522:A I *D sky130_fd_sc_hd__dlygate4sd3_1
*CAP
1 tl_i[24] 0.000908504
2 *1522:A 0.000908504
3 *1522:A cio_gpio_o[0] 0
4 *1522:A *767:A2 9.76854e-05
5 *1522:A *826:A0 0
6 *1522:A *1081:CLK 7.2401e-05
7 *1522:A *384:12 9.78933e-05
8 *1522:A *418:16 2.70061e-05
9 *1522:A *422:10 0
10 *965:B1 *1522:A 3.17474e-05
11 *1081:D *1522:A 9.58304e-05
12 *1252:A *1522:A 0
13 *1293:A *1522:A 0.000103292
14 *1518:A *1522:A 0
15 *200:12 *1522:A 5.41627e-05
*RES
1 tl_i[24] *1522:A 39.5925 
*END

*D_NET *349 0.000410731
*CONN
*P tl_i[25] I
*I *1293:A I *D sky130_fd_sc_hd__clkdlybuf4s50_1
*CAP
1 tl_i[25] 0.000105124
2 *1293:A 0.000105124
3 *1293:A cio_gpio_en_o[1] 9.71912e-05
4 *1293:A cio_gpio_o[0] 0
5 *1293:A *1522:A 0.000103292
*RES
1 tl_i[25] *1293:A 18.1948 
*END

*D_NET *326 0.0019833
*CONN
*P tl_i[26] I
*I *1523:A I *D sky130_fd_sc_hd__dlygate4sd3_1
*CAP
1 tl_i[26] 0.000565158
2 *1523:A 0.000565158
3 *1523:A cio_gpio_o[3] 0.000360198
4 *1523:A *782:A 0.000137714
5 *1523:A *783:A 4.89622e-05
6 *1523:A *1268:A 0.000290887
7 *1523:A *1269:A 1.32908e-05
8 *1523:A *1295:A 0
9 *106:26 *1523:A 1.93511e-06
*RES
1 tl_i[26] *1523:A 22.795 
*END

*D_NET *325 0.00432049
*CONN
*P tl_i[27] I
*I *1512:A I *D sky130_fd_sc_hd__dlygate4sd3_1
*CAP
1 tl_i[27] 0.00136003
2 *1512:A 0.00136003
3 *1512:A cio_gpio_o[3] 4.58949e-05
4 *1512:A *1055:A2 1.22085e-05
5 *1512:A *1265:A 0
6 *1512:A *1267:A 0.000250746
7 *1512:A *1269:A 0.000364494
8 *1512:A *1301:A 0.000313186
9 *1512:A *734:16 1.4091e-06
10 *793:B1 *1512:A 0.000602401
11 *106:26 *1512:A 1.00901e-05
*RES
1 tl_i[27] *1512:A 35.9713 
*END

*D_NET *324 0.000850493
*CONN
*P tl_i[28] I
*I *1518:A I *D sky130_fd_sc_hd__dlygate4sd3_1
*CAP
1 tl_i[28] 0.000353164
2 *1518:A 0.000353164
3 *1518:A tl_o[24] 0
4 *1518:A *1290:A 6.08467e-05
5 *1518:A *1522:A 0
6 *1518:A *421:10 4.70559e-05
7 *1252:A *1518:A 3.62612e-05
8 *1289:A *1518:A 0
*RES
1 tl_i[28] *1518:A 23.144 
*END

*D_NET *323 0.000457174
*CONN
*P tl_i[29] I
*I *1289:A I *D sky130_fd_sc_hd__clkdlybuf4s50_1
*CAP
1 tl_i[29] 0.000165554
2 *1289:A 0.000165554
3 *1289:A tl_o[24] 0.000126065
4 *1289:A *1518:A 0
*RES
1 tl_i[29] *1289:A 18.9182 
*END

*D_NET *322 0.00140806
*CONN
*P tl_i[30] I
*I *1519:A I *D sky130_fd_sc_hd__dlygate4sd3_1
*CAP
1 tl_i[30] 0.000584723
2 *1519:A 0.000584723
3 *1519:A cio_gpio_en_o[3] 5.9708e-05
4 *1519:A *1287:A 0
5 *1519:A *1288:A 2.71397e-05
6 *1519:A *424:10 6.50586e-05
7 *1519:A *425:10 6.50727e-05
8 *1251:A *1519:A 2.16355e-05
9 *1514:A *1519:A 0
*RES
1 tl_i[30] *1519:A 37.5118 
*END

*D_NET *321 0.00131549
*CONN
*P tl_i[31] I
*I *1514:A I *D sky130_fd_sc_hd__dlygate4sd3_1
*CAP
1 tl_i[31] 0.000459429
2 *1514:A 0.000459429
3 *1514:A cio_gpio_en_o[0] 0
4 *1514:A *1287:A 0.000323445
5 *1514:A *1519:A 0
6 *1514:A *425:10 8.11078e-06
7 *1514:A *625:186 6.50727e-05
8 *1249:A *1514:A 0
9 *1253:A *1514:A 0
*RES
1 tl_i[31] *1514:A 26.466 
*END

*D_NET *320 0.000650592
*CONN
*P tl_i[32] I
*I *1509:A I *D sky130_fd_sc_hd__dlygate4sd3_1
*CAP
1 tl_i[32] 0.000287349
2 *1509:A 0.000287349
3 *1509:A *1286:A 2.54199e-05
4 *1509:A *1457:A 5.04734e-05
5 *1509:A *1515:A 0
*RES
1 tl_i[32] *1509:A 21.5168 
*END

*D_NET *316 0.00130787
*CONN
*P tl_i[33] I
*I *1521:A I *D sky130_fd_sc_hd__dlygate4sd3_1
*CAP
1 tl_i[33] 0.000477757
2 *1521:A 0.000477757
3 *1521:A tl_o[29] 0.000136473
4 *1521:A *1161:CLK 0.000180059
5 *1521:A *1271:A 3.58185e-05
6 *1521:A *1285:A 0
7 *1521:A *1510:A 0
8 *1161:D *1521:A 0
*RES
1 tl_i[33] *1521:A 28.7387 
*END

*D_NET *624 0.000682508
*CONN
*P tl_i[34] I
*I *1508:A I *D sky130_fd_sc_hd__dlygate4sd3_1
*CAP
1 tl_i[34] 0.000279762
2 *1508:A 0.000279762
3 *1508:A intr_gpio_o[2] 0
4 *1508:A *1494:A 0
5 *1508:A *1502:A 0
6 *844:A *1508:A 4.94e-06
7 *548:10 *1508:A 0.000118044
*RES
1 tl_i[34] *1508:A 21.5901 
*END

*D_NET *623 0.000907785
*CONN
*P tl_i[35] I
*I *1516:A I *D sky130_fd_sc_hd__dlygate4sd3_1
*CAP
1 tl_i[35] 0.000350858
2 *1516:A 0.000350858
3 *1516:A tl_o[25] 0
4 *1516:A tl_o[44] 0.000116661
5 *1516:A *1118:CLK 8.94093e-05
6 tl_o[13] *1516:A 0
7 tl_o[41] *1516:A 0
*RES
1 tl_i[35] *1516:A 24.4236 
*END

*D_NET *622 0.00117904
*CONN
*P tl_i[36] I
*I *1515:A I *D sky130_fd_sc_hd__dlygate4sd3_1
*CAP
1 tl_i[36] 0.000522355
2 *1515:A 0.000522355
3 *1515:A *1149:CLK 0
4 *1515:A *1282:A 6.92705e-05
5 *1515:A *1286:A 0
6 *1457:A *1515:A 0
7 *1509:A *1515:A 0
8 *391:8 *1515:A 6.50586e-05
9 *391:12 *1515:A 0
*RES
1 tl_i[36] *1515:A 26.677 
*END

*D_NET *621 0.00091682
*CONN
*P tl_i[37] I
*I *1507:A I *D sky130_fd_sc_hd__dlygate4sd3_1
*CAP
1 tl_i[37] 0.000315253
2 *1507:A 0.000315253
3 *1507:A tl_o[29] 7.17176e-06
4 *1507:A *1303:A 4.89392e-05
5 *1490:A *1507:A 0.000141178
6 *1492:A *1507:A 8.90253e-05
*RES
1 tl_i[37] *1507:A 24.3317 
*END

*D_NET *671 0.00121404
*CONN
*P tl_i[38] I
*I *1511:A I *D sky130_fd_sc_hd__dlygate4sd3_1
*CAP
1 tl_i[38] 0.000277835
2 *1511:A 0.000277835
3 *1511:A *708:82 1.72644e-05
4 tl_o[12] *1511:A 7.52925e-05
5 tl_o[37] *1511:A 0.000565811
6 *1517:A *1511:A 0
*RES
1 tl_i[38] *1511:A 24.4236 
*END

*D_NET *342 0.0016675
*CONN
*P tl_i[39] I
*I *1517:A I *D sky130_fd_sc_hd__dlygate4sd3_1
*CAP
1 tl_i[39] 0.000418415
2 *1517:A 0.000418415
3 *1517:A tl_o[12] 7.52925e-05
4 *1517:A tl_o[39] 0
5 *1517:A *876:B 5.07314e-05
6 *1517:A *1207:A 1.70077e-05
7 *1517:A *1511:A 0
8 *1517:A *708:82 7.78812e-05
9 *865:B *1517:A 0.000495794
10 *106:232 *1517:A 0.000113968
*RES
1 tl_i[39] *1517:A 28.6083 
*END

*D_NET *341 0.000620712
*CONN
*P tl_i[40] I
*I *1506:A I *D sky130_fd_sc_hd__dlygate4sd3_1
*CAP
1 tl_i[40] 0.00028314
2 *1506:A 0.00028314
3 *1506:A *1489:A 2.12443e-05
4 tl_o[32] *1506:A 3.31882e-05
*RES
1 tl_i[40] *1506:A 21.8652 
*END

*D_NET *670 0.000481767
*CONN
*P tl_i[41] I
*I *1505:A I *D sky130_fd_sc_hd__dlygate4sd3_1
*CAP
1 tl_i[41] 0.000222286
2 *1505:A 0.000222286
3 tl_o[32] *1505:A 0
4 tl_o[33] *1505:A 3.71946e-05
*RES
1 tl_i[41] *1505:A 18.1717 
*END

*D_NET *340 0.000437431
*CONN
*P tl_i[42] I
*I *1513:A I *D sky130_fd_sc_hd__dlygate4sd3_1
*CAP
1 tl_i[42] 0.000204577
2 *1513:A 0.000204577
3 *1513:A *1273:A 2.82756e-05
*RES
1 tl_i[42] *1513:A 20.2807 
*END

*D_NET *339 0.000280669
*CONN
*P tl_i[43] I
*I *1510:A I *D sky130_fd_sc_hd__dlygate4sd3_1
*CAP
1 tl_i[43] 0.000127708
2 *1510:A 0.000127708
3 *1510:A *1271:A 2.52518e-05
4 *1521:A *1510:A 0
*RES
1 tl_i[43] *1510:A 19.1901 
*END

*D_NET *338 0.00268937
*CONN
*P tl_i[56] I
*I *1269:A I *D sky130_fd_sc_hd__clkdlybuf4s50_1
*CAP
1 tl_i[56] 0.000841317
2 *1269:A 0.000841317
3 *1269:A *1055:A1 0.000154257
4 *1269:A *1265:A 0
5 *1269:A *1268:A 0.000323972
6 *1086:D *1269:A 0.000150724
7 *1512:A *1269:A 0.000364494
8 *1523:A *1269:A 1.32908e-05
*RES
1 tl_i[56] *1269:A 22.0525 
*END

*D_NET *669 0.00122279
*CONN
*P tl_i[57] I
*I *1268:A I *D sky130_fd_sc_hd__clkdlybuf4s50_1
*CAP
1 tl_i[57] 0.000270356
2 *1268:A 0.000270356
3 *791:A2 *1268:A 0
4 *856:A *1268:A 6.7224e-05
5 *1269:A *1268:A 0.000323972
6 *1523:A *1268:A 0.000290887
*RES
1 tl_i[57] *1268:A 19.3971 
*END

*D_NET *668 0.00143653
*CONN
*P tl_i[58] I
*I *1267:A I *D sky130_fd_sc_hd__clkdlybuf4s50_1
*CAP
1 tl_i[58] 0.000356876
2 *1267:A 0.000356876
3 *1267:A *1301:A 0.000305874
4 tl_o[1] *1267:A 0.000166157
5 *856:A *1267:A 0
6 *1512:A *1267:A 0.000250746
*RES
1 tl_i[58] *1267:A 24.6638 
*END

*D_NET *667 0.00103849
*CONN
*P tl_i[60] I
*I *1266:A I *D sky130_fd_sc_hd__clkdlybuf4s50_1
*CAP
1 tl_i[60] 0.000279215
2 *1266:A 0.000279215
3 tl_o[1] *1266:A 4.52524e-05
4 *785:A *1266:A 0.000383717
5 *1265:A *1266:A 5.10943e-05
*RES
1 tl_i[60] *1266:A 25.0273 
*END

*D_NET *666 0.00233383
*CONN
*P tl_i[61] I
*I *1265:A I *D sky130_fd_sc_hd__clkdlybuf4s50_1
*CAP
1 tl_i[61] 0.000893349
2 *1265:A 0.000893349
3 *1265:A *1266:A 5.10943e-05
4 *1265:A *693:412 4.86536e-05
5 tl_o[1] *1265:A 4.86397e-05
6 *857:A1 *1265:A 1.91391e-05
7 *1269:A *1265:A 0
8 *1297:A *1265:A 0.000346418
9 *1512:A *1265:A 0
10 *106:32 *1265:A 3.31882e-05
11 *106:49 *1265:A 0
*RES
1 tl_i[61] *1265:A 20.7302 
*END

*D_NET *665 0.00215318
*CONN
*P tl_i[62] I
*I *1264:A I *D sky130_fd_sc_hd__clkdlybuf4s50_1
*CAP
1 tl_i[62] 0.000982949
2 *1264:A 0.000982949
3 tl_o[16] *1264:A 9.31913e-05
4 tl_o[22] *1264:A 9.40925e-05
*RES
1 tl_i[62] *1264:A 20.1562 
*END

*D_NET *664 0.00122327
*CONN
*P tl_i[63] I
*I *1263:A I *D sky130_fd_sc_hd__clkdlybuf4s50_1
*CAP
1 tl_i[63] 0.000357256
2 *1263:A 0.000357256
3 cio_gpio_o[1] *1263:A 0.000161786
4 tl_o[16] *1263:A 0.000236581
5 tl_o[18] *1263:A 0
6 *400:12 *1263:A 0
7 *460:16 *1263:A 0.000103042
8 *559:14 *1263:A 7.34948e-06
*RES
1 tl_i[63] *1263:A 23.418 
*END

*D_NET *663 0.000744866
*CONN
*P tl_i[92] I
*I *1499:A I *D sky130_fd_sc_hd__dlygate4sd3_1
*CAP
1 tl_i[92] 0.000250637
2 *1499:A 0.000250637
3 tl_o[49] *1499:A 7.51441e-05
4 *1497:A *1499:A 9.92812e-05
5 *1500:A *1499:A 6.91674e-05
6 *136:36 *1499:A 0
*RES
1 tl_i[92] *1499:A 20.6756 
*END

*D_NET *662 0.00222117
*CONN
*P tl_i[93] I
*I *1494:A I *D sky130_fd_sc_hd__dlygate4sd3_1
*CAP
1 tl_i[93] 0.000466711
2 *1494:A 0.000466711
3 *1494:A tl_o[52] 0.000267418
4 *1494:A *1284:A 0
5 *1443:A *1494:A 0.000379954
6 *1502:A *1494:A 6.8946e-05
7 *1508:A *1494:A 0
8 *106:212 *1494:A 0.000337351
9 *546:10 *1494:A 0.000234081
*RES
1 tl_i[93] *1494:A 32.8413 
*END

*D_NET *661 0.00086395
*CONN
*P tl_i[94] I
*I *1496:A I *D sky130_fd_sc_hd__dlygate4sd3_1
*CAP
1 tl_i[94] 0.000251338
2 *1496:A 0.000251338
3 *1496:A tl_o[51] 0.00021363
4 tl_o[31] *1496:A 9.0004e-05
5 tl_o[35] *1496:A 5.76395e-05
6 *136:40 *1496:A 0
*RES
1 tl_i[94] *1496:A 20.6756 
*END

*D_NET *660 0.000479322
*CONN
*P tl_i[95] I
*I *1502:A I *D sky130_fd_sc_hd__dlygate4sd3_1
*CAP
1 tl_i[95] 0.00018389
2 *1502:A 0.00018389
3 *1502:A *1494:A 6.8946e-05
4 *1502:A *724:22 4.25952e-05
5 *1508:A *1502:A 0
*RES
1 tl_i[95] *1502:A 19.1969 
*END

*D_NET *337 0.000883761
*CONN
*P tl_i[96] I
*I *1501:A I *D sky130_fd_sc_hd__dlygate4sd3_1
*CAP
1 tl_i[96] 0.000288965
2 *1501:A 0.000288965
3 *1501:A tl_o[53] 5.10943e-05
4 *1501:A tl_o[55] 0.000241397
5 *1501:A tl_o[58] 1.33406e-05
6 tl_o[49] *1501:A 0
*RES
1 tl_i[96] *1501:A 20.6756 
*END

*D_NET *659 0.000646663
*CONN
*P tl_i[97] I
*I *1497:A I *D sky130_fd_sc_hd__dlygate4sd3_1
*CAP
1 tl_i[97] 0.00019523
2 *1497:A 0.00019523
3 *1497:A tl_o[54] 0.000139556
4 *1497:A *1499:A 9.92812e-05
5 tl_o[36] *1497:A 1.73647e-05
6 *136:38 *1497:A 0
*RES
1 tl_i[97] *1497:A 18.5994 
*END

*D_NET *658 0.000794589
*CONN
*P tl_i[98] I
*I *1500:A I *D sky130_fd_sc_hd__dlygate4sd3_1
*CAP
1 tl_i[98] 0.00020959
2 *1500:A 0.00020959
3 *1500:A tl_o[55] 0.000239034
4 *1500:A *1499:A 6.91674e-05
5 tl_o[49] *1500:A 6.72075e-05
*RES
1 tl_i[98] *1500:A 20.6756 
*END

*D_NET *657 0.00117163
*CONN
*P tl_i[99] I
*I *1498:A I *D sky130_fd_sc_hd__dlygate4sd3_1
*CAP
1 tl_i[99] 0.000523058
2 *1498:A 0.000523058
3 *1498:A tl_o[56] 8.4095e-05
4 *1498:A tl_o[58] 0
5 tl_o[49] *1498:A 0
6 *1058:A *1498:A 0
7 *1060:A *1498:A 4.14221e-05
*RES
1 tl_i[99] *1498:A 25.6587 
*END

*D_NET *644 0.000476487
*CONN
*P tl_o[0] O
*I *1241:X O *D sky130_fd_sc_hd__clkdlybuf4s50_1
*CAP
1 tl_o[0] 6.54012e-05
2 *1241:X 6.54012e-05
3 tl_o[0] tl_o[65] 0.000166157
4 *1295:A tl_o[0] 0.000179528
*RES
1 *1241:X tl_o[0] 18.0311 
*END

*D_NET *502 0.000354888
*CONN
*P tl_o[10] O
*I *1212:LO O *D sky130_fd_sc_hd__conb_1
*CAP
1 tl_o[10] 0.000143019
2 *1212:LO 0.000143019
3 tl_o[10] tl_o[11] 0
4 tl_o[10] tl_o[9] 6.88504e-05
*RES
1 *1212:LO tl_o[10] 19.3862 
*END

*D_NET *503 0.000204836
*CONN
*P tl_o[11] O
*I *1214:LO O *D sky130_fd_sc_hd__conb_1
*CAP
1 tl_o[11] 6.71217e-05
2 *1214:LO 6.71217e-05
3 tl_o[11] tl_o[6] 7.0593e-05
4 tl_o[10] tl_o[11] 0
*RES
1 *1214:LO tl_o[11] 17.7252 
*END

*D_NET *504 0.000270883
*CONN
*P tl_o[12] O
*I *1216:LO O *D sky130_fd_sc_hd__conb_1
*CAP
1 tl_o[12] 6.0149e-05
2 *1216:LO 6.0149e-05
3 tl_o[12] *1511:A 7.52925e-05
4 *1517:A tl_o[12] 7.52925e-05
*RES
1 *1216:LO tl_o[12] 16.5338 
*END

*D_NET *505 0.000247024
*CONN
*P tl_o[13] O
*I *1218:LO O *D sky130_fd_sc_hd__conb_1
*CAP
1 tl_o[13] 8.58658e-05
2 *1218:LO 8.58658e-05
3 tl_o[13] tl_o[25] 7.52925e-05
4 tl_o[13] *1516:A 0
*RES
1 *1218:LO tl_o[13] 16.5338 
*END

*D_NET *506 0.000413345
*CONN
*P tl_o[14] O
*I *1220:LO O *D sky130_fd_sc_hd__conb_1
*CAP
1 tl_o[14] 0.00012961
2 *1220:LO 0.00012961
3 tl_o[14] tl_o[63] 7.0593e-05
4 tl_o[14] tl_o[6] 8.35314e-05
*RES
1 *1220:LO tl_o[14] 18.3699 
*END

*D_NET *507 0.000463431
*CONN
*P tl_o[15] O
*I *1222:LO O *D sky130_fd_sc_hd__conb_1
*CAP
1 tl_o[15] 0.000111136
2 *1222:LO 0.000111136
3 tl_o[15] tl_o[3] 0.000154317
4 *314:26 tl_o[15] 8.68416e-05
*RES
1 *1222:LO tl_o[15] 18.4339 
*END

*D_NET *643 0.00123845
*CONN
*P tl_o[16] O
*I *1240:X O *D sky130_fd_sc_hd__clkdlybuf4s50_1
*CAP
1 tl_o[16] 0.000420093
2 *1240:X 0.000420093
3 tl_o[16] *1263:A 0.000236581
4 tl_o[16] *1264:A 9.31913e-05
5 tl_o[18] tl_o[16] 0
6 *400:12 tl_o[16] 6.84945e-05
*RES
1 *1240:X tl_o[16] 21.2876 
*END

*D_NET *642 0.00201306
*CONN
*P tl_o[17] O
*I *1239:X O *D sky130_fd_sc_hd__clkdlybuf4s50_1
*CAP
1 tl_o[17] 0.000894668
2 *1239:X 0.000894668
3 tl_o[17] cio_gpio_o[1] 5.10943e-05
4 tl_o[17] tl_o[62] 9.19886e-06
5 tl_o[17] *1296:A 4.51619e-05
6 tl_o[18] tl_o[17] 4.52524e-05
7 *939:A tl_o[17] 1.03403e-05
8 *1238:A tl_o[17] 1.8078e-05
9 *1452:A tl_o[17] 4.45999e-05
*RES
1 *1239:X tl_o[17] 35.9801 
*END

*D_NET *641 0.00177016
*CONN
*P tl_o[18] O
*I *1238:X O *D sky130_fd_sc_hd__clkdlybuf4s50_1
*CAP
1 tl_o[18] 0.000768663
2 *1238:X 0.000768663
3 tl_o[18] cio_gpio_o[1] 5.23778e-05
4 tl_o[18] cio_gpio_o[2] 0
5 tl_o[18] tl_o[16] 0
6 tl_o[18] tl_o[17] 4.52524e-05
7 tl_o[18] tl_o[62] 6.39057e-05
8 tl_o[18] *1263:A 0
9 tl_o[18] *693:412 0
10 tl_o[19] tl_o[18] 5.10943e-05
11 *1071:A tl_o[18] 2.02035e-05
*RES
1 *1238:X tl_o[18] 19.3315 
*END

*D_NET *640 0.00135453
*CONN
*P tl_o[19] O
*I *1237:X O *D sky130_fd_sc_hd__clkdlybuf4s50_1
*CAP
1 tl_o[19] 0.000547794
2 *1237:X 0.000547794
3 tl_o[19] tl_o[18] 5.10943e-05
4 tl_o[19] tl_o[62] 5.10943e-05
5 tl_o[19] *1296:A 1.85244e-05
6 *855:A tl_o[19] 0.000114875
7 *855:B tl_o[19] 2.09463e-05
8 *913:A tl_o[19] 2.41274e-06
*RES
1 *1237:X tl_o[19] 25.5819 
*END

*D_NET *639 0.000455718
*CONN
*P tl_o[1] O
*I *1236:X O *D sky130_fd_sc_hd__clkdlybuf4s50_1
*CAP
1 tl_o[1] 9.78345e-05
2 *1236:X 9.78345e-05
3 tl_o[1] *1265:A 4.86397e-05
4 tl_o[1] *1266:A 4.52524e-05
5 tl_o[1] *1267:A 0.000166157
6 *856:A tl_o[1] 0
*RES
1 *1236:X tl_o[1] 18.0311 
*END

*D_NET *638 0.000220609
*CONN
*P tl_o[20] O
*I *1235:X O *D sky130_fd_sc_hd__clkdlybuf4s50_1
*CAP
1 tl_o[20] 3.07421e-05
2 *1235:X 3.07421e-05
3 tl_o[21] tl_o[20] 7.6781e-05
4 tl_o[22] tl_o[20] 8.13812e-06
5 tl_o[23] tl_o[20] 7.42053e-05
*RES
1 *1235:X tl_o[20] 17.7252 
*END

*D_NET *637 0.000224489
*CONN
*P tl_o[21] O
*I *1234:X O *D sky130_fd_sc_hd__clkdlybuf4s50_1
*CAP
1 tl_o[21] 3.42391e-05
2 *1234:X 3.42391e-05
3 tl_o[21] tl_o[20] 7.6781e-05
4 tl_o[22] tl_o[21] 7.92301e-05
*RES
1 *1234:X tl_o[21] 17.7252 
*END

*D_NET *636 0.00135879
*CONN
*P tl_o[22] O
*I *1233:X O *D sky130_fd_sc_hd__clkdlybuf4s50_1
*CAP
1 tl_o[22] 0.000432978
2 *1233:X 0.000432978
3 tl_o[22] tl_o[20] 8.13812e-06
4 tl_o[22] tl_o[21] 7.92301e-05
5 tl_o[22] *1264:A 9.40925e-05
6 tl_o[23] tl_o[22] 0.000311378
*RES
1 *1233:X tl_o[22] 27.9207 
*END

*D_NET *635 0.00148423
*CONN
*P tl_o[23] O
*I *1232:X O *D sky130_fd_sc_hd__clkdlybuf4s50_1
*CAP
1 tl_o[23] 0.000549324
2 *1232:X 0.000549324
3 tl_o[23] tl_o[20] 7.42053e-05
4 tl_o[23] tl_o[22] 0.000311378
5 tl_o[64] tl_o[23] 0
*RES
1 *1232:X tl_o[23] 28.8277 
*END

*D_NET *634 0.000583297
*CONN
*P tl_o[24] O
*I *1231:X O *D sky130_fd_sc_hd__clkdlybuf4s50_1
*CAP
1 tl_o[24] 0.000228616
2 *1231:X 0.000228616
3 *1289:A tl_o[24] 0.000126065
4 *1518:A tl_o[24] 0
*RES
1 *1231:X tl_o[24] 20.6863 
*END

*D_NET *633 0.000565836
*CONN
*P tl_o[25] O
*I *1230:X O *D sky130_fd_sc_hd__clkdlybuf4s50_1
*CAP
1 tl_o[25] 0.000236769
2 *1230:X 0.000236769
3 tl_o[13] tl_o[25] 7.52925e-05
4 tl_o[43] tl_o[25] 0
5 *1057:B tl_o[25] 1.1957e-05
6 *1516:A tl_o[25] 0
7 *161:294 tl_o[25] 5.04829e-06
*RES
1 *1230:X tl_o[25] 19.8908 
*END

*D_NET *632 0.00301704
*CONN
*P tl_o[26] O
*I *1229:X O *D sky130_fd_sc_hd__clkdlybuf4s50_1
*CAP
1 tl_o[26] 0.00127147
2 *1229:X 0.00127147
3 tl_o[26] tl_o[54] 5.10943e-05
4 tl_o[36] tl_o[26] 9.13703e-05
5 *836:A tl_o[26] 2.82242e-05
6 *838:A tl_o[26] 6.2497e-05
7 *838:B tl_o[26] 0.000207816
8 *1213:A tl_o[26] 2.41338e-05
9 *1447:A tl_o[26] 8.95377e-06
*RES
1 *1229:X tl_o[26] 36.5347 
*END

*D_NET *630 0.00252687
*CONN
*P tl_o[27] O
*I *1228:X O *D sky130_fd_sc_hd__clkdlybuf4s50_1
*CAP
1 tl_o[27] 0.00080521
2 *1228:X 0.00080521
3 tl_o[27] intr_gpio_o[3] 0.000141156
4 tl_o[27] *1118:RESET_B 0.000233405
5 tl_o[43] tl_o[27] 0.000235393
6 tl_o[47] tl_o[27] 0.000140526
7 *877:A tl_o[27] 5.05252e-05
8 *1066:A tl_o[27] 0
9 *1110:D tl_o[27] 0.000115448
10 *1211:A tl_o[27] 0
11 *106:242 tl_o[27] 0
12 *531:10 tl_o[27] 0
*RES
1 *1228:X tl_o[27] 38.0931 
*END

*D_NET *629 0.00114922
*CONN
*P tl_o[28] O
*I *1227:X O *D sky130_fd_sc_hd__clkdlybuf4s50_1
*CAP
1 tl_o[28] 0.000317413
2 *1227:X 0.000317413
3 tl_o[28] intr_gpio_o[0] 0.000387196
4 *814:A tl_o[28] 0
5 *1245:A tl_o[28] 0.000127194
*RES
1 *1227:X tl_o[28] 24.9121 
*END

*D_NET *628 0.00206743
*CONN
*P tl_o[29] O
*I *1226:X O *D sky130_fd_sc_hd__clkdlybuf4s50_1
*CAP
1 tl_o[29] 0.000779101
2 *1226:X 0.000779101
3 tl_o[29] intr_gpio_o[1] 0
4 tl_o[29] *1281:A 0.00016195
5 *1161:D tl_o[29] 8.98982e-05
6 *1226:A tl_o[29] 5.00552e-05
7 *1490:A tl_o[29] 6.36804e-05
8 *1507:A tl_o[29] 7.17176e-06
9 *1521:A tl_o[29] 0.000136473
*RES
1 *1226:X tl_o[29] 29.0751 
*END

*D_NET *523 0.000223165
*CONN
*P tl_o[2] O
*I *1307:LO O *D sky130_fd_sc_hd__conb_1
*CAP
1 tl_o[2] 0.000111583
2 *1307:LO 0.000111583
*RES
1 *1307:LO tl_o[2] 16.5338 
*END

*D_NET *627 0.00274633
*CONN
*P tl_o[30] O
*I *1225:X O *D sky130_fd_sc_hd__clkdlybuf4s50_1
*CAP
1 tl_o[30] 0.000955206
2 *1225:X 0.000955206
3 tl_o[30] tl_o[45] 0.000192486
4 tl_o[30] *693:679 0
5 tl_o[30] *708:12 0
6 tl_o[39] tl_o[30] 0
7 *870:A tl_o[30] 0.000273809
8 *1122:D tl_o[30] 2.47295e-05
9 *106:230 tl_o[30] 9.64718e-05
10 *166:10 tl_o[30] 0.00024842
*RES
1 *1225:X tl_o[30] 40.8661 
*END

*D_NET *336 0.000393005
*CONN
*P tl_o[31] O
*I *1223:X O *D sky130_fd_sc_hd__clkdlybuf4s50_1
*CAP
1 tl_o[31] 0.000100267
2 *1223:X 0.000100267
3 tl_o[31] tl_o[35] 0.000102468
4 tl_o[31] *1496:A 9.0004e-05
*RES
1 *1223:X tl_o[31] 18.6322 
*END

*D_NET *335 0.001667
*CONN
*P tl_o[32] O
*I *1221:X O *D sky130_fd_sc_hd__clkdlybuf4s50_1
*CAP
1 tl_o[32] 0.000743168
2 *1221:X 0.000743168
3 tl_o[32] *1221:A 7.3728e-05
4 tl_o[32] *1276:A 7.3752e-05
5 tl_o[32] *1306:A 0
6 tl_o[32] *1505:A 0
7 tl_o[32] *1506:A 3.31882e-05
*RES
1 *1221:X tl_o[32] 33.0496 
*END

*D_NET *334 0.00165024
*CONN
*P tl_o[33] O
*I *1219:X O *D sky130_fd_sc_hd__clkdlybuf4s50_1
*CAP
1 tl_o[33] 0.000761584
2 *1219:X 0.000761584
3 tl_o[33] intr_gpio_o[1] 1.24503e-05
4 tl_o[33] *1219:A 7.64995e-05
5 tl_o[33] *1276:A 9.23798e-07
6 tl_o[33] *1505:A 3.71946e-05
*RES
1 *1219:X tl_o[33] 31.2436 
*END

*D_NET *369 0.00312977
*CONN
*P tl_o[34] O
*I *1217:X O *D sky130_fd_sc_hd__clkdlybuf4s50_1
*CAP
1 tl_o[34] 0.0010682
2 *1217:X 0.0010682
3 tl_o[34] tl_o[46] 7.18196e-05
4 tl_o[34] tl_o[60] 8.30656e-05
5 tl_o[34] *1112:RESET_B 0.000153225
6 tl_o[34] *1203:A 0.000340696
7 tl_o[34] *536:8 0.000213341
8 tl_o[38] tl_o[34] 0
9 *1114:D tl_o[34] 0.000121243
10 *161:254 tl_o[34] 9.98511e-06
*RES
1 *1217:X tl_o[34] 40.5169 
*END

*D_NET *368 0.00251365
*CONN
*P tl_o[35] O
*I *1215:X O *D sky130_fd_sc_hd__clkdlybuf4s50_1
*CAP
1 tl_o[35] 0.00073561
2 *1215:X 0.00073561
3 tl_o[35] tl_o[51] 0
4 tl_o[35] *1223:A 0.000472768
5 tl_o[35] *1496:A 5.76395e-05
6 tl_o[31] tl_o[35] 0.000102468
7 *1295:A tl_o[35] 0.000409558
*RES
1 *1215:X tl_o[35] 24.5245 
*END

*D_NET *367 0.00210136
*CONN
*P tl_o[36] O
*I *1213:X O *D sky130_fd_sc_hd__clkdlybuf4s50_1
*CAP
1 tl_o[36] 0.000915481
2 *1213:X 0.000915481
3 tl_o[36] tl_o[26] 9.13703e-05
4 tl_o[36] tl_o[51] 9.26135e-05
5 tl_o[36] tl_o[54] 5.31444e-05
6 tl_o[36] *1497:A 1.73647e-05
7 tl_o[36] *693:471 1.11499e-05
8 *106:416 tl_o[36] 4.75721e-06
*RES
1 *1213:X tl_o[36] 19.6973 
*END

*D_NET *366 0.00133705
*CONN
*P tl_o[37] O
*I *1211:X O *D sky130_fd_sc_hd__clkdlybuf4s50_1
*CAP
1 tl_o[37] 0.000385621
2 *1211:X 0.000385621
3 tl_o[37] intr_gpio_o[3] 0
4 tl_o[37] *1511:A 0.000565811
*RES
1 *1211:X tl_o[37] 26.0508 
*END

*D_NET *365 0.00359105
*CONN
*P tl_o[38] O
*I *1209:X O *D sky130_fd_sc_hd__clkdlybuf4s50_1
*CAP
1 tl_o[38] 0.00116427
2 *1209:X 0.00116427
3 tl_o[38] tl_o[34] 0
4 tl_o[38] tl_o[44] 2.16528e-05
5 tl_o[38] tl_o[46] 6.79331e-05
6 tl_o[38] *872:B 1.04187e-05
7 tl_o[38] *1230:A 0.000623925
8 tl_o[41] tl_o[38] 4.18394e-05
9 *872:A tl_o[38] 1.19856e-05
10 *873:B tl_o[38] 0.000118166
11 *1114:D tl_o[38] 0.000366589
*RES
1 *1209:X tl_o[38] 40.7479 
*END

*D_NET *364 0.000566803
*CONN
*P tl_o[39] O
*I *1207:X O *D sky130_fd_sc_hd__clkdlybuf4s50_1
*CAP
1 tl_o[39] 0.000217802
2 *1207:X 0.000217802
3 tl_o[39] tl_o[30] 0
4 tl_o[39] *1122:CLK 4.77834e-05
5 *1116:D tl_o[39] 7.26606e-05
6 *1122:D tl_o[39] 1.07549e-05
7 *1517:A tl_o[39] 0
*RES
1 *1207:X tl_o[39] 19.8558 
*END

*D_NET *534 0.000434352
*CONN
*P tl_o[3] O
*I *1198:LO O *D sky130_fd_sc_hd__conb_1
*CAP
1 tl_o[3] 0.000140017
2 *1198:LO 0.000140017
3 tl_o[15] tl_o[3] 0.000154317
*RES
1 *1198:LO tl_o[3] 18.0187 
*END

*D_NET *355 0.00223912
*CONN
*P tl_o[40] O
*I *1205:X O *D sky130_fd_sc_hd__clkdlybuf4s50_1
*CAP
1 tl_o[40] 0.000688949
2 *1205:X 0.000688949
3 tl_o[40] tl_o[50] 0.000117754
4 tl_o[40] tl_o[52] 5.22654e-06
5 tl_o[40] *1127:CLK 0.000160927
6 tl_o[40] *1205:A 5.04829e-06
7 tl_o[40] *1495:A 0
8 tl_o[40] *493:16 0.000135533
9 tl_o[40] *716:14 1.79807e-05
10 *136:263 tl_o[40] 0
11 *136:269 tl_o[40] 0.000223906
12 *136:284 tl_o[40] 0.000194842
*RES
1 *1205:X tl_o[40] 35.8947 
*END

*D_NET *344 0.000966243
*CONN
*P tl_o[41] O
*I *1203:X O *D sky130_fd_sc_hd__clkdlybuf4s50_1
*CAP
1 tl_o[41] 0.000234692
2 *1203:X 0.000234692
3 tl_o[41] tl_o[38] 4.18394e-05
4 tl_o[41] tl_o[44] 0.00033552
5 tl_o[41] *1230:A 0.0001195
6 tl_o[41] *1516:A 0
*RES
1 *1203:X tl_o[41] 21.1338 
*END

*D_NET *333 0.000722506
*CONN
*P tl_o[42] O
*I *1201:X O *D sky130_fd_sc_hd__clkdlybuf4s50_1
*CAP
1 tl_o[42] 0.000168212
2 *1201:X 0.000168212
3 tl_o[42] intr_gpio_o[2] 0.000354334
4 tl_o[42] tl_o[45] 0
5 tl_o[42] *1122:RESET_B 3.17474e-05
*RES
1 *1201:X tl_o[42] 20.271 
*END

*D_NET *332 0.00166047
*CONN
*P tl_o[43] O
*I *1199:X O *D sky130_fd_sc_hd__clkdlybuf4s50_1
*CAP
1 tl_o[43] 0.000436555
2 *1199:X 0.000436555
3 tl_o[43] tl_o[25] 0
4 tl_o[43] tl_o[27] 0.000235393
5 tl_o[43] *830:A 7.28994e-06
6 tl_o[43] *1056:B 3.16514e-05
7 *1056:A tl_o[43] 0.000136702
8 *1057:B tl_o[43] 0.000284295
9 *106:236 tl_o[43] 1.03403e-05
10 *106:242 tl_o[43] 8.16827e-05
*RES
1 *1199:X tl_o[43] 28.8842 
*END

*D_NET *677 0.00195097
*CONN
*P tl_o[44] O
*I *1197:X O *D sky130_fd_sc_hd__clkdlybuf4s50_1
*CAP
1 tl_o[44] 0.000579611
2 *1197:X 0.000579611
3 tl_o[44] *1118:CLK 0.000198334
4 tl_o[38] tl_o[44] 2.16528e-05
5 tl_o[41] tl_o[44] 0.00033552
6 *1230:A tl_o[44] 0.000119587
7 *1516:A tl_o[44] 0.000116661
*RES
1 *1197:X tl_o[44] 40.5874 
*END

*D_NET *631 0.00146186
*CONN
*P tl_o[45] O
*I *1196:X O *D sky130_fd_sc_hd__clkdlybuf4s50_1
*CAP
1 tl_o[45] 0.000393908
2 *1196:X 0.000393908
3 tl_o[45] *1122:RESET_B 0.000373086
4 tl_o[45] *693:679 9.40857e-05
5 tl_o[30] tl_o[45] 0.000192486
6 tl_o[42] tl_o[45] 0
7 *540:14 tl_o[45] 1.43848e-05
*RES
1 *1196:X tl_o[45] 27.2232 
*END

*D_NET *626 0.00086912
*CONN
*P tl_o[46] O
*I *1195:X O *D sky130_fd_sc_hd__clkdlybuf4s50_1
*CAP
1 tl_o[46] 0.000364684
2 *1195:X 0.000364684
3 tl_o[34] tl_o[46] 7.18196e-05
4 tl_o[38] tl_o[46] 6.79331e-05
*RES
1 *1195:X tl_o[46] 20.5848 
*END

*D_NET *138 0.000787202
*CONN
*P tl_o[47] O
*I *830:X O *D sky130_fd_sc_hd__clkdlybuf4s50_1
*CAP
1 tl_o[47] 0.00022875
2 *830:X 0.00022875
3 tl_o[47] intr_gpio_o[3] 7.18196e-05
4 tl_o[47] tl_o[27] 0.000140526
5 tl_o[47] *865:A 0.000117356
*RES
1 *830:X tl_o[47] 19.4756 
*END

*D_NET *543 0.000270883
*CONN
*P tl_o[48] O
*I *1224:LO O *D sky130_fd_sc_hd__conb_1
*CAP
1 tl_o[48] 6.0149e-05
2 *1224:LO 6.0149e-05
3 tl_o[48] tl_o[4] 7.52925e-05
4 tl_o[48] tl_o[57] 7.52925e-05
*RES
1 *1224:LO tl_o[48] 16.5338 
*END

*D_NET *119 0.00202346
*CONN
*P tl_o[49] O
*I *796:X O *D sky130_fd_sc_hd__clkdlybuf4s50_1
*CAP
1 tl_o[49] 0.000694017
2 *796:X 0.000694017
3 tl_o[49] tl_o[53] 0.000196713
4 tl_o[49] tl_o[58] 0.000296358
5 tl_o[49] *1498:A 0
6 tl_o[49] *1499:A 7.51441e-05
7 tl_o[49] *1500:A 6.72075e-05
8 tl_o[49] *1501:A 0
*RES
1 *796:X tl_o[49] 34.3353 
*END

*D_NET *545 0.000352867
*CONN
*P tl_o[4] O
*I *1200:LO O *D sky130_fd_sc_hd__conb_1
*CAP
1 tl_o[4] 0.000138787
2 *1200:LO 0.000138787
3 tl_o[48] tl_o[4] 7.52925e-05
*RES
1 *1200:LO tl_o[4] 17.2572 
*END

*D_NET *679 0.000286221
*CONN
*P tl_o[50] O
*I *1443:X O *D sky130_fd_sc_hd__clkdlybuf4s50_1
*CAP
1 tl_o[50] 8.42335e-05
2 *1443:X 8.42335e-05
3 tl_o[40] tl_o[50] 0.000117754
4 *1495:A tl_o[50] 0
*RES
1 *1443:X tl_o[50] 16.5338 
*END

*D_NET *680 0.00221465
*CONN
*P tl_o[51] O
*I *1444:X O *D sky130_fd_sc_hd__clkdlybuf4s50_1
*CAP
1 tl_o[51] 0.000866664
2 *1444:X 0.000866664
3 tl_o[51] *693:464 4.18215e-05
4 tl_o[35] tl_o[51] 0
5 tl_o[36] tl_o[51] 9.26135e-05
6 *847:B tl_o[51] 1.21461e-06
7 *1121:D tl_o[51] 6.21669e-05
8 *1295:A tl_o[51] 0
9 *1496:A tl_o[51] 0.00021363
10 *106:93 tl_o[51] 3.00174e-06
11 *106:108 tl_o[51] 6.68687e-05
*RES
1 *1444:X tl_o[51] 23.0381 
*END

*D_NET *681 0.00205793
*CONN
*P tl_o[52] O
*I *1445:X O *D sky130_fd_sc_hd__clkdlybuf4s50_1
*CAP
1 tl_o[52] 0.000589077
2 *1445:X 0.000589077
3 tl_o[52] *1120:CLK 0.000118485
4 tl_o[40] tl_o[52] 5.22654e-06
5 *850:A tl_o[52] 6.34773e-05
6 *1120:D tl_o[52] 7.04109e-05
7 *1494:A tl_o[52] 0.000267418
8 *106:212 tl_o[52] 0.000297318
9 *493:16 tl_o[52] 5.74453e-05
*RES
1 *1445:X tl_o[52] 32.5654 
*END

*D_NET *682 0.000704072
*CONN
*P tl_o[53] O
*I *1446:X O *D sky130_fd_sc_hd__clkdlybuf4s50_1
*CAP
1 tl_o[53] 0.000205506
2 *1446:X 0.000205506
3 tl_o[53] tl_o[58] 4.52524e-05
4 tl_o[49] tl_o[53] 0.000196713
5 *1501:A tl_o[53] 5.10943e-05
*RES
1 *1446:X tl_o[53] 21.6941 
*END

*D_NET *683 0.000548962
*CONN
*P tl_o[54] O
*I *1447:X O *D sky130_fd_sc_hd__clkdlybuf4s50_1
*CAP
1 tl_o[54] 0.000152584
2 *1447:X 0.000152584
3 tl_o[26] tl_o[54] 5.10943e-05
4 tl_o[36] tl_o[54] 5.31444e-05
5 *1497:A tl_o[54] 0.000139556
6 *136:38 tl_o[54] 0
*RES
1 *1447:X tl_o[54] 19.2004 
*END

*D_NET *684 0.00105993
*CONN
*P tl_o[55] O
*I *1448:X O *D sky130_fd_sc_hd__clkdlybuf4s50_1
*CAP
1 tl_o[55] 0.000289749
2 *1448:X 0.000289749
3 *1500:A tl_o[55] 0.000239034
4 *1501:A tl_o[55] 0.000241397
*RES
1 *1448:X tl_o[55] 21.6591 
*END

*D_NET *685 0.00172593
*CONN
*P tl_o[56] O
*I *1449:X O *D sky130_fd_sc_hd__clkdlybuf4s50_1
*CAP
1 tl_o[56] 0.000680117
2 *1449:X 0.000680117
3 *1058:A tl_o[56] 0.000245361
4 *1058:B tl_o[56] 3.62414e-05
5 *1498:A tl_o[56] 8.4095e-05
*RES
1 *1449:X tl_o[56] 25.3636 
*END

*D_NET *686 0.00164445
*CONN
*P tl_o[57] O
*I *1450:X O *D sky130_fd_sc_hd__clkdlybuf4s50_1
*CAP
1 tl_o[57] 0.000567811
2 *1450:X 0.000567811
3 tl_o[57] *1299:A 0.000243953
4 tl_o[57] *709:107 5.56461e-05
5 tl_o[57] *709:113 3.58321e-05
6 tl_o[48] tl_o[57] 7.52925e-05
7 *1450:A tl_o[57] 0
8 *1493:A tl_o[57] 9.81023e-05
*RES
1 *1450:X tl_o[57] 31.0998 
*END

*D_NET *687 0.00129677
*CONN
*P tl_o[58] O
*I *1451:X O *D sky130_fd_sc_hd__clkdlybuf4s50_1
*CAP
1 tl_o[58] 0.000470907
2 *1451:X 0.000470907
3 tl_o[49] tl_o[58] 0.000296358
4 tl_o[53] tl_o[58] 4.52524e-05
5 *1498:A tl_o[58] 0
6 *1501:A tl_o[58] 1.33406e-05
*RES
1 *1451:X tl_o[58] 25.7265 
*END

*D_NET *555 0.00028042
*CONN
*P tl_o[59] O
*I *1258:LO O *D sky130_fd_sc_hd__conb_1
*CAP
1 tl_o[59] 0.00014021
2 *1258:LO 0.00014021
*RES
1 *1258:LO tl_o[59] 18.2809 
*END

*D_NET *556 0.000460423
*CONN
*P tl_o[5] O
*I *1202:LO O *D sky130_fd_sc_hd__conb_1
*CAP
1 tl_o[5] 0.000168916
2 *1202:LO 0.000168916
3 tl_o[5] tl_o[7] 0.000122592
*RES
1 *1202:LO tl_o[5] 18.9182 
*END

*D_NET *557 0.00029189
*CONN
*P tl_o[60] O
*I *1270:LO O *D sky130_fd_sc_hd__conb_1
*CAP
1 tl_o[60] 0.000104412
2 *1270:LO 0.000104412
3 tl_o[34] tl_o[60] 8.30656e-05
*RES
1 *1270:LO tl_o[60] 16.949 
*END

*D_NET *558 0.00020814
*CONN
*P tl_o[61] O
*I *1272:LO O *D sky130_fd_sc_hd__conb_1
*CAP
1 tl_o[61] 5.54885e-05
2 *1272:LO 5.54885e-05
3 tl_o[61] tl_o[64] 6.91544e-05
4 tl_o[61] tl_o[9] 2.80086e-05
*RES
1 *1272:LO tl_o[61] 17.7252 
*END

*D_NET *688 0.000995654
*CONN
*P tl_o[62] O
*I *1452:X O *D sky130_fd_sc_hd__clkdlybuf4s50_1
*CAP
1 tl_o[62] 0.000269976
2 *1452:X 0.000269976
3 tl_o[62] *1296:A 0
4 cio_gpio_o[2] tl_o[62] 0.000179496
5 tl_o[17] tl_o[62] 9.19886e-06
6 tl_o[18] tl_o[62] 6.39057e-05
7 tl_o[19] tl_o[62] 5.10943e-05
8 *460:16 tl_o[62] 0.000152007
*RES
1 *1452:X tl_o[62] 21.3225 
*END

*D_NET *560 0.000296126
*CONN
*P tl_o[63] O
*I *1274:LO O *D sky130_fd_sc_hd__conb_1
*CAP
1 tl_o[63] 0.000112767
2 *1274:LO 0.000112767
3 tl_o[14] tl_o[63] 7.0593e-05
*RES
1 *1274:LO tl_o[63] 18.5557 
*END

*D_NET *561 0.000267499
*CONN
*P tl_o[64] O
*I *1277:LO O *D sky130_fd_sc_hd__conb_1
*CAP
1 tl_o[64] 9.91725e-05
2 *1277:LO 9.91725e-05
3 tl_o[64] tl_o[23] 0
4 tl_o[61] tl_o[64] 6.91544e-05
*RES
1 *1277:LO tl_o[64] 18.5557 
*END

*D_NET *689 0.00106691
*CONN
*P tl_o[65] O
*I *1453:X O *D sky130_fd_sc_hd__clkdlybuf4s50_1
*CAP
1 tl_o[65] 0.000255231
2 *1453:X 0.000255231
3 cio_gpio_o[3] tl_o[65] 7.73582e-06
4 tl_o[0] tl_o[65] 0.000166157
5 *856:A tl_o[65] 6.04121e-05
6 *1295:A tl_o[65] 4.57127e-05
7 *1504:A tl_o[65] 0.000276433
*RES
1 *1453:X tl_o[65] 21.7356 
*END

*D_NET *563 0.000432952
*CONN
*P tl_o[6] O
*I *1204:LO O *D sky130_fd_sc_hd__conb_1
*CAP
1 tl_o[6] 0.000139414
2 *1204:LO 0.000139414
3 tl_o[11] tl_o[6] 7.0593e-05
4 tl_o[14] tl_o[6] 8.35314e-05
*RES
1 *1204:LO tl_o[6] 19.8014 
*END

*D_NET *564 0.000384
*CONN
*P tl_o[7] O
*I *1206:LO O *D sky130_fd_sc_hd__conb_1
*CAP
1 tl_o[7] 0.000130704
2 *1206:LO 0.000130704
3 tl_o[5] tl_o[7] 0.000122592
*RES
1 *1206:LO tl_o[7] 18.1948 
*END

*D_NET *565 0.000340007
*CONN
*P tl_o[8] O
*I *1208:LO O *D sky130_fd_sc_hd__conb_1
*CAP
1 tl_o[8] 0.000170003
2 *1208:LO 0.000170003
*RES
1 *1208:LO tl_o[8] 18.1948 
*END

*D_NET *566 0.000212159
*CONN
*P tl_o[9] O
*I *1210:LO O *D sky130_fd_sc_hd__conb_1
*CAP
1 tl_o[9] 5.76498e-05
2 *1210:LO 5.76498e-05
3 tl_o[10] tl_o[9] 6.88504e-05
4 tl_o[61] tl_o[9] 2.80086e-05
*RES
1 *1210:LO tl_o[9] 17.7252 
*END

*D_NET *567 0.000307479
*CONN
*I *1192:D I *D sky130_fd_sc_hd__dfrtp_1
*I *1193:Q O *D sky130_fd_sc_hd__dfrtp_1
*CAP
1 *1192:D 0.000100614
2 *1193:Q 0.000100614
3 *1192:D *1192:CLK 6.78549e-05
4 *1193:RESET_B *1192:D 3.83967e-05
*RES
1 *1193:Q *1192:D 21.633 
*END

*D_NET *568 0.00104778
*CONN
*I *768:A1 I *D sky130_fd_sc_hd__a21oi_1
*I *766:A I *D sky130_fd_sc_hd__inv_1
*I *1188:Q O *D sky130_fd_sc_hd__dfrtp_1
*CAP
1 *768:A1 0
2 *766:A 6.91508e-05
3 *1188:Q 0.000234435
4 *568:12 0.000303586
5 *766:A *690:93 2.20471e-05
6 *568:12 *625:89 5.79358e-05
7 *568:12 *698:21 9.7746e-06
8 *768:B1 *766:A 0.000175425
9 *770:B1 *766:A 0.000175425
10 *826:A0 *568:12 0
*RES
1 *1188:Q *568:12 22.7442 
2 *568:12 *766:A 12.3417 
3 *568:12 *768:A1 9.24915 
*END

*D_NET *569 0.00238203
*CONN
*I *763:A1 I *D sky130_fd_sc_hd__a21oi_1
*I *761:A I *D sky130_fd_sc_hd__inv_1
*I *1189:Q O *D sky130_fd_sc_hd__dfrtp_1
*CAP
1 *763:A1 0.000124313
2 *761:A 0.000902387
3 *1189:Q 0
4 *569:4 0.0010267
5 *761:A *1138:RESET_B 0
6 *761:A *1191:RESET_B 0
7 *761:A *692:135 4.15201e-05
8 *762:A1 *761:A 3.20984e-05
9 *762:A2 *761:A 3.48806e-05
10 *317:12 *761:A 0
11 *317:37 *761:A 0.000210049
12 *317:37 *763:A1 1.00846e-05
*RES
1 *1189:Q *569:4 9.24915 
2 *569:4 *761:A 35.6121 
3 *569:4 *763:A1 11.0817 
*END

*D_NET *570 0.00184375
*CONN
*I *756:A I *D sky130_fd_sc_hd__nor2_1
*I *758:A1 I *D sky130_fd_sc_hd__a21oi_1
*I *1190:Q O *D sky130_fd_sc_hd__dfrtp_1
*CAP
1 *756:A 0.000227814
2 *758:A1 0.000332769
3 *1190:Q 0.000560583
4 *756:A *1190:RESET_B 6.36477e-05
5 *758:A1 *1147:RESET_B 0
6 *758:A1 *1190:RESET_B 8.05255e-05
7 *756:B *756:A 0.000124086
8 *758:B1 *758:A1 0.000144857
9 *760:B1 *756:A 0.000120594
10 *760:B1 *758:A1 1.75155e-06
11 *895:B *758:A1 6.50727e-05
12 *1154:D *756:A 0.000122053
*RES
1 *1190:Q *758:A1 34.4877 
2 *1190:Q *756:A 32.8561 
*END

*D_NET *571 0.00142304
*CONN
*I *1031:A I *D sky130_fd_sc_hd__inv_1
*I *1033:A2 I *D sky130_fd_sc_hd__a211oi_1
*I *1191:Q O *D sky130_fd_sc_hd__dfrtp_1
*CAP
1 *1031:A 0.000160623
2 *1033:A2 0
3 *1191:Q 0.000224817
4 *571:8 0.00038544
5 *571:8 *693:126 4.43428e-05
6 *1032:A1 *1031:A 4.03324e-05
7 *1032:B1 *1031:A 1.56822e-05
8 *1034:A2 *1031:A 0.000130373
9 *1034:A2 *571:8 1.03594e-05
10 *1144:D *1031:A 0.000180688
11 *1144:D *571:8 0.000132212
12 *1148:D *571:8 0
13 *1242:A *1031:A 3.62466e-05
14 *319:10 *571:8 6.19232e-05
*RES
1 *1191:Q *571:8 19.7337 
2 *571:8 *1033:A2 13.7491 
3 *571:8 *1031:A 19.6952 
*END

*D_NET *572 0.000114885
*CONN
*I *1456:A I *D sky130_fd_sc_hd__buf_4
*I *1158:Q O *D sky130_fd_sc_hd__dfrtp_1
*CAP
1 *1456:A 5.74423e-05
2 *1158:Q 5.74423e-05
*RES
1 *1158:Q *1456:A 19.8004 
*END

*D_NET *573 0.00155093
*CONN
*I *1184:D I *D sky130_fd_sc_hd__dfrtp_1
*I *999:Y O *D sky130_fd_sc_hd__a21oi_1
*CAP
1 *1184:D 0.00069235
2 *999:Y 0.00069235
3 *1184:D *694:58 8.64364e-05
4 *1001:B *1184:D 7.97944e-05
*RES
1 *999:Y *1184:D 38.788 
*END

*D_NET *574 0.000495961
*CONN
*I *1185:D I *D sky130_fd_sc_hd__dfrtp_1
*I *998:Y O *D sky130_fd_sc_hd__a21oi_1
*CAP
1 *1185:D 0.000155198
2 *998:Y 0.000155198
3 *1185:D *1185:RESET_B 2.65667e-05
4 *1185:D *577:12 5.04829e-06
5 *1185:D *692:98 1.82696e-05
6 *1185:D *692:189 0
7 *822:A *1185:D 5.92342e-05
8 *997:B *1185:D 0
9 *998:A1 *1185:D 6.31954e-05
10 *998:A2 *1185:D 1.32509e-05
*RES
1 *998:Y *1185:D 32.5452 
*END

*D_NET *575 0.000774558
*CONN
*I *1186:D I *D sky130_fd_sc_hd__dfrtp_1
*I *993:X O *D sky130_fd_sc_hd__o31a_1
*CAP
1 *1186:D 0.000171524
2 *993:X 0.000171524
3 *1186:D *580:32 3.99086e-06
4 *1186:D *692:87 6.27718e-05
5 *992:A1 *1186:D 0.000169817
6 *993:B1 *1186:D 2.16355e-05
7 *253:10 *1186:D 0.000173295
*RES
1 *993:X *1186:D 32.5774 
*END

*D_NET *576 0.000836827
*CONN
*I *1187:D I *D sky130_fd_sc_hd__dfrtp_1
*I *1001:Y O *D sky130_fd_sc_hd__nor2_1
*CAP
1 *1187:D 0.000410231
2 *1001:Y 0.000410231
3 *1187:D *694:48 1.63652e-05
*RES
1 *1001:Y *1187:D 34.0994 
*END

*D_NET *577 0.000842287
*CONN
*I *987:A I *D sky130_fd_sc_hd__inv_1
*I *999:A2 I *D sky130_fd_sc_hd__a21oi_1
*I *1184:Q O *D sky130_fd_sc_hd__dfrtp_1
*CAP
1 *987:A 4.99116e-06
2 *999:A2 9.89161e-06
3 *1184:Q 0.000251805
4 *577:12 0.000266688
5 *577:12 *1184:RESET_B 2.11607e-05
6 *577:12 *1185:RESET_B 4.89898e-06
7 *577:12 *692:98 6.28402e-05
8 *998:A1 *577:12 3.659e-05
9 *1001:B *987:A 3.20544e-05
10 *1001:B *999:A2 6.27718e-05
11 *1185:D *577:12 5.04829e-06
12 *252:25 *987:A 1.88654e-05
13 *252:25 *999:A2 6.46815e-05
*RES
1 *1184:Q *577:12 23.2989 
2 *577:12 *999:A2 9.97254 
3 *577:12 *987:A 9.62893 
*END

*D_NET *578 0.000599822
*CONN
*I *1035:C1 I *D sky130_fd_sc_hd__o2111ai_1
*I *986:A I *D sky130_fd_sc_hd__inv_1
*I *1185:Q O *D sky130_fd_sc_hd__dfrtp_1
*CAP
1 *1035:C1 0.000134746
2 *986:A 0.000102426
3 *1185:Q 0
4 *578:4 0.000237172
5 *1035:C1 *1035:B1 9.54694e-05
6 *1035:A2 *1035:C1 1.37189e-05
7 *247:18 *986:A 1.62898e-05
8 *248:10 *1035:C1 0
*RES
1 *1185:Q *578:4 9.24915 
2 *578:4 *986:A 11.7268 
3 *578:4 *1035:C1 20.9439 
*END

*D_NET *579 0.00237345
*CONN
*I *1035:A1 I *D sky130_fd_sc_hd__o2111ai_1
*I *985:A I *D sky130_fd_sc_hd__inv_1
*I *1186:Q O *D sky130_fd_sc_hd__dfrtp_1
*CAP
1 *1035:A1 0.00025305
2 *985:A 1.48834e-05
3 *1186:Q 0.000585099
4 *579:10 0.000853032
5 *1035:A1 *1035:B1 0.000205976
6 *1035:A1 *695:27 4.90694e-05
7 *579:10 *1035:B1 0.00014013
8 *579:10 *1186:RESET_B 9.50523e-05
9 *246:6 *985:A 3.19445e-05
10 *247:18 *1035:A1 0.000123582
11 *250:8 *579:10 0
12 *282:6 *1035:A1 2.16355e-05
13 *345:20 *1035:A1 0
14 *345:20 *579:10 0
*RES
1 *1186:Q *579:10 25.0332 
2 *579:10 *985:A 14.1289 
3 *579:10 *1035:A1 22.0204 
*END

*D_NET *580 0.00283958
*CONN
*I *1035:B1 I *D sky130_fd_sc_hd__o2111ai_1
*I *993:A1 I *D sky130_fd_sc_hd__o31a_1
*I *1000:A I *D sky130_fd_sc_hd__nor2_1
*I *995:B I *D sky130_fd_sc_hd__nand2_1
*I *1187:Q O *D sky130_fd_sc_hd__dfrtp_1
*CAP
1 *1035:B1 0.000552096
2 *993:A1 2.02805e-05
3 *1000:A 9.01436e-05
4 *995:B 1.7857e-05
5 *1187:Q 4.33664e-05
6 *580:32 0.000734453
7 *580:17 0.000286854
8 *580:8 9.58573e-05
9 *989:A *1035:B1 0
10 *993:B1 *993:A1 2.53145e-06
11 *993:B1 *1035:B1 5.61797e-05
12 *993:B1 *580:32 2.58757e-05
13 *995:A *1000:A 0.000114659
14 *995:A *580:17 6.27782e-05
15 *997:B *1000:A 1.03594e-05
16 *1035:A1 *1035:B1 0.000205976
17 *1035:A2 *1035:B1 6.64392e-05
18 *1035:C1 *1035:B1 9.54694e-05
19 *1186:D *580:32 3.99086e-06
20 *246:19 *1035:B1 0
21 *247:18 *1035:B1 0.000117613
22 *248:10 *1035:B1 0
23 *250:8 *1035:B1 0
24 *255:10 *580:8 1.50924e-05
25 *255:10 *580:17 6.27718e-05
26 *282:6 *1035:B1 1.88014e-05
27 *579:10 *1035:B1 0.00014013
*RES
1 *1187:Q *580:8 10.5513 
2 *580:8 *995:B 9.82786 
3 *580:8 *580:17 1.278 
4 *580:17 *1000:A 21.0751 
5 *580:17 *580:32 3.49641 
6 *580:32 *993:A1 9.82786 
7 *580:32 *1035:B1 34.1377 
*END

*D_NET *581 0.000594213
*CONN
*I *990:B I *D sky130_fd_sc_hd__xnor2_1
*I *1183:Q O *D sky130_fd_sc_hd__dfrtp_1
*CAP
1 *990:B 0.000144124
2 *1183:Q 0.000144124
3 *990:B *582:10 0
4 *990:B *582:19 0
5 *996:B *990:B 0.000112105
6 *161:194 *990:B 0.00016386
7 *248:21 *990:B 2.99997e-05
*RES
1 *1183:Q *990:B 31.9934 
*END

*D_NET *582 0.00314719
*CONN
*I *752:A I *D sky130_fd_sc_hd__inv_1
*I *1183:D I *D sky130_fd_sc_hd__dfrtp_1
*I *990:A I *D sky130_fd_sc_hd__xnor2_1
*I *1181:Q O *D sky130_fd_sc_hd__dfrtp_1
*CAP
1 *752:A 0.000116934
2 *1183:D 0.000490408
3 *990:A 0
4 *1181:Q 0.000449203
5 *582:19 0.000752154
6 *582:10 0.000594015
7 *1183:D *1183:RESET_B 4.57151e-05
8 *824:A1 *582:10 7.29927e-06
9 *990:B *582:10 0
10 *990:B *582:19 0
11 *991:A *582:10 1.59362e-06
12 *997:B *1183:D 2.16355e-05
13 *997:B *582:10 7.54013e-05
14 *997:B *582:19 0.000179248
15 *106:528 *752:A 5.73541e-05
16 *106:528 *582:19 2.09356e-05
17 *106:537 *752:A 5.22654e-06
18 *161:175 *582:10 6.46815e-05
19 *161:194 *582:10 0.000243096
20 *175:26 *1183:D 1.06974e-05
21 *377:25 *752:A 1.15863e-05
*RES
1 *1181:Q *582:10 21.4353 
2 *582:10 *990:A 13.7491 
3 *582:10 *582:19 4.32351 
4 *582:19 *1183:D 20.6516 
5 *582:19 *752:A 16.7914 
*END

*D_NET *583 0.000732371
*CONN
*I *1181:D I *D sky130_fd_sc_hd__dfrtp_1
*I *1182:Q O *D sky130_fd_sc_hd__dfrtp_1
*CAP
1 *1181:D 0.000274341
2 *1182:Q 0.000274341
3 *1181:D *1182:RESET_B 0.000157346
4 *1181:D *1182:CLK 2.63427e-05
*RES
1 *1182:Q *1181:D 32.2721 
*END

*D_NET *584 0.00322364
*CONN
*I *753:B I *D sky130_fd_sc_hd__nand2_1
*I *1036:B I *D sky130_fd_sc_hd__nand2_1
*I *1073:Q O *D sky130_fd_sc_hd__dfrtp_1
*CAP
1 *753:B 0.000444703
2 *1036:B 0.000538865
3 *1073:Q 0.000471546
4 *584:8 0.00145511
5 *753:B *1176:RESET_B 5.88662e-05
6 *753:B *691:98 0
7 *753:B *691:118 0
8 *753:B *692:217 0
9 *1036:B *1475:A 2.8098e-05
10 *1036:B *691:98 0
11 *584:8 *1073:RESET_B 1.9791e-05
12 *753:A *753:B 5.55377e-05
13 *754:B1 *753:B 0
14 *1035:D1 *1036:B 0
15 *1036:A *1036:B 3.33203e-05
16 *345:20 *1036:B 0.0001178
*RES
1 *1073:Q *584:8 20.5732 
2 *584:8 *1036:B 26.9915 
3 *584:8 *753:B 25.1911 
*END

*D_NET *585 0.000774605
*CONN
*I *1177:D I *D sky130_fd_sc_hd__dfrtp_1
*I *781:Y O *D sky130_fd_sc_hd__nor2_1
*CAP
1 *1177:D 0.000200295
2 *781:Y 0.000200295
3 *1177:D *1180:RESET_B 1.62054e-05
4 *1177:D *692:38 5.9598e-05
5 *1177:D *697:45 9.60366e-05
6 *1177:D *697:47 0.00016967
7 *327:6 *1177:D 3.25052e-05
*RES
1 *781:Y *1177:D 34.5037 
*END

*D_NET *586 0.000936897
*CONN
*I *1178:D I *D sky130_fd_sc_hd__dfrtp_1
*I *778:Y O *D sky130_fd_sc_hd__nor2_1
*CAP
1 *1178:D 0.000409383
2 *778:Y 0.000409383
3 *1178:D *1073:RESET_B 9.95542e-06
4 *1178:D *1178:CLK 7.16754e-05
5 *1178:D *697:16 2.54188e-05
6 *778:B *1178:D 1.10813e-05
*RES
1 *778:Y *1178:D 35.8462 
*END

*D_NET *587 0.000921781
*CONN
*I *1179:D I *D sky130_fd_sc_hd__dfrtp_1
*I *1039:B I *D sky130_fd_sc_hd__nand3_1
*I *1025:Y O *D sky130_fd_sc_hd__nor3_1
*CAP
1 *1179:D 0.000255581
2 *1039:B 7.8457e-05
3 *1025:Y 0.000334038
4 *1179:D *1179:RESET_B 4.40158e-05
5 *1179:D *1180:RESET_B 5.297e-05
6 *1025:B *1179:D 0.000114271
7 *97:8 *1039:B 4.24488e-05
*RES
1 *1025:Y *1039:B 20.355 
2 *1025:Y *1179:D 33.9303 
*END

*D_NET *588 0.00134508
*CONN
*I *1039:C I *D sky130_fd_sc_hd__nand3_1
*I *1180:D I *D sky130_fd_sc_hd__dfrtp_1
*I *1027:Y O *D sky130_fd_sc_hd__a21oi_1
*CAP
1 *1039:C 0
2 *1180:D 0.000146816
3 *1027:Y 0.000198272
4 *588:18 0.000345088
5 *1180:D *697:78 0.000180676
6 *588:18 *697:45 1.2693e-05
7 *588:18 *697:78 0.000136885
8 *1038:A *588:18 5.92342e-05
9 *1038:B *588:18 6.28168e-05
10 *1039:A *588:18 6.21888e-05
11 *97:8 *1180:D 6.08467e-05
12 *97:8 *588:18 6.08467e-05
13 *97:12 *588:18 6.01944e-06
14 *97:18 *588:18 1.2693e-05
*RES
1 *1027:Y *588:18 25.0626 
2 *588:18 *1180:D 22.4655 
3 *588:18 *1039:C 9.24915 
*END

*D_NET *589 0.00281043
*CONN
*I *1024:A2 I *D sky130_fd_sc_hd__a21oi_1
*I *775:C I *D sky130_fd_sc_hd__nand3_1
*I *773:B I *D sky130_fd_sc_hd__nand2_1
*I *772:B I *D sky130_fd_sc_hd__or2_0
*I *779:A I *D sky130_fd_sc_hd__inv_1
*I *1177:Q O *D sky130_fd_sc_hd__dfrtp_1
*CAP
1 *1024:A2 0.00022047
2 *775:C 1.86489e-05
3 *773:B 8.53413e-05
4 *772:B 0
5 *779:A 2.49628e-05
6 *1177:Q 0.000429555
7 *589:41 0.00028071
8 *589:28 0.000230667
9 *589:14 4.6485e-05
10 *589:10 0.000554811
11 *773:B *773:A 1.67784e-05
12 *775:C *773:A 6.50727e-05
13 *1024:A2 *1024:A1 3.80557e-05
14 *1024:A2 *1024:B1 0.00016386
15 *1024:A2 *590:19 3.20069e-06
16 *1024:A2 *592:12 3.00174e-06
17 *589:10 *1180:RESET_B 0
18 *589:10 *590:8 5.04734e-05
19 *589:10 *625:23 1.32043e-05
20 *589:10 *625:45 9.03858e-06
21 *589:10 *692:38 0
22 *589:28 *1180:RESET_B 0
23 *589:28 *590:8 3.20069e-06
24 *589:28 *590:19 7.41203e-05
25 *589:41 *1180:RESET_B 0
26 *589:41 *590:19 2.36813e-05
27 *776:A *773:B 1.09551e-05
28 *777:A1 *779:A 0.000143667
29 *777:A1 *589:14 4.88955e-05
30 *777:A2 *773:B 6.78596e-05
31 *777:A2 *589:10 0
32 *777:A2 *589:28 0
33 *780:A *779:A 6.40059e-05
34 *1025:B *1024:A2 3.00829e-05
35 *1130:D *589:10 0
36 *1152:D *589:10 2.66602e-05
37 *1153:D *1024:A2 4.29314e-06
38 *100:14 *773:B 1.81626e-05
39 *100:14 *1024:A2 3.34833e-05
40 *101:8 *773:B 7.02172e-06
*RES
1 *1177:Q *589:10 22.2602 
2 *589:10 *589:14 5.2234 
3 *589:14 *779:A 10.7743 
4 *589:14 *772:B 9.24915 
5 *589:10 *589:28 3.07775 
6 *589:28 *773:B 16.5704 
7 *589:28 *589:41 1.00149 
8 *589:41 *775:C 14.4725 
9 *589:41 *1024:A2 19.9469 
*END

*D_NET *590 0.00159582
*CONN
*I *1024:A1 I *D sky130_fd_sc_hd__a21oi_1
*I *775:B I *D sky130_fd_sc_hd__nand3_1
*I *773:A I *D sky130_fd_sc_hd__nand2_1
*I *772:A I *D sky130_fd_sc_hd__or2_0
*I *1178:Q O *D sky130_fd_sc_hd__dfrtp_1
*CAP
1 *1024:A1 0.000174621
2 *775:B 3.16855e-05
3 *773:A 5.60231e-05
4 *772:A 2.19858e-05
5 *1178:Q 8.96193e-05
6 *590:21 8.77086e-05
7 *590:19 0.000310355
8 *590:8 0.00024734
9 *1024:A1 *775:A 0
10 *1024:A1 *1024:B1 6.46815e-05
11 *590:19 *700:46 0
12 *773:B *773:A 1.67784e-05
13 *775:C *773:A 6.50727e-05
14 *776:A *773:A 7.32658e-06
15 *777:A1 *772:A 6.50586e-05
16 *1024:A2 *1024:A1 3.80557e-05
17 *1024:A2 *590:19 3.20069e-06
18 *1130:D *590:8 0
19 *101:8 *773:A 0.000164829
20 *589:10 *590:8 5.04734e-05
21 *589:28 *590:8 3.20069e-06
22 *589:28 *590:19 7.41203e-05
23 *589:41 *590:19 2.36813e-05
*RES
1 *1178:Q *590:8 15.9964 
2 *590:8 *772:A 14.4725 
3 *590:8 *590:19 3.90826 
4 *590:19 *590:21 4.5 
5 *590:21 *773:A 12.2392 
6 *590:21 *775:B 9.97254 
7 *590:19 *1024:A1 17.4526 
*END

*D_NET *591 0.00167767
*CONN
*I *1024:B1 I *D sky130_fd_sc_hd__a21oi_1
*I *775:A I *D sky130_fd_sc_hd__nand3_1
*I *1179:Q O *D sky130_fd_sc_hd__dfrtp_1
*CAP
1 *1024:B1 0.000155659
2 *775:A 0.000277283
3 *1179:Q 0.000267555
4 *591:8 0.000700497
5 *1024:A1 *775:A 0
6 *1024:A1 *1024:B1 6.46815e-05
7 *1024:A2 *1024:B1 0.00016386
8 *1153:D *1024:B1 4.81373e-05
*RES
1 *1179:Q *591:8 20.1489 
2 *591:8 *775:A 19.9081 
3 *591:8 *1024:B1 18.3548 
*END

*D_NET *592 0.000618558
*CONN
*I *774:A I *D sky130_fd_sc_hd__inv_1
*I *1023:A I *D sky130_fd_sc_hd__nor2_1
*I *1180:Q O *D sky130_fd_sc_hd__dfrtp_1
*CAP
1 *774:A 1.98073e-05
2 *1023:A 0
3 *1180:Q 0.00025353
4 *592:12 0.000273337
5 *1024:A2 *592:12 3.00174e-06
6 *1025:B *774:A 3.4441e-05
7 *100:14 *774:A 3.4441e-05
*RES
1 *1180:Q *592:12 22.7442 
2 *592:12 *1023:A 9.24915 
3 *592:12 *774:A 10.1835 
*END

*D_NET *593 0.00088221
*CONN
*I *771:B I *D sky130_fd_sc_hd__xor2_1
*I *1176:Q O *D sky130_fd_sc_hd__dfrtp_1
*CAP
1 *771:B 0.000396601
2 *1176:Q 0.000396601
3 *771:B *1073:CLK 7.48797e-05
4 *771:B *691:98 0
5 *771:B *691:118 0
6 *771:B *697:16 1.41291e-05
*RES
1 *1176:Q *771:B 35.87 
*END

*D_NET *594 0.00349137
*CONN
*I *771:A I *D sky130_fd_sc_hd__xor2_1
*I *749:A I *D sky130_fd_sc_hd__inv_1
*I *1176:D I *D sky130_fd_sc_hd__dfrtp_1
*I *1174:Q O *D sky130_fd_sc_hd__dfrtp_1
*CAP
1 *771:A 0.000185722
2 *749:A 0
3 *1176:D 0.000375176
4 *1174:Q 0.000418197
5 *594:35 0.000334946
6 *594:10 0.000942596
7 *1176:D *1073:CLK 8.03393e-06
8 *1176:D *692:217 4.00463e-05
9 *1176:D *696:10 0
10 *594:10 *1040:B 2.5284e-05
11 *594:10 *1074:RESET_B 6.09513e-05
12 *594:10 *1104:CLK 4.49625e-06
13 *594:10 *692:217 0.000279553
14 *594:10 *697:99 8.38368e-06
15 *753:A *1176:D 0.000147306
16 *1041:A2 *594:35 0.000143573
17 *1074:D *594:10 0.00024504
18 *285:8 *771:A 0.000239029
19 *285:8 *594:35 3.30384e-05
*RES
1 *1174:Q *594:10 23.506 
2 *594:10 *1176:D 23.904 
3 *594:10 *594:35 7.70103 
4 *594:35 *749:A 9.24915 
5 *594:35 *771:A 15.3076 
*END

*D_NET *595 0.00114577
*CONN
*I *1174:D I *D sky130_fd_sc_hd__dfrtp_1
*I *1175:Q O *D sky130_fd_sc_hd__dfrtp_1
*CAP
1 *1174:D 0.000269897
2 *1175:Q 0.000269897
3 *1174:D *1104:CLK 1.34231e-05
4 *1174:D *1174:CLK 0.000159016
5 *1174:D *1175:RESET_B 7.01935e-06
6 *1174:D *690:237 0.0001682
7 *1174:D *692:227 5.20167e-05
8 *821:A1 *1174:D 6.32762e-05
9 *378:8 *1174:D 0.000143027
*RES
1 *1175:Q *1174:D 35.9051 
*END

*D_NET *596 0.00236604
*CONN
*I *750:B I *D sky130_fd_sc_hd__nand2_1
*I *1040:B I *D sky130_fd_sc_hd__nand2_1
*I *1074:Q O *D sky130_fd_sc_hd__dfrtp_1
*CAP
1 *750:B 0
2 *1040:B 0.000320733
3 *1074:Q 0.000557994
4 *596:12 0.000878727
5 *1040:B *692:221 1.19726e-05
6 *596:12 *1074:RESET_B 0.000177496
7 *596:12 *692:217 5.2153e-05
8 *596:12 *697:99 4.30705e-05
9 *1041:A1 *1040:B 1.88563e-05
10 *1041:A2 *1040:B 0.000112361
11 *1041:B1 *1040:B 6.27718e-05
12 *1074:D *1040:B 9.43419e-05
13 *378:29 *596:12 7.86825e-06
14 *527:16 *1040:B 2.41274e-06
15 *594:10 *1040:B 2.5284e-05
*RES
1 *1074:Q *596:12 27.875 
2 *596:12 *1040:B 25.9807 
3 *596:12 *750:B 9.24915 
*END

*D_NET *597 0.000923839
*CONN
*I *1170:D I *D sky130_fd_sc_hd__dfrtp_1
*I *1020:Y O *D sky130_fd_sc_hd__a21oi_1
*CAP
1 *1170:D 0.000302951
2 *1020:Y 0.000302951
3 *1170:D *1170:RESET_B 4.21512e-05
4 *1170:D *692:274 7.23391e-05
5 *1022:A *1170:D 2.65667e-05
6 *1022:B *1170:D 0.000113968
7 *175:71 *1170:D 5.78637e-05
8 *268:31 *1170:D 5.04829e-06
*RES
1 *1020:Y *1170:D 36.0444 
*END

*D_NET *598 0.00193747
*CONN
*I *1171:D I *D sky130_fd_sc_hd__dfrtp_1
*I *1019:Y O *D sky130_fd_sc_hd__a21oi_1
*CAP
1 *1171:D 0.000652724
2 *1019:Y 0.000652724
3 *1171:D *1171:RESET_B 2.89271e-05
4 *1171:D *1172:CLK 5.04829e-06
5 *1171:D *601:14 0
6 *1171:D *604:16 2.58282e-05
7 *1171:D *619:14 7.81765e-05
8 *1171:D *691:332 7.13655e-06
9 *1018:B *1171:D 1.05272e-06
10 *1019:A1 *1171:D 0.000434519
11 *1019:A2 *1171:D 9.72261e-06
12 *1019:B1 *1171:D 1.50924e-05
13 *1020:A1 *1171:D 2.652e-05
14 *161:163 *1171:D 0
15 *175:71 *1171:D 0
16 *268:10 *1171:D 0
*RES
1 *1019:Y *1171:D 44.9172 
*END

*D_NET *599 0.000964665
*CONN
*I *1172:D I *D sky130_fd_sc_hd__dfrtp_1
*I *1014:X O *D sky130_fd_sc_hd__o31a_1
*CAP
1 *1172:D 0.000329791
2 *1014:X 0.000329791
3 *1172:D *1008:A 2.08335e-05
4 *1018:A *1172:D 3.09374e-06
5 *262:8 *1172:D 0.000265301
6 *266:32 *1172:D 1.58551e-05
*RES
1 *1014:X *1172:D 33.3813 
*END

*D_NET *600 0.000773889
*CONN
*I *1173:D I *D sky130_fd_sc_hd__dfrtp_1
*I *1022:Y O *D sky130_fd_sc_hd__nor2_1
*CAP
1 *1173:D 0.000205575
2 *1022:Y 0.000205575
3 *1173:D *1170:RESET_B 2.692e-05
4 *1173:D *1173:RESET_B 0.00011462
5 *811:A *1173:D 0.000113909
6 *175:71 *1173:D 0.00010729
*RES
1 *1022:Y *1173:D 34.7664 
*END

*D_NET *601 0.00137551
*CONN
*I *1020:A2 I *D sky130_fd_sc_hd__a21oi_1
*I *1007:A I *D sky130_fd_sc_hd__inv_1
*I *1170:Q O *D sky130_fd_sc_hd__dfrtp_1
*CAP
1 *1020:A2 0
2 *1007:A 0.000129094
3 *1170:Q 0.000290533
4 *601:14 0.000419627
5 *1007:A *1021:A 6.17185e-05
6 *1009:A *1007:A 2.53145e-06
7 *1013:B1 *601:14 7.09666e-06
8 *1020:A1 *1007:A 6.50586e-05
9 *1020:A1 *601:14 2.41483e-05
10 *1021:B *1007:A 0.000216591
11 *1022:B *1007:A 7.02172e-06
12 *1022:B *601:14 1.43983e-05
13 *1171:D *601:14 0
14 *268:10 *601:14 0.000137693
*RES
1 *1170:Q *601:14 24.0222 
2 *601:14 *1007:A 14.8253 
3 *601:14 *1020:A2 9.24915 
*END

*D_NET *602 0.00198603
*CONN
*I *1008:A I *D sky130_fd_sc_hd__inv_1
*I *1042:C1 I *D sky130_fd_sc_hd__o2111ai_1
*I *1171:Q O *D sky130_fd_sc_hd__dfrtp_1
*CAP
1 *1008:A 0.000251138
2 *1042:C1 0
3 *1171:Q 0.000379942
4 *602:8 0.00063108
5 *602:8 *703:52 0
6 *602:8 *703:58 0
7 *602:8 *703:73 0
8 *748:A2 *1008:A 8.36586e-06
9 *1009:B *1008:A 0.000334736
10 *1009:B *602:8 0.000185984
11 *1017:A *1008:A 0
12 *1017:B *1008:A 1.42392e-05
13 *1172:D *1008:A 2.08335e-05
14 *78:8 *1008:A 7.62471e-05
15 *161:163 *602:8 0
16 *262:21 *602:8 0
17 *266:20 *602:8 0
18 *269:12 *1008:A 9.22013e-06
19 *269:12 *602:8 4.55535e-05
20 *287:10 *1008:A 2.86887e-05
*RES
1 *1171:Q *602:8 22.6404 
2 *602:8 *1042:C1 13.7491 
3 *602:8 *1008:A 21.8535 
*END

*D_NET *603 0.00113603
*CONN
*I *1006:A I *D sky130_fd_sc_hd__inv_1
*I *1042:A2 I *D sky130_fd_sc_hd__o2111ai_1
*I *1172:Q O *D sky130_fd_sc_hd__dfrtp_1
*CAP
1 *1006:A 0
2 *1042:A2 4.97501e-05
3 *1172:Q 0.000229336
4 *603:14 0.000279086
5 *603:14 *1172:RESET_B 0.000110458
6 *603:14 *703:52 3.03825e-05
7 *909:A1 *603:14 5.11107e-05
8 *1042:A1 *1042:A2 6.92705e-05
9 *262:8 *1042:A2 0.000256699
10 *262:8 *603:14 5.99401e-05
*RES
1 *1172:Q *603:14 23.8542 
2 *603:14 *1042:A2 11.9438 
3 *603:14 *1006:A 9.24915 
*END

*D_NET *604 0.00262532
*CONN
*I *1016:B I *D sky130_fd_sc_hd__nand2_1
*I *1042:B1 I *D sky130_fd_sc_hd__o2111ai_1
*I *1014:A2 I *D sky130_fd_sc_hd__o31a_1
*I *1021:A I *D sky130_fd_sc_hd__nor2_1
*I *1173:Q O *D sky130_fd_sc_hd__dfrtp_1
*CAP
1 *1016:B 0
2 *1042:B1 9.68795e-05
3 *1014:A2 0
4 *1021:A 0.000122851
5 *1173:Q 4.30965e-05
6 *604:33 0.000296031
7 *604:16 0.00041449
8 *604:8 0.000135585
9 *604:8 *1171:RESET_B 2.58757e-05
10 *1007:A *1021:A 6.17185e-05
11 *1014:B1 *1042:B1 7.16754e-05
12 *1016:A *604:16 0.000106943
13 *1016:A *604:33 8.62625e-06
14 *1019:A1 *604:16 7.14746e-05
15 *1019:A1 *604:33 0.000197315
16 *1020:A1 *604:8 2.16355e-05
17 *1042:A1 *1042:B1 0.000429681
18 *1042:A1 *604:33 6.08467e-05
19 *1042:D1 *1042:B1 2.15348e-05
20 *1171:D *604:16 2.58282e-05
21 *161:163 *604:33 1.24195e-05
22 *262:8 *1042:B1 2.75558e-05
23 *266:32 *1042:B1 6.3657e-05
24 *266:32 *604:33 0.0003096
*RES
1 *1173:Q *604:8 10.5513 
2 *604:8 *604:16 7.65103 
3 *604:16 *1021:A 16.0158 
4 *604:16 *604:33 10.7955 
5 *604:33 *1014:A2 9.24915 
6 *604:33 *1042:B1 14.4335 
7 *604:8 *1016:B 9.24915 
*END

*D_NET *605 0.00234866
*CONN
*I *1011:B I *D sky130_fd_sc_hd__xnor2_1
*I *1169:Q O *D sky130_fd_sc_hd__dfrtp_1
*CAP
1 *1011:B 0.00076958
2 *1169:Q 0.00076958
3 *1011:B *746:A 6.08467e-05
4 *1011:B *691:332 3.76013e-05
5 *889:A1 *1011:B 0
6 *161:163 *1011:B 0
7 *175:71 *1011:B 0.000711055
8 *379:16 *1011:B 0
*RES
1 *1169:Q *1011:B 47.6687 
*END

*D_NET *606 0.0037503
*CONN
*I *746:A I *D sky130_fd_sc_hd__inv_1
*I *1011:A I *D sky130_fd_sc_hd__xnor2_1
*I *1169:D I *D sky130_fd_sc_hd__dfrtp_1
*I *1167:Q O *D sky130_fd_sc_hd__dfrtp_1
*CAP
1 *746:A 0.000356587
2 *1011:A 0
3 *1169:D 0.000537312
4 *1167:Q 0
5 *606:25 0.000425835
6 *606:4 0.00060656
7 *746:A *702:34 0.000157072
8 *1169:D *1169:RESET_B 0.000536767
9 *1169:D *691:351 2.93783e-05
10 *1169:D *692:274 3.55179e-05
11 *1169:D *692:281 0.000413155
12 *1169:D *702:34 4.25952e-05
13 *606:25 *702:34 4.15447e-05
14 *818:B1 *1169:D 0.000101133
15 *1011:B *746:A 6.08467e-05
16 *1017:A *746:A 6.27782e-05
17 *1017:B *746:A 6.99372e-05
18 *1018:B *746:A 7.82454e-06
19 *1135:D *1169:D 0.00026546
20 *175:71 *1169:D 0
*RES
1 *1167:Q *606:4 9.24915 
2 *606:4 *1169:D 37.889 
3 *606:4 *606:25 2.41132 
4 *606:25 *1011:A 9.24915 
5 *606:25 *746:A 20.0458 
*END

*D_NET *607 0.000440886
*CONN
*I *1167:D I *D sky130_fd_sc_hd__dfrtp_1
*I *1168:Q O *D sky130_fd_sc_hd__dfrtp_1
*CAP
1 *1167:D 0.000220443
2 *1168:Q 0.000220443
3 *1167:D *1169:CLK 0
*RES
1 *1168:Q *1167:D 32.6523 
*END

*D_NET *608 0.00176673
*CONN
*I *1043:B I *D sky130_fd_sc_hd__nand2_1
*I *747:B I *D sky130_fd_sc_hd__nand2_1
*I *1075:Q O *D sky130_fd_sc_hd__dfrtp_1
*CAP
1 *1043:B 0.000312128
2 *747:B 0.000100114
3 *1075:Q 0.000189079
4 *608:8 0.000601321
5 *747:B *1075:RESET_B 0.000115406
6 *1043:B *1075:RESET_B 5.92342e-05
7 *888:A *1043:B 3.2993e-05
8 *888:B *1043:B 6.19524e-05
9 *1043:A *1043:B 6.08467e-05
10 *1044:B1 *747:B 3.78605e-05
11 *1044:B1 *1043:B 0.000131085
12 *1096:D *1043:B 0
13 *161:151 *608:8 6.47133e-05
*RES
1 *1075:Q *608:8 16.691 
2 *608:8 *747:B 16.9002 
3 *608:8 *1043:B 23.257 
*END

*D_NET *609 0.0016185
*CONN
*I *1163:D I *D sky130_fd_sc_hd__dfrtp_1
*I *1046:A I *D sky130_fd_sc_hd__nand3_1
*I *982:Y O *D sky130_fd_sc_hd__a21oi_1
*CAP
1 *1163:D 0.00022917
2 *1046:A 3.97112e-05
3 *982:Y 4.8307e-05
4 *609:8 0.000317188
5 *1163:D *1163:CLK 0.000205176
6 *1163:D *703:38 0.000214274
7 *1163:D *703:126 6.09513e-05
8 *609:8 *703:10 2.22198e-05
9 *609:8 *703:38 2.31052e-05
10 *982:B1 *1163:D 0.000111045
11 *1005:B *1163:D 1.07549e-05
12 *1045:A *1046:A 4.89469e-06
13 *1045:A *1163:D 0
14 *1045:A *609:8 0
15 *1046:B *1163:D 5.68225e-06
16 *244:10 *1163:D 0.000266294
17 *244:12 *1163:D 4.9e-05
18 *290:8 *609:8 1.07248e-05
*RES
1 *982:Y *609:8 15.3735 
2 *609:8 *1046:A 14.8606 
3 *609:8 *1163:D 22.8481 
*END

*D_NET *610 0.00143422
*CONN
*I *1164:D I *D sky130_fd_sc_hd__dfrtp_1
*I *1005:Y O *D sky130_fd_sc_hd__nor2_1
*CAP
1 *1164:D 0.000464747
2 *1005:Y 0.000464747
3 *1164:D *1163:CLK 2.24632e-05
4 *1164:D *1164:RESET_B 8.87149e-05
5 *1164:D *1164:CLK 7.13972e-05
6 *1164:D *703:38 1.94615e-05
7 *1164:D *703:126 2.48716e-05
8 *974:B *1164:D 3.00174e-06
9 *982:A1 *1164:D 7.40248e-05
10 *1003:A2 *1164:D 0.000200794
*RES
1 *1005:Y *1164:D 37.7054 
*END

*D_NET *611 0.00150815
*CONN
*I *1165:D I *D sky130_fd_sc_hd__dfrtp_1
*I *984:Y O *D sky130_fd_sc_hd__a21oi_1
*CAP
1 *1165:D 0.000459117
2 *984:Y 0.000459117
3 *1165:D *1160:RESET_B 3.94956e-05
4 *1165:D *1166:D 1.03594e-05
5 *1165:D *1166:RESET_B 4.89548e-05
6 *1165:D *692:351 0.000140361
7 *977:A *1165:D 3.01773e-05
8 *984:B1 *1165:D 0.000304572
9 *239:10 *1165:D 1.59945e-05
*RES
1 *984:Y *1165:D 41.7308 
*END

*D_NET *612 0.000961122
*CONN
*I *1166:D I *D sky130_fd_sc_hd__dfrtp_1
*I *1026:Y O *D sky130_fd_sc_hd__a21oi_1
*CAP
1 *1166:D 0.000273439
2 *1026:Y 0.000273439
3 *1166:D *1166:RESET_B 7.89002e-05
4 *1166:D *703:42 0.000156955
5 *977:A *1166:D 0.000139817
6 *984:A2 *1166:D 2.57986e-05
7 *984:B1 *1166:D 2.41274e-06
8 *1165:D *1166:D 1.03594e-05
*RES
1 *1026:Y *1166:D 35.4898 
*END

*D_NET *613 0.00235626
*CONN
*I *1002:A I *D sky130_fd_sc_hd__nor2_1
*I *972:A I *D sky130_fd_sc_hd__inv_1
*I *982:A2 I *D sky130_fd_sc_hd__a21oi_1
*I *1163:Q O *D sky130_fd_sc_hd__dfrtp_1
*CAP
1 *1002:A 6.82787e-05
2 *972:A 7.85209e-06
3 *982:A2 0.000118937
4 *1163:Q 0.000565007
5 *613:18 0.000289845
6 *613:10 0.000796342
7 *1002:A *973:A 1.32982e-05
8 *1002:A *1002:B 4.46215e-05
9 *1002:A *614:14 0.000117123
10 *974:A *972:A 3.21692e-05
11 *974:A *982:A2 3.51034e-05
12 *974:B *1002:A 0.000137162
13 *974:B *613:18 8.13812e-06
14 *237:8 *982:A2 0.000122378
*RES
1 *1163:Q *613:10 24.1999 
2 *613:10 *613:18 8.06628 
3 *613:18 *982:A2 13.3484 
4 *613:18 *972:A 9.62893 
5 *613:10 *1002:A 16.7151 
*END

*D_NET *614 0.000946108
*CONN
*I *1002:B I *D sky130_fd_sc_hd__nor2_1
*I *973:A I *D sky130_fd_sc_hd__inv_1
*I *1164:Q O *D sky130_fd_sc_hd__dfrtp_1
*CAP
1 *1002:B 0.000109636
2 *973:A 1.77938e-06
3 *1164:Q 0.000228697
4 *614:14 0.000340112
5 *614:14 intr_gpio_o[3] 6.49659e-05
6 *1002:A *973:A 1.32982e-05
7 *1002:A *1002:B 4.46215e-05
8 *1002:A *614:14 0.000117123
9 *1003:A2 *1002:B 2.58757e-05
*RES
1 *1164:Q *614:14 24.5829 
2 *614:14 *973:A 9.56865 
3 *614:14 *1002:B 12.7878 
*END

*D_NET *615 0.00101707
*CONN
*I *983:A1 I *D sky130_fd_sc_hd__o21ai_0
*I *971:A I *D sky130_fd_sc_hd__inv_1
*I *1165:Q O *D sky130_fd_sc_hd__dfrtp_1
*CAP
1 *983:A1 0
2 *971:A 0.000326221
3 *1165:Q 3.07445e-05
4 *615:6 0.000356965
5 *971:A *1165:RESET_B 3.74738e-05
6 *971:A *692:145 4.17017e-05
7 *615:6 *1165:RESET_B 7.16754e-05
8 *976:A *971:A 4.84154e-05
9 *983:A2 *971:A 2.1203e-06
10 *984:B1 *615:6 7.16754e-05
11 *238:14 *971:A 0
12 *239:10 *971:A 1.91169e-05
13 *243:10 *971:A 1.09593e-05
*RES
1 *1165:Q *615:6 11.0817 
2 *615:6 *971:A 26.3645 
3 *615:6 *983:A1 9.24915 
*END

*D_NET *616 0.000868121
*CONN
*I *970:A I *D sky130_fd_sc_hd__clkinv_1
*I *1166:Q O *D sky130_fd_sc_hd__dfrtp_1
*CAP
1 *970:A 0.000316733
2 *1166:Q 0.000316733
3 *970:A *1164:RESET_B 1.25799e-05
4 *978:A *970:A 0.000129489
5 *1026:A1 *970:A 7.64596e-05
6 *1026:B1 *970:A 1.61262e-05
*RES
1 *1166:Q *970:A 33.5473 
*END

*D_NET *617 0.000339795
*CONN
*I *980:B I *D sky130_fd_sc_hd__xnor2_1
*I *1162:Q O *D sky130_fd_sc_hd__dfrtp_1
*CAP
1 *980:B 6.42492e-05
2 *1162:Q 6.42492e-05
3 *980:B *692:145 0.000141958
4 *314:26 *980:B 6.93385e-05
*RES
1 *1162:Q *980:B 30.1608 
*END

*D_NET *618 0.0017577
*CONN
*I *980:A I *D sky130_fd_sc_hd__xnor2_1
*I *1028:A I *D sky130_fd_sc_hd__inv_1
*I *1162:D I *D sky130_fd_sc_hd__dfrtp_1
*I *1160:Q O *D sky130_fd_sc_hd__dfrtp_1
*CAP
1 *980:A 0.000103524
2 *1028:A 0
3 *1162:D 0.000202642
4 *1160:Q 0.000106045
5 *618:27 0.000238857
6 *618:8 0.00044402
7 *980:A *1138:RESET_B 7.89082e-05
8 *1162:D *1162:CLK 3.13805e-06
9 *1162:D *690:166 3.25052e-05
10 *618:8 *691:310 2.28235e-05
11 *618:27 *1138:RESET_B 0.000285998
12 *277:6 *980:A 0.000239239
*RES
1 *1160:Q *618:8 16.4116 
2 *618:8 *1162:D 17.8531 
3 *618:8 *618:27 8.94741 
4 *618:27 *1028:A 9.24915 
5 *618:27 *980:A 13.692 
*END

*D_NET *619 0.00333308
*CONN
*I *1160:D I *D sky130_fd_sc_hd__dfrtp_1
*I *1161:Q O *D sky130_fd_sc_hd__dfrtp_1
*CAP
1 *1160:D 0
2 *1161:Q 0.00135319
3 *619:14 0.00135319
4 *619:14 *1160:CLK 6.79671e-05
5 *619:14 *1161:RESET_B 7.99666e-05
6 *619:14 *1171:RESET_B 0.000155189
7 *619:14 *1171:CLK 8.86088e-05
8 *619:14 *702:87 0.000147083
9 *1171:D *619:14 7.81765e-05
10 *161:163 *619:14 7.28994e-06
11 *271:6 *619:14 2.41274e-06
*RES
1 *1161:Q *619:14 43.0181 
2 *619:14 *1160:D 9.24915 
*END

*D_NET *620 0.00152985
*CONN
*I *1029:B I *D sky130_fd_sc_hd__nand2_1
*I *1047:B I *D sky130_fd_sc_hd__nand2_1
*I *1076:Q O *D sky130_fd_sc_hd__dfrtp_1
*CAP
1 *1029:B 0
2 *1047:B 0.000404196
3 *1076:Q 0.000233541
4 *620:12 0.000637738
5 *1029:A *1047:B 4.76161e-06
6 *1030:A2 *1047:B 7.90572e-05
7 *1030:B1 *1047:B 3.00829e-05
8 *319:6 *1047:B 6.46815e-05
9 *380:44 *1047:B 7.5794e-05
*RES
1 *1076:Q *620:12 22.1896 
2 *620:12 *1047:B 18.0022 
3 *620:12 *1029:B 9.24915 
*END

*D_NET *625 0.0242696
*CONN
*I *1084:RESET_B I *D sky130_fd_sc_hd__dfrtp_1
*I *1083:RESET_B I *D sky130_fd_sc_hd__dfrtp_1
*I *1081:RESET_B I *D sky130_fd_sc_hd__dfrtp_1
*I *1190:RESET_B I *D sky130_fd_sc_hd__dfrtp_1
*I *1080:RESET_B I *D sky130_fd_sc_hd__dfrtp_1
*I *1079:RESET_B I *D sky130_fd_sc_hd__dfrtp_1
*I *1077:RESET_B I *D sky130_fd_sc_hd__dfrtp_1
*I *1082:RESET_B I *D sky130_fd_sc_hd__dfrtp_1
*I *1078:RESET_B I *D sky130_fd_sc_hd__dfrtp_1
*I *1191:RESET_B I *D sky130_fd_sc_hd__dfrtp_1
*I *1189:RESET_B I *D sky130_fd_sc_hd__dfrtp_1
*I *1188:RESET_B I *D sky130_fd_sc_hd__dfrtp_1
*I *1156:Q O *D sky130_fd_sc_hd__dfrtp_1
*CAP
1 *1084:RESET_B 0.000278206
2 *1083:RESET_B 9.84369e-05
3 *1081:RESET_B 0.000610173
4 *1190:RESET_B 0.000735248
5 *1080:RESET_B 0
6 *1079:RESET_B 0
7 *1077:RESET_B 0.000779054
8 *1082:RESET_B 0.000563583
9 *1078:RESET_B 0.00212756
10 *1191:RESET_B 0.000343432
11 *1189:RESET_B 0
12 *1188:RESET_B 0.000938229
13 *1156:Q 0.000875441
14 *625:186 0.000613192
15 *625:139 0.00114787
16 *625:132 0.00137764
17 *625:89 0.00158771
18 *625:45 0.00201526
19 *625:23 0.00305963
20 *625:12 0.00142023
21 *1077:RESET_B *698:68 0.000608388
22 *1078:RESET_B *700:34 8.70597e-05
23 *1078:RESET_B *700:38 0.000105182
24 *1078:RESET_B *700:46 0.000107081
25 *1081:RESET_B *1081:CLK 3.14978e-05
26 *1082:RESET_B *1082:CLK 0
27 *1083:RESET_B *1083:CLK 3.42931e-05
28 *1084:RESET_B *1287:A 5.08751e-05
29 *1188:RESET_B *698:34 3.04407e-05
30 *1190:RESET_B *1102:RESET_B 9.63733e-05
31 *1190:RESET_B *1102:CLK 4.0785e-05
32 *1190:RESET_B *1147:RESET_B 0
33 *1191:RESET_B *1191:CLK 7.97944e-05
34 *1191:RESET_B *692:135 0
35 *625:12 *1095:RESET_B 0.000297319
36 *625:12 *1152:RESET_B 0.000104815
37 *625:45 *692:135 0
38 *625:89 *1082:CLK 0
39 *625:89 *698:34 0
40 *625:89 *698:51 0
41 *625:132 *1079:CLK 7.29643e-05
42 *625:132 *701:64 4.51717e-05
43 *625:186 *1287:A 0.000319954
44 *756:A *1190:RESET_B 6.36477e-05
45 *756:B *1190:RESET_B 0.000314643
46 *758:A1 *1190:RESET_B 8.05255e-05
47 *758:B1 *1190:RESET_B 0
48 *761:A *1191:RESET_B 0
49 *767:A1 *625:89 7.26606e-05
50 *799:A0 *1078:RESET_B 0.00016524
51 *826:A0 *625:89 0
52 *885:B *1190:RESET_B 0.000203756
53 *927:A1 *1078:RESET_B 5.14187e-05
54 *936:A1 *625:132 0
55 *943:B *625:139 9.04083e-05
56 *944:B1 *625:132 0.000163492
57 *944:B1 *625:139 0.000152338
58 *947:A *625:132 2.7837e-05
59 *947:B *625:132 1.45447e-05
60 *947:C *625:132 2.09072e-05
61 *949:A *625:132 0.000135738
62 *966:B *1190:RESET_B 0.00015796
63 *966:B *625:139 0.000372951
64 *967:A1 *625:139 0
65 *968:A0 *625:132 1.41976e-05
66 *1077:D *1077:RESET_B 7.22498e-05
67 *1078:D *1078:RESET_B 8.54603e-05
68 *1079:D *625:139 3.40703e-05
69 *1081:D *1081:RESET_B 3.14978e-05
70 *1082:D *1081:RESET_B 4.32761e-05
71 *1082:D *1082:RESET_B 4.70567e-05
72 *1083:D *1083:RESET_B 0
73 *1129:D *625:89 8.19598e-05
74 *1130:D *1188:RESET_B 0
75 *1153:D *625:45 0
76 *1154:D *1190:RESET_B 7.16893e-05
77 *1191:D *1191:RESET_B 0.000124416
78 *1231:A *1082:RESET_B 0
79 *1231:A *1188:RESET_B 0
80 *1231:A *625:89 0
81 *1514:A *625:186 6.50727e-05
82 *84:8 *1190:RESET_B 4.52736e-05
83 *84:14 *1190:RESET_B 7.07582e-05
84 *112:21 *625:132 0
85 *112:45 *625:139 0
86 *161:194 *625:12 5.04829e-06
87 *192:40 *625:132 5.88662e-05
88 *192:42 *625:132 1.5147e-05
89 *192:72 *625:139 7.26748e-05
90 *192:81 *625:139 0.000108276
91 *228:160 *625:139 0
92 *302:8 *625:186 0.000156076
93 *303:8 *1081:RESET_B 6.50727e-05
94 *318:29 *1190:RESET_B 2.22931e-05
95 *385:10 *1078:RESET_B 1.59968e-05
96 *421:10 *1082:RESET_B 0
97 *425:10 *1083:RESET_B 0
98 *460:38 *625:132 7.21811e-05
99 *460:38 *625:139 7.0179e-06
100 *460:40 *625:132 2.44829e-05
101 *517:12 *1188:RESET_B 0
102 *517:12 *625:12 8.31184e-06
103 *568:12 *625:89 5.79358e-05
104 *589:10 *625:23 1.32043e-05
105 *589:10 *625:45 9.03858e-06
*RES
1 *1156:Q *625:12 28.7958 
2 *625:12 *1188:RESET_B 11.7303 
3 *625:12 *625:23 9.23876 
4 *625:23 *625:45 21.8926 
5 *625:45 *1189:RESET_B 4.5 
6 *625:45 *1191:RESET_B 13.4869 
7 *625:23 *1078:RESET_B 39.5546 
8 *1188:RESET_B *625:89 19.2048 
9 *625:89 *1082:RESET_B 9.18661 
10 *625:89 *1077:RESET_B 23.1033 
11 *1078:RESET_B *625:132 34.3105 
12 *625:132 *1079:RESET_B 4.5 
13 *625:132 *625:139 13.0438 
14 *625:139 *1080:RESET_B 4.5 
15 *625:139 *1190:RESET_B 35.7067 
16 *1082:RESET_B *1081:RESET_B 8.31905 
17 *1081:RESET_B *625:186 7.29424 
18 *625:186 *1083:RESET_B 11.2472 
19 *625:186 *1084:RESET_B 5.63043 
*END

*D_NET *672 0.00192049
*CONN
*I *954:A2 I *D sky130_fd_sc_hd__a21oi_1
*I *1152:Q O *D sky130_fd_sc_hd__dfrtp_1
*CAP
1 *954:A2 0.000414143
2 *1152:Q 0.000414143
3 *954:A2 *799:S 1.41976e-05
4 *954:A2 *690:12 5.92342e-05
5 *954:A2 *690:14 0.000312023
6 *789:A *954:A2 0.000100151
7 *927:A1 *954:A2 4.24629e-05
8 *950:A1 *954:A2 3.58044e-05
9 *950:A2 *954:A2 0
10 *968:A1 *954:A2 0.000165684
11 *459:57 *954:A2 8.89094e-05
12 *459:59 *954:A2 0.000273736
*RES
1 *1152:Q *954:A2 40.9927 
*END

*D_NET *673 0.00112357
*CONN
*I *948:A2 I *D sky130_fd_sc_hd__a21oi_1
*I *1153:Q O *D sky130_fd_sc_hd__dfrtp_1
*CAP
1 *948:A2 0.000279518
2 *1153:Q 0.000279518
3 *948:A2 *690:12 0.000176454
4 *948:A1 *948:A2 2.77625e-06
5 *948:B1 *948:A2 3.58044e-05
6 *949:B *948:A2 0.000107496
7 *968:A0 *948:A2 3.25235e-05
8 *1078:D *948:A2 6.05806e-05
9 *381:8 *948:A2 3.99086e-06
10 *459:55 *948:A2 0.00014491
*RES
1 *1153:Q *948:A2 36.1703 
*END

*D_NET *674 0.0043561
*CONN
*I *944:A3 I *D sky130_fd_sc_hd__a32oi_1
*I *1154:Q O *D sky130_fd_sc_hd__dfrtp_1
*CAP
1 *944:A3 0.00037896
2 *1154:Q 0.00072709
3 *674:20 0.00110605
4 *944:A3 *1079:CLK 2.41274e-06
5 *674:20 *1154:RESET_B 2.85274e-05
6 *674:20 *691:276 1.40761e-06
7 *674:20 *734:16 0.000117421
8 *758:A2 *674:20 6.50727e-05
9 *941:A *944:A3 1.80176e-05
10 *946:A2 *674:20 0.000161545
11 *1102:D *674:20 0
12 *1106:D *674:20 9.31362e-05
13 *1247:A *944:A3 7.01935e-06
14 *136:100 *674:20 0.00037011
15 *136:106 *674:20 0.000327093
16 *161:12 *674:20 0.000172059
17 *161:56 *674:20 4.3116e-06
18 *179:32 *674:20 4.58666e-05
19 *192:72 *944:A3 7.26748e-05
20 *192:81 *944:A3 6.06764e-05
21 *211:18 *944:A3 1.2936e-05
22 *386:36 *674:20 0.000120118
23 *387:36 *674:20 0.000340606
24 *460:38 *944:A3 0.000122992
*RES
1 *1154:Q *674:20 46.4208 
2 *674:20 *944:A3 25.102 
*END

*D_NET *675 0.000578153
*CONN
*I *938:A3 I *D sky130_fd_sc_hd__a31oi_1
*I *1155:Q O *D sky130_fd_sc_hd__dfrtp_1
*CAP
1 *938:A3 0.000179662
2 *1155:Q 0.000179662
3 *938:A3 *690:12 3.30805e-05
4 *936:B1 *938:A3 6.27718e-05
5 *459:47 *938:A3 0.000122978
*RES
1 *1155:Q *938:A3 31.5781 
*END

*D_NET *676 0.000508263
*CONN
*I *1149:D I *D sky130_fd_sc_hd__dfrtp_2
*I *1150:Q O *D sky130_fd_sc_hd__dfrtp_1
*CAP
1 *1149:D 7.35724e-05
2 *1150:Q 7.35724e-05
3 *1149:D *1149:CLK 8.8608e-05
4 *1150:RESET_B *1149:D 0.00027251
*RES
1 *1150:Q *1149:D 22.7663 
*END
