*SPEF "ieee 1481-1999"
*DESIGN "gpio"
*DATE "00:17:29 Wednesday September 16, 2026"
*VENDOR "The OpenROAD Project"
*PROGRAM "OpenROAD"
*VERSION "26Q3-1305-gf552262465"
*DESIGN_FLOW "NAME_SCOPE LOCAL" "PIN_CAP NONE"
*DIVIDER /
*DELIMITER :
*BUS_DELIMITER []
*T_UNIT 1 NS
*C_UNIT 1 PF
*R_UNIT 1 OHM
*L_UNIT 1 HENRY

*NAME_MAP
*1 _0000_
*2 _0001_
*3 _0002_
*4 _0003_
*5 _0004_
*6 _0005_
*7 _0006_
*8 _0007_
*9 _0008_
*10 _0009_
*11 _0010_
*12 _0011_
*13 _0012_
*14 _0013_
*15 _0014_
*16 _0015_
*17 _0016_
*18 _0017_
*19 _0018_
*20 _0019_
*21 _0020_
*22 _0021_
*23 _0022_
*24 _0023_
*25 _0024_
*26 _0025_
*27 _0026_
*28 _0027_
*29 _0028_
*30 _0029_
*31 _0030_
*32 _0031_
*33 _0032_
*34 _0033_
*35 _0034_
*36 _0035_
*37 _0036_
*38 _0037_
*39 _0038_
*40 _0039_
*41 _0040_
*42 _0041_
*43 _0042_
*44 _0043_
*45 _0044_
*46 _0045_
*47 _0046_
*48 _0047_
*49 _0048_
*50 _0049_
*51 _0050_
*52 _0051_
*53 _0052_
*54 _0053_
*55 _0054_
*56 _0055_
*57 _0056_
*58 _0057_
*59 _0058_
*60 _0059_
*61 _0060_
*62 _0061_
*63 _0062_
*64 _0063_
*65 _0064_
*66 _0065_
*67 _0066_
*68 _0067_
*69 _0068_
*70 _0069_
*71 _0070_
*72 _0071_
*73 _0072_
*74 _0073_
*75 _0074_
*76 _0075_
*77 _0076_
*78 _0077_
*79 _0078_
*80 _0079_
*81 _0080_
*82 _0081_
*83 _0082_
*84 _0083_
*85 _0084_
*86 _0085_
*87 _0086_
*88 _0087_
*89 _0088_
*90 _0089_
*91 _0090_
*92 _0091_
*93 _0092_
*94 _0093_
*95 _0094_
*96 _0095_
*97 _0096_
*98 _0097_
*99 _0098_
*100 _0099_
*101 _0100_
*102 _0101_
*103 _0102_
*104 _0103_
*105 _0104_
*106 _0105_
*107 _0106_
*108 _0107_
*109 _0108_
*110 _0109_
*111 _0110_
*112 _0111_
*113 _0112_
*114 _0113_
*115 _0114_
*116 _0115_
*117 _0116_
*118 _0117_
*119 _0118_
*120 _0119_
*121 _0120_
*122 _0121_
*123 _0122_
*124 _0123_
*125 _0124_
*126 _0125_
*127 _0126_
*128 _0127_
*129 _0128_
*130 _0129_
*131 _0130_
*132 _0131_
*133 _0132_
*134 _0133_
*135 _0134_
*136 _0135_
*137 _0136_
*138 _0137_
*139 _0138_
*140 _0139_
*141 _0140_
*142 _0141_
*143 _0142_
*144 _0143_
*145 _0144_
*146 _0145_
*147 _0146_
*148 _0147_
*149 _0148_
*150 _0149_
*151 _0150_
*152 _0151_
*153 _0152_
*154 _0153_
*155 _0154_
*156 _0155_
*157 _0156_
*158 _0157_
*159 _0158_
*160 _0159_
*161 _0160_
*162 _0161_
*163 _0162_
*164 _0163_
*165 _0164_
*166 _0165_
*167 _0166_
*168 _0167_
*169 _0168_
*170 _0169_
*171 _0170_
*172 _0171_
*173 _0172_
*174 _0173_
*175 _0174_
*176 _0175_
*177 _0176_
*178 _0177_
*179 _0178_
*180 _0179_
*181 _0180_
*182 _0181_
*183 _0182_
*184 _0183_
*185 _0184_
*186 _0185_
*187 _0186_
*188 _0187_
*189 _0188_
*190 _0189_
*191 _0190_
*192 _0191_
*193 _0192_
*194 _0193_
*195 _0194_
*196 _0195_
*197 _0196_
*198 _0197_
*199 _0198_
*200 _0199_
*201 _0200_
*202 _0201_
*203 _0202_
*204 _0203_
*205 _0204_
*207 _0206_
*208 _0207_
*209 _0208_
*210 _0209_
*211 _0210_
*212 _0211_
*213 _0212_
*214 _0213_
*215 _0214_
*216 _0215_
*217 _0216_
*218 _0217_
*219 _0218_
*220 _0219_
*221 _0220_
*222 _0221_
*223 _0222_
*224 _0223_
*225 _0224_
*226 _0225_
*227 _0226_
*228 _0227_
*229 _0228_
*230 _0229_
*231 _0230_
*232 _0231_
*233 _0232_
*234 _0233_
*235 _0234_
*236 _0235_
*237 _0236_
*238 _0237_
*239 _0238_
*240 _0239_
*241 _0240_
*242 _0241_
*243 _0242_
*244 _0243_
*245 _0244_
*246 _0245_
*247 _0246_
*248 _0247_
*249 _0248_
*250 _0249_
*251 _0250_
*252 _0251_
*253 _0252_
*254 _0253_
*255 _0254_
*256 _0255_
*257 _0256_
*258 _0257_
*259 _0258_
*260 _0259_
*261 _0260_
*262 _0261_
*263 _0262_
*264 _0263_
*265 _0264_
*266 _0265_
*267 _0266_
*268 _0267_
*269 _0268_
*270 _0269_
*271 _0270_
*272 _0271_
*273 _0272_
*274 _0273_
*275 _0274_
*276 _0275_
*277 _0276_
*278 _0277_
*279 _0278_
*280 _0279_
*281 _0280_
*282 _0281_
*283 _0282_
*284 _0283_
*285 _0284_
*286 _0285_
*287 _0286_
*288 _0287_
*289 _0288_
*290 _0289_
*291 _0290_
*292 _0291_
*293 _0292_
*294 _0293_
*295 _0294_
*296 _0295_
*297 _0296_
*298 _0297_
*299 _0298_
*300 _0299_
*301 _0300_
*302 _0301_
*303 _0302_
*304 _0303_
*305 _0304_
*306 _0305_
*307 _0306_
*308 _0307_
*309 _0308_
*310 _0309_
*311 _0310_
*312 _0311_
*313 _0312_
*314 _0313_
*315 _0314_
*316 _0315_
*317 _0316_
*318 _0317_
*319 _0318_
*320 _0319_
*321 _0320_
*322 _0321_
*323 _0322_
*324 _0323_
*325 _0324_
*326 _0325_
*327 _0326_
*328 _0327_
*329 _0328_
*330 _0329_
*331 _0330_
*332 _0331_
*333 _0332_
*334 _0333_
*335 _0334_
*336 _0335_
*337 _0336_
*338 _0337_
*339 _0338_
*340 _0339_
*341 _0340_
*342 _0341_
*343 _0342_
*344 _0343_
*345 _0344_
*346 _0345_
*347 _0346_
*348 _0347_
*349 _0348_
*350 _0349_
*351 _0350_
*352 _0351_
*353 _0352_
*354 _0353_
*355 _0354_
*356 _0355_
*357 _0356_
*358 _0357_
*359 _0358_
*360 _0359_
*361 _0360_
*363 _0362_
*364 _0363_
*365 _0364_
*366 _0365_
*367 _0366_
*368 _0367_
*369 _0368_
*370 _0369_
*371 _0370_
*372 _0371_
*373 _0372_
*374 _0373_
*375 _0374_
*376 _0375_
*377 _0376_
*378 _0377_
*379 _0378_
*380 _0379_
*381 _0380_
*382 _0381_
*383 _0382_
*384 _0383_
*385 _0384_
*386 _0385_
*387 _0386_
*388 _0387_
*389 _0388_
*390 _0389_
*391 _0390_
*392 _0391_
*393 _0392_
*394 _0393_
*395 _0394_
*396 _0395_
*397 _0396_
*398 _0397_
*399 _0398_
*400 _0399_
*401 _0400_
*402 _0401_
*403 _0402_
*404 _0403_
*405 _0404_
*408 _0407_
*409 _0408_
*410 _0409_
*411 _0410_
*412 _0411_
*413 _0412_
*414 _0413_
*415 _0414_
*416 _0415_
*417 _0416_
*418 _0417_
*419 _0418_
*420 _0419_
*421 _0420_
*422 _0421_
*423 _0422_
*424 _0423_
*425 _0424_
*426 _0425_
*427 _0426_
*428 _0427_
*429 _0428_
*430 _0429_
*431 _0430_
*432 _0431_
*433 _0432_
*434 _0433_
*435 _0434_
*436 _0435_
*437 _0436_
*438 _0437_
*439 _0438_
*440 _0439_
*441 _0440_
*442 _0441_
*443 _0442_
*444 _0443_
*445 _0444_
*446 _0445_
*447 _0446_
*448 _0447_
*449 _0448_
*450 _0449_
*451 _0450_
*452 _0451_
*453 _0452_
*454 _0453_
*455 _0454_
*456 _0455_
*457 _0456_
*458 _0457_
*459 _0458_
*460 _0459_
*461 _0460_
*462 _0461_
*463 _0462_
*464 _0463_
*465 _0464_
*466 _0465_
*467 _0466_
*468 _0467_
*469 _0468_
*470 _0469_
*471 _0470_
*472 _0471_
*473 _0472_
*474 _0473_
*478 _0477_
*479 _0478_
*480 _0479_
*481 _0480_
*482 _0481_
*483 _0482_
*484 _0483_
*485 _0484_
*486 _0485_
*487 _0486_
*488 _0487_
*489 _0488_
*490 _0489_
*491 _0490_
*492 _0491_
*493 _0492_
*494 _0493_
*495 _0494_
*496 _0495_
*497 _0496_
*498 _0497_
*499 _0498_
*500 _0499_
*501 _0500_
*502 _0501_
*503 _0502_
*504 _0503_
*505 _0504_
*508 _0507_
*509 _0508_
*510 _0509_
*511 _0510_
*512 _0511_
*513 _0512_
*514 _0513_
*517 _0516_
*519 _0518_
*521 _0520_
*523 _0522_
*524 _0523_
*525 _0524_
*526 _0525_
*527 _0526_
*528 _0527_
*529 _0528_
*530 _0529_
*531 _0530_
*532 _0531_
*533 _0532_
*534 _0533_
*535 _0534_
*536 _0535_
*537 _0536_
*538 _0537_
*539 _0538_
*540 _0539_
*541 _0540_
*542 _0541_
*543 _0542_
*544 _0543_
*545 _0544_
*546 _0545_
*547 _0546_
*548 _0547_
*549 _0548_
*550 _0549_
*551 _0550_
*552 _0551_
*553 _0552_
*554 _0553_
*555 _0554_
*556 _0555_
*557 _0556_
*558 _0557_
*559 _0558_
*560 _0559_
*561 _0560_
*562 _0561_
*563 _0562_
*564 _0563_
*565 _0564_
*566 _0565_
*567 _0566_
*568 _0567_
*569 _0568_
*570 _0569_
*571 _0570_
*572 _0571_
*573 _0572_
*574 _0573_
*575 _0574_
*576 _0575_
*577 _0576_
*578 _0577_
*581 _0580_
*583 _0582_
*584 _0583_
*585 _0584_
*586 _0585_
*587 _0586_
*588 _0587_
*589 _0588_
*590 _0589_
*591 _0590_
*592 _0591_
*593 _0592_
*594 _0593_
*595 _0594_
*596 _0595_
*597 _0596_
*598 _0597_
*599 _0598_
*600 _0599_
*601 _0600_
*602 _0601_
*603 _0602_
*823 axi_lite_i[0]
*822 axi_lite_i[10]
*821 axi_lite_i[11]
*820 axi_lite_i[12]
*818 axi_lite_i[13]
*609 axi_lite_i[14]
*808 axi_lite_i[15]
*817 axi_lite_i[16]
*816 axi_lite_i[17]
*815 axi_lite_i[18]
*814 axi_lite_i[19]
*813 axi_lite_i[1]
*812 axi_lite_i[20]
*811 axi_lite_i[21]
*810 axi_lite_i[22]
*809 axi_lite_i[23]
*807 axi_lite_i[24]
*797 axi_lite_i[25]
*806 axi_lite_i[26]
*805 axi_lite_i[27]
*804 axi_lite_i[28]
*803 axi_lite_i[29]
*626 axi_lite_i[2]
*802 axi_lite_i[30]
*801 axi_lite_i[31]
*800 axi_lite_i[32]
*799 axi_lite_i[33]
*798 axi_lite_i[34]
*632 axi_lite_i[35]
*633 axi_lite_i[36]
*634 axi_lite_i[37]
*635 axi_lite_i[38]
*636 axi_lite_i[39]
*637 axi_lite_i[3]
*638 axi_lite_i[40]
*639 axi_lite_i[41]
*640 axi_lite_i[42]
*641 axi_lite_i[43]
*642 axi_lite_i[44]
*643 axi_lite_i[45]
*644 axi_lite_i[46]
*796 axi_lite_i[47]
*646 axi_lite_i[48]
*647 axi_lite_i[49]
*648 axi_lite_i[4]
*649 axi_lite_i[50]
*786 axi_lite_i[51]
*795 axi_lite_i[52]
*794 axi_lite_i[53]
*793 axi_lite_i[54]
*792 axi_lite_i[5]
*791 axi_lite_i[6]
*790 axi_lite_i[7]
*789 axi_lite_i[8]
*788 axi_lite_i[9]
*781 axi_lite_o[0]
*780 axi_lite_o[10]
*779 axi_lite_o[11]
*778 axi_lite_o[12]
*777 axi_lite_o[13]
*776 axi_lite_o[14]
*774 axi_lite_o[15]
*773 axi_lite_o[16]
*772 axi_lite_o[17]
*771 axi_lite_o[18]
*770 axi_lite_o[19]
*670 axi_lite_o[1]
*769 axi_lite_o[20]
*768 axi_lite_o[21]
*767 axi_lite_o[22]
*766 axi_lite_o[23]
*935 axi_lite_o[24]
*763 axi_lite_o[25]
*762 axi_lite_o[26]
*761 axi_lite_o[27]
*760 axi_lite_o[28]
*759 axi_lite_o[29]
*758 axi_lite_o[2]
*757 axi_lite_o[30]
*756 axi_lite_o[31]
*755 axi_lite_o[32]
*754 axi_lite_o[33]
*752 axi_lite_o[34]
*751 axi_lite_o[35]
*750 axi_lite_o[36]
*689 axi_lite_o[37]
*749 axi_lite_o[38]
*748 axi_lite_o[39]
*747 axi_lite_o[3]
*746 axi_lite_o[40]
*745 axi_lite_o[4]
*744 axi_lite_o[5]
*743 axi_lite_o[6]
*741 axi_lite_o[7]
*740 axi_lite_o[8]
*739 axi_lite_o[9]
*738 cio_gpio_en_o[0]
*737 cio_gpio_en_o[1]
*736 cio_gpio_en_o[2]
*735 cio_gpio_en_o[3]
*787 cio_gpio_i[0]
*785 cio_gpio_i[1]
*784 cio_gpio_i[2]
*783 cio_gpio_i[3]
*734 cio_gpio_o[0]
*733 cio_gpio_o[1]
*732 cio_gpio_o[2]
*819 cio_gpio_o[3]
*712 clk_i
*1106 clknet_0_clk_i
*1100 clknet_2_0__leaf_clk_i
*507 clknet_2_1__leaf_clk_i
*1113 clknet_2_2__leaf_clk_i
*1148 clknet_2_3__leaf_clk_i
*1120 clknet_leaf_0_clk_i
*908 clknet_leaf_10_clk_i
*940 clknet_leaf_11_clk_i
*718 clknet_leaf_12_clk_i
*924 clknet_leaf_13_clk_i
*724 clknet_leaf_14_clk_i
*723 clknet_leaf_15_clk_i
*923 clknet_leaf_16_clk_i
*206 clknet_leaf_17_clk_i
*1139 clknet_leaf_18_clk_i
*1140 clknet_leaf_19_clk_i
*1117 clknet_leaf_1_clk_i
*1142 clknet_leaf_20_clk_i
*1145 clknet_leaf_21_clk_i
*1146 clknet_leaf_22_clk_i
*1144 clknet_leaf_23_clk_i
*1147 clknet_leaf_24_clk_i
*1143 clknet_leaf_25_clk_i
*1141 clknet_leaf_26_clk_i
*918 clknet_leaf_27_clk_i
*1116 clknet_leaf_2_clk_i
*1115 clknet_leaf_3_clk_i
*1119 clknet_leaf_4_clk_i
*1118 clknet_leaf_5_clk_i
*1114 clknet_leaf_6_clk_i
*477 clknet_leaf_7_clk_i
*714 clknet_leaf_8_clk_i
*909 clknet_leaf_9_clk_i
*713 core_rst_ni
*715 hw2reg_10_
*716 hw2reg_11_
*717 hw2reg_12_
*725 hw2reg_9_
*693 intr_gpio_o[0]
*765 intr_gpio_o[1]
*934 intr_gpio_o[2]
*730 intr_gpio_o[3]
*605 net100
*606 net101
*607 net102
*608 net103
*610 net104
*611 net105
*612 net106
*613 net107
*614 net108
*615 net109
*616 net110
*617 net111
*618 net112
*619 net113
*620 net114
*621 net115
*622 net116
*623 net117
*624 net118
*625 net119
*627 net120
*628 net121
*629 net122
*630 net123
*631 net124
*645 net125
*650 net126
*651 net127
*652 net128
*653 net129
*654 net130
*655 net131
*656 net132
*657 net133
*658 net134
*704 net135
*705 net136
*706 net137
*707 net138
*845 net139
*659 net140
*660 net141
*661 net142
*662 net143
*663 net144
*664 net145
*665 net146
*666 net147
*667 net148
*668 net149
*669 net150
*671 net151
*672 net152
*673 net153
*674 net154
*675 net155
*676 net156
*677 net157
*678 net158
*679 net159
*680 net160
*681 net161
*682 net162
*683 net163
*684 net164
*685 net165
*686 net166
*687 net167
*688 net168
*690 net169
*691 net170
*692 net171
*694 net172
*695 net173
*696 net174
*697 net175
*698 net176
*699 net177
*700 net178
*701 net179
*702 net180
*703 net181
*708 net182
*709 net183
*710 net184
*711 net185
*726 net186
*727 net187
*728 net188
*729 net189
*1122 net375
*1130 net376
*1124 net377
*1125 net378
*1123 net379
*1128 net380
*933 net381
*930 net382
*929 net383
*1132 net384
*1133 net385
*1131 net386
*1134 net387
*1127 net388
*1129 net389
*928 net390
*1136 net391
*922 net392
*921 net393
*917 net394
*916 net395
*1135 net396
*1137 net397
*932 net398
*931 net399
*1138 net400
*1126 net401
*1121 net402
*913 net403
*906 net404
*915 net405
*927 net406
*939 net407
*907 net408
*942 net409
*941 net410
*920 net411
*919 net412
*925 net413
*937 net414
*938 net415
*936 net416
*1095 net417
*722 net418
*903 net419
*719 net420
*905 net421
*720 net422
*911 net423
*926 net424
*910 net425
*914 net426
*912 net427
*476 net428
*362 net429
*1099 net430
*1098 net431
*1097 net432
*475 net433
*406 net434
*1103 net435
*1102 net436
*1104 net437
*1105 net438
*1101 net439
*1108 net440
*1110 net441
*1111 net442
*1109 net443
*1107 net444
*1112 net445
*902 net446
*901 net447
*580 net448
*579 net449
*900 net450
*582 net451
*721 net452
*516 net453
*520 net454
*518 net455
*515 net456
*522 net457
*407 net458
*506 net459
*1149 net460
*1150 net461
*1151 net462
*1152 net463
*1153 net464
*1154 net465
*1155 net466
*1156 net467
*1157 net468
*1158 net469
*1159 net470
*1160 net471
*1161 net472
*1162 net473
*1163 net474
*1164 net475
*1165 net476
*1166 net477
*1167 net478
*1168 net479
*1169 net480
*1170 net481
*1171 net482
*1172 net483
*1173 net484
*1174 net485
*1175 net486
*1176 net487
*1177 net488
*1178 net489
*1179 net490
*1180 net491
*1181 net492
*1182 net493
*1183 net494
*1184 net495
*1185 net496
*1186 net497
*1187 net498
*1188 net499
*1189 net500
*1190 net501
*1191 net502
*1192 net503
*1193 net504
*1194 net505
*1195 net506
*731 net95
*742 net96
*753 net97
*764 net98
*604 net99
*824 reg2hw_0_
*825 reg2hw_10_
*826 reg2hw_11_
*827 reg2hw_12_
*828 reg2hw_13_
*829 reg2hw_14_
*830 reg2hw_15_
*831 reg2hw_16_
*832 reg2hw_17_
*833 reg2hw_18_
*834 reg2hw_19_
*835 reg2hw_1_
*836 reg2hw_2_
*837 reg2hw_3_
*838 reg2hw_4_
*839 reg2hw_5_
*840 reg2hw_6_
*841 reg2hw_7_
*842 reg2hw_8_
*843 reg2hw_9_
*844 reg_rst_ni
*782 rst_ni
*846 u_core_reset_sync_intq
*847 u_gpio_core_data_in_q_0_
*848 u_gpio_core_data_in_q_1_
*849 u_gpio_core_data_in_q_2_
*850 u_gpio_core_data_in_q_3_
*851 u_gpio_core_filter_rst_ni
*852 u_gpio_core_gen_input_filter_0__u_filter_diff_ctr_d_0_
*853 u_gpio_core_gen_input_filter_0__u_filter_diff_ctr_d_1_
*854 u_gpio_core_gen_input_filter_0__u_filter_diff_ctr_d_2_
*855 u_gpio_core_gen_input_filter_0__u_filter_diff_ctr_d_3_
*856 u_gpio_core_gen_input_filter_0__u_filter_diff_ctr_q_0_
*857 u_gpio_core_gen_input_filter_0__u_filter_diff_ctr_q_1_
*858 u_gpio_core_gen_input_filter_0__u_filter_diff_ctr_q_2_
*859 u_gpio_core_gen_input_filter_0__u_filter_diff_ctr_q_3_
*860 u_gpio_core_gen_input_filter_0__u_filter_filter_q
*861 u_gpio_core_gen_input_filter_0__u_filter_filter_synced
*862 u_gpio_core_gen_input_filter_0__u_filter_gen_async_prim_flop_2sync_intq
*863 u_gpio_core_gen_input_filter_0__u_filter_stored_value_q
*864 u_gpio_core_gen_input_filter_1__u_filter_diff_ctr_d_0_
*865 u_gpio_core_gen_input_filter_1__u_filter_diff_ctr_d_1_
*866 u_gpio_core_gen_input_filter_1__u_filter_diff_ctr_d_2_
*867 u_gpio_core_gen_input_filter_1__u_filter_diff_ctr_d_3_
*868 u_gpio_core_gen_input_filter_1__u_filter_diff_ctr_q_0_
*869 u_gpio_core_gen_input_filter_1__u_filter_diff_ctr_q_1_
*870 u_gpio_core_gen_input_filter_1__u_filter_diff_ctr_q_2_
*871 u_gpio_core_gen_input_filter_1__u_filter_diff_ctr_q_3_
*872 u_gpio_core_gen_input_filter_1__u_filter_filter_q
*873 u_gpio_core_gen_input_filter_1__u_filter_filter_synced
*874 u_gpio_core_gen_input_filter_1__u_filter_gen_async_prim_flop_2sync_intq
*875 u_gpio_core_gen_input_filter_1__u_filter_stored_value_q
*876 u_gpio_core_gen_input_filter_2__u_filter_diff_ctr_d_0_
*877 u_gpio_core_gen_input_filter_2__u_filter_diff_ctr_d_1_
*878 u_gpio_core_gen_input_filter_2__u_filter_diff_ctr_d_2_
*879 u_gpio_core_gen_input_filter_2__u_filter_diff_ctr_d_3_
*880 u_gpio_core_gen_input_filter_2__u_filter_diff_ctr_q_0_
*881 u_gpio_core_gen_input_filter_2__u_filter_diff_ctr_q_1_
*882 u_gpio_core_gen_input_filter_2__u_filter_diff_ctr_q_2_
*883 u_gpio_core_gen_input_filter_2__u_filter_diff_ctr_q_3_
*884 u_gpio_core_gen_input_filter_2__u_filter_filter_q
*885 u_gpio_core_gen_input_filter_2__u_filter_filter_synced
*886 u_gpio_core_gen_input_filter_2__u_filter_gen_async_prim_flop_2sync_intq
*887 u_gpio_core_gen_input_filter_2__u_filter_stored_value_q
*888 u_gpio_core_gen_input_filter_3__u_filter_diff_ctr_d_0_
*889 u_gpio_core_gen_input_filter_3__u_filter_diff_ctr_d_1_
*890 u_gpio_core_gen_input_filter_3__u_filter_diff_ctr_d_2_
*891 u_gpio_core_gen_input_filter_3__u_filter_diff_ctr_d_3_
*892 u_gpio_core_gen_input_filter_3__u_filter_diff_ctr_q_0_
*893 u_gpio_core_gen_input_filter_3__u_filter_diff_ctr_q_1_
*894 u_gpio_core_gen_input_filter_3__u_filter_diff_ctr_q_2_
*895 u_gpio_core_gen_input_filter_3__u_filter_diff_ctr_q_3_
*896 u_gpio_core_gen_input_filter_3__u_filter_filter_q
*897 u_gpio_core_gen_input_filter_3__u_filter_filter_synced
*898 u_gpio_core_gen_input_filter_3__u_filter_gen_async_prim_flop_2sync_intq
*899 u_gpio_core_gen_input_filter_3__u_filter_stored_value_q
*904 u_gpio_core_state_rst_ni
*943 u_gpio_reg_u_flexsoc_axi_to_reg_i_fifo_read_mem_q_0_
*944 u_gpio_reg_u_flexsoc_axi_to_reg_i_fifo_read_mem_q_1_
*945 u_gpio_reg_u_flexsoc_axi_to_reg_i_fifo_read_mem_q_2_
*946 u_gpio_reg_u_flexsoc_axi_to_reg_i_fifo_read_mem_q_3_
*947 u_gpio_reg_u_flexsoc_axi_to_reg_i_fifo_read_mem_q_4_
*948 u_gpio_reg_u_flexsoc_axi_to_reg_i_fifo_read_mem_q_5_
*949 u_gpio_reg_u_flexsoc_axi_to_reg_i_fifo_read_mem_q_6_
*950 u_gpio_reg_u_flexsoc_axi_to_reg_i_fifo_read_mem_q_7_
*951 u_gpio_reg_u_flexsoc_axi_to_reg_i_fifo_read_read_pointer_q
*952 u_gpio_reg_u_flexsoc_axi_to_reg_i_fifo_read_resp_mem_q_0_
*953 u_gpio_reg_u_flexsoc_axi_to_reg_i_fifo_read_resp_mem_q_10_
*954 u_gpio_reg_u_flexsoc_axi_to_reg_i_fifo_read_resp_mem_q_11_
*955 u_gpio_reg_u_flexsoc_axi_to_reg_i_fifo_read_resp_mem_q_12_
*956 u_gpio_reg_u_flexsoc_axi_to_reg_i_fifo_read_resp_mem_q_13_
*957 u_gpio_reg_u_flexsoc_axi_to_reg_i_fifo_read_resp_mem_q_14_
*958 u_gpio_reg_u_flexsoc_axi_to_reg_i_fifo_read_resp_mem_q_15_
*959 u_gpio_reg_u_flexsoc_axi_to_reg_i_fifo_read_resp_mem_q_16_
*960 u_gpio_reg_u_flexsoc_axi_to_reg_i_fifo_read_resp_mem_q_17_
*961 u_gpio_reg_u_flexsoc_axi_to_reg_i_fifo_read_resp_mem_q_18_
*962 u_gpio_reg_u_flexsoc_axi_to_reg_i_fifo_read_resp_mem_q_19_
*963 u_gpio_reg_u_flexsoc_axi_to_reg_i_fifo_read_resp_mem_q_1_
*964 u_gpio_reg_u_flexsoc_axi_to_reg_i_fifo_read_resp_mem_q_20_
*965 u_gpio_reg_u_flexsoc_axi_to_reg_i_fifo_read_resp_mem_q_21_
*966 u_gpio_reg_u_flexsoc_axi_to_reg_i_fifo_read_resp_mem_q_22_
*967 u_gpio_reg_u_flexsoc_axi_to_reg_i_fifo_read_resp_mem_q_23_
*968 u_gpio_reg_u_flexsoc_axi_to_reg_i_fifo_read_resp_mem_q_24_
*969 u_gpio_reg_u_flexsoc_axi_to_reg_i_fifo_read_resp_mem_q_25_
*970 u_gpio_reg_u_flexsoc_axi_to_reg_i_fifo_read_resp_mem_q_26_
*971 u_gpio_reg_u_flexsoc_axi_to_reg_i_fifo_read_resp_mem_q_27_
*972 u_gpio_reg_u_flexsoc_axi_to_reg_i_fifo_read_resp_mem_q_28_
*973 u_gpio_reg_u_flexsoc_axi_to_reg_i_fifo_read_resp_mem_q_29_
*974 u_gpio_reg_u_flexsoc_axi_to_reg_i_fifo_read_resp_mem_q_2_
*975 u_gpio_reg_u_flexsoc_axi_to_reg_i_fifo_read_resp_mem_q_30_
*976 u_gpio_reg_u_flexsoc_axi_to_reg_i_fifo_read_resp_mem_q_31_
*977 u_gpio_reg_u_flexsoc_axi_to_reg_i_fifo_read_resp_mem_q_32_
*978 u_gpio_reg_u_flexsoc_axi_to_reg_i_fifo_read_resp_mem_q_33_
*979 u_gpio_reg_u_flexsoc_axi_to_reg_i_fifo_read_resp_mem_q_34_
*980 u_gpio_reg_u_flexsoc_axi_to_reg_i_fifo_read_resp_mem_q_35_
*981 u_gpio_reg_u_flexsoc_axi_to_reg_i_fifo_read_resp_mem_q_36_
*982 u_gpio_reg_u_flexsoc_axi_to_reg_i_fifo_read_resp_mem_q_37_
*983 u_gpio_reg_u_flexsoc_axi_to_reg_i_fifo_read_resp_mem_q_38_
*984 u_gpio_reg_u_flexsoc_axi_to_reg_i_fifo_read_resp_mem_q_39_
*985 u_gpio_reg_u_flexsoc_axi_to_reg_i_fifo_read_resp_mem_q_3_
*986 u_gpio_reg_u_flexsoc_axi_to_reg_i_fifo_read_resp_mem_q_40_
*987 u_gpio_reg_u_flexsoc_axi_to_reg_i_fifo_read_resp_mem_q_41_
*988 u_gpio_reg_u_flexsoc_axi_to_reg_i_fifo_read_resp_mem_q_42_
*989 u_gpio_reg_u_flexsoc_axi_to_reg_i_fifo_read_resp_mem_q_43_
*990 u_gpio_reg_u_flexsoc_axi_to_reg_i_fifo_read_resp_mem_q_44_
*991 u_gpio_reg_u_flexsoc_axi_to_reg_i_fifo_read_resp_mem_q_45_
*992 u_gpio_reg_u_flexsoc_axi_to_reg_i_fifo_read_resp_mem_q_46_
*993 u_gpio_reg_u_flexsoc_axi_to_reg_i_fifo_read_resp_mem_q_47_
*994 u_gpio_reg_u_flexsoc_axi_to_reg_i_fifo_read_resp_mem_q_48_
*995 u_gpio_reg_u_flexsoc_axi_to_reg_i_fifo_read_resp_mem_q_49_
*996 u_gpio_reg_u_flexsoc_axi_to_reg_i_fifo_read_resp_mem_q_4_
*997 u_gpio_reg_u_flexsoc_axi_to_reg_i_fifo_read_resp_mem_q_50_
*998 u_gpio_reg_u_flexsoc_axi_to_reg_i_fifo_read_resp_mem_q_51_
*999 u_gpio_reg_u_flexsoc_axi_to_reg_i_fifo_read_resp_mem_q_52_
*1000 u_gpio_reg_u_flexsoc_axi_to_reg_i_fifo_read_resp_mem_q_53_
*1001 u_gpio_reg_u_flexsoc_axi_to_reg_i_fifo_read_resp_mem_q_54_
*1002 u_gpio_reg_u_flexsoc_axi_to_reg_i_fifo_read_resp_mem_q_55_
*1003 u_gpio_reg_u_flexsoc_axi_to_reg_i_fifo_read_resp_mem_q_56_
*1004 u_gpio_reg_u_flexsoc_axi_to_reg_i_fifo_read_resp_mem_q_57_
*1005 u_gpio_reg_u_flexsoc_axi_to_reg_i_fifo_read_resp_mem_q_58_
*1006 u_gpio_reg_u_flexsoc_axi_to_reg_i_fifo_read_resp_mem_q_59_
*1007 u_gpio_reg_u_flexsoc_axi_to_reg_i_fifo_read_resp_mem_q_5_
*1008 u_gpio_reg_u_flexsoc_axi_to_reg_i_fifo_read_resp_mem_q_60_
*1009 u_gpio_reg_u_flexsoc_axi_to_reg_i_fifo_read_resp_mem_q_61_
*1010 u_gpio_reg_u_flexsoc_axi_to_reg_i_fifo_read_resp_mem_q_62_
*1011 u_gpio_reg_u_flexsoc_axi_to_reg_i_fifo_read_resp_mem_q_63_
*1012 u_gpio_reg_u_flexsoc_axi_to_reg_i_fifo_read_resp_mem_q_64_
*1013 u_gpio_reg_u_flexsoc_axi_to_reg_i_fifo_read_resp_mem_q_65_
*1014 u_gpio_reg_u_flexsoc_axi_to_reg_i_fifo_read_resp_mem_q_6_
*1015 u_gpio_reg_u_flexsoc_axi_to_reg_i_fifo_read_resp_mem_q_7_
*1016 u_gpio_reg_u_flexsoc_axi_to_reg_i_fifo_read_resp_mem_q_8_
*1017 u_gpio_reg_u_flexsoc_axi_to_reg_i_fifo_read_resp_mem_q_9_
*1018 u_gpio_reg_u_flexsoc_axi_to_reg_i_fifo_read_resp_read_pointer_q
*1019 u_gpio_reg_u_flexsoc_axi_to_reg_i_fifo_read_resp_status_cnt_q_0_
*1020 u_gpio_reg_u_flexsoc_axi_to_reg_i_fifo_read_resp_status_cnt_q_1_
*1021 u_gpio_reg_u_flexsoc_axi_to_reg_i_fifo_read_resp_write_pointer_q
*1022 u_gpio_reg_u_flexsoc_axi_to_reg_i_fifo_read_status_cnt_q_0_
*1023 u_gpio_reg_u_flexsoc_axi_to_reg_i_fifo_read_status_cnt_q_1_
*1024 u_gpio_reg_u_flexsoc_axi_to_reg_i_fifo_read_write_pointer_q
*1025 u_gpio_reg_u_flexsoc_axi_to_reg_i_fifo_write_req_mem_q_0_
*1026 u_gpio_reg_u_flexsoc_axi_to_reg_i_fifo_write_req_mem_q_10_
*1027 u_gpio_reg_u_flexsoc_axi_to_reg_i_fifo_write_req_mem_q_11_
*1028 u_gpio_reg_u_flexsoc_axi_to_reg_i_fifo_write_req_mem_q_12_
*1029 u_gpio_reg_u_flexsoc_axi_to_reg_i_fifo_write_req_mem_q_13_
*1030 u_gpio_reg_u_flexsoc_axi_to_reg_i_fifo_write_req_mem_q_14_
*1031 u_gpio_reg_u_flexsoc_axi_to_reg_i_fifo_write_req_mem_q_15_
*1032 u_gpio_reg_u_flexsoc_axi_to_reg_i_fifo_write_req_mem_q_16_
*1033 u_gpio_reg_u_flexsoc_axi_to_reg_i_fifo_write_req_mem_q_17_
*1034 u_gpio_reg_u_flexsoc_axi_to_reg_i_fifo_write_req_mem_q_18_
*1035 u_gpio_reg_u_flexsoc_axi_to_reg_i_fifo_write_req_mem_q_19_
*1036 u_gpio_reg_u_flexsoc_axi_to_reg_i_fifo_write_req_mem_q_1_
*1037 u_gpio_reg_u_flexsoc_axi_to_reg_i_fifo_write_req_mem_q_20_
*1038 u_gpio_reg_u_flexsoc_axi_to_reg_i_fifo_write_req_mem_q_21_
*1039 u_gpio_reg_u_flexsoc_axi_to_reg_i_fifo_write_req_mem_q_22_
*1040 u_gpio_reg_u_flexsoc_axi_to_reg_i_fifo_write_req_mem_q_23_
*1041 u_gpio_reg_u_flexsoc_axi_to_reg_i_fifo_write_req_mem_q_2_
*1042 u_gpio_reg_u_flexsoc_axi_to_reg_i_fifo_write_req_mem_q_36_
*1043 u_gpio_reg_u_flexsoc_axi_to_reg_i_fifo_write_req_mem_q_37_
*1044 u_gpio_reg_u_flexsoc_axi_to_reg_i_fifo_write_req_mem_q_38_
*1045 u_gpio_reg_u_flexsoc_axi_to_reg_i_fifo_write_req_mem_q_39_
*1046 u_gpio_reg_u_flexsoc_axi_to_reg_i_fifo_write_req_mem_q_40_
*1047 u_gpio_reg_u_flexsoc_axi_to_reg_i_fifo_write_req_mem_q_41_
*1048 u_gpio_reg_u_flexsoc_axi_to_reg_i_fifo_write_req_mem_q_42_
*1049 u_gpio_reg_u_flexsoc_axi_to_reg_i_fifo_write_req_mem_q_44_
*1050 u_gpio_reg_u_flexsoc_axi_to_reg_i_fifo_write_req_mem_q_45_
*1051 u_gpio_reg_u_flexsoc_axi_to_reg_i_fifo_write_req_mem_q_46_
*1052 u_gpio_reg_u_flexsoc_axi_to_reg_i_fifo_write_req_mem_q_47_
*1053 u_gpio_reg_u_flexsoc_axi_to_reg_i_fifo_write_req_mem_q_48_
*1054 u_gpio_reg_u_flexsoc_axi_to_reg_i_fifo_write_req_mem_q_49_
*1055 u_gpio_reg_u_flexsoc_axi_to_reg_i_fifo_write_req_mem_q_4_
*1056 u_gpio_reg_u_flexsoc_axi_to_reg_i_fifo_write_req_mem_q_50_
*1057 u_gpio_reg_u_flexsoc_axi_to_reg_i_fifo_write_req_mem_q_51_
*1058 u_gpio_reg_u_flexsoc_axi_to_reg_i_fifo_write_req_mem_q_52_
*1059 u_gpio_reg_u_flexsoc_axi_to_reg_i_fifo_write_req_mem_q_53_
*1060 u_gpio_reg_u_flexsoc_axi_to_reg_i_fifo_write_req_mem_q_54_
*1061 u_gpio_reg_u_flexsoc_axi_to_reg_i_fifo_write_req_mem_q_55_
*1062 u_gpio_reg_u_flexsoc_axi_to_reg_i_fifo_write_req_mem_q_56_
*1063 u_gpio_reg_u_flexsoc_axi_to_reg_i_fifo_write_req_mem_q_57_
*1064 u_gpio_reg_u_flexsoc_axi_to_reg_i_fifo_write_req_mem_q_58_
*1065 u_gpio_reg_u_flexsoc_axi_to_reg_i_fifo_write_req_mem_q_59_
*1066 u_gpio_reg_u_flexsoc_axi_to_reg_i_fifo_write_req_mem_q_5_
*1067 u_gpio_reg_u_flexsoc_axi_to_reg_i_fifo_write_req_mem_q_60_
*1068 u_gpio_reg_u_flexsoc_axi_to_reg_i_fifo_write_req_mem_q_61_
*1069 u_gpio_reg_u_flexsoc_axi_to_reg_i_fifo_write_req_mem_q_62_
*1070 u_gpio_reg_u_flexsoc_axi_to_reg_i_fifo_write_req_mem_q_63_
*1071 u_gpio_reg_u_flexsoc_axi_to_reg_i_fifo_write_req_mem_q_6_
*1072 u_gpio_reg_u_flexsoc_axi_to_reg_i_fifo_write_req_mem_q_76_
*1073 u_gpio_reg_u_flexsoc_axi_to_reg_i_fifo_write_req_mem_q_77_
*1074 u_gpio_reg_u_flexsoc_axi_to_reg_i_fifo_write_req_mem_q_78_
*1075 u_gpio_reg_u_flexsoc_axi_to_reg_i_fifo_write_req_mem_q_79_
*1076 u_gpio_reg_u_flexsoc_axi_to_reg_i_fifo_write_req_mem_q_7_
*1077 u_gpio_reg_u_flexsoc_axi_to_reg_i_fifo_write_req_mem_q_8_
*1078 u_gpio_reg_u_flexsoc_axi_to_reg_i_fifo_write_req_mem_q_9_
*1079 u_gpio_reg_u_flexsoc_axi_to_reg_i_fifo_write_req_read_pointer_q
*1080 u_gpio_reg_u_flexsoc_axi_to_reg_i_fifo_write_req_status_cnt_q_0_
*1081 u_gpio_reg_u_flexsoc_axi_to_reg_i_fifo_write_req_status_cnt_q_1_
*1082 u_gpio_reg_u_flexsoc_axi_to_reg_i_fifo_write_req_write_pointer_q
*1083 u_gpio_reg_u_flexsoc_axi_to_reg_i_fifo_write_resp_mem_q_0_
*1084 u_gpio_reg_u_flexsoc_axi_to_reg_i_fifo_write_resp_mem_q_1_
*1085 u_gpio_reg_u_flexsoc_axi_to_reg_i_fifo_write_resp_read_pointer_q
*1086 u_gpio_reg_u_flexsoc_axi_to_reg_i_fifo_write_resp_status_cnt_q_0_
*1087 u_gpio_reg_u_flexsoc_axi_to_reg_i_fifo_write_resp_status_cnt_q_1_
*1088 u_gpio_reg_u_flexsoc_axi_to_reg_i_fifo_write_resp_write_pointer_q
*1089 u_gpio_reg_u_flexsoc_axi_to_reg_i_stream_arbiter_i_arb_gen_rr_arb_i_arbiter_gen_arbiter_rr_q
*1090 u_gpio_reg_u_reg_core_data_in_qs_0_
*1091 u_gpio_reg_u_reg_core_data_in_qs_1_
*1092 u_gpio_reg_u_reg_core_data_in_qs_2_
*1093 u_gpio_reg_u_reg_core_data_in_qs_3_
*1094 u_reg_reset_sync_intq
*2329 FILLER_0_0
*2344 FILLER_0_100
*2345 FILLER_0_111
*2346 FILLER_0_118
*2347 FILLER_0_122
*2331 FILLER_0_14
*2348 FILLER_0_150
*2349 FILLER_0_180
*2350 FILLER_0_195
*2351 FILLER_0_202
*2352 FILLER_0_204
*2332 FILLER_0_21
*2353 FILLER_0_232
*2354 FILLER_0_239
*2355 FILLER_0_243
*2356 FILLER_0_254
*2357 FILLER_0_267
*2358 FILLER_0_277
*2333 FILLER_0_28
*2359 FILLER_0_284
*2360 FILLER_0_291
*2361 FILLER_0_298
*2362 FILLER_0_305
*2363 FILLER_0_312
*2364 FILLER_0_319
*2365 FILLER_0_326
*2366 FILLER_0_333
*2367 FILLER_0_340
*2368 FILLER_0_347
*2334 FILLER_0_35
*2369 FILLER_0_354
*2370 FILLER_0_361
*2371 FILLER_0_368
*2372 FILLER_0_375
*2373 FILLER_0_382
*2374 FILLER_0_389
*2375 FILLER_0_396
*2376 FILLER_0_403
*2335 FILLER_0_42
*2336 FILLER_0_49
*2337 FILLER_0_56
*2338 FILLER_0_63
*2330 FILLER_0_7
*2339 FILLER_0_70
*2340 FILLER_0_77
*2341 FILLER_0_84
*2342 FILLER_0_91
*2343 FILLER_0_95
*2791 FILLER_10_0
*2802 FILLER_10_126
*2793 FILLER_10_14
*2803 FILLER_10_155
*2804 FILLER_10_162
*2805 FILLER_10_169
*2806 FILLER_10_176
*2807 FILLER_10_180
*2808 FILLER_10_184
*2809 FILLER_10_191
*2810 FILLER_10_198
*2811 FILLER_10_205
*2794 FILLER_10_21
*2812 FILLER_10_212
*2813 FILLER_10_219
*2814 FILLER_10_226
*2815 FILLER_10_233
*2816 FILLER_10_243
*2817 FILLER_10_248
*2818 FILLER_10_250
*2795 FILLER_10_28
*2819 FILLER_10_281
*2820 FILLER_10_288
*2821 FILLER_10_295
*2822 FILLER_10_302
*2823 FILLER_10_344
*2824 FILLER_10_348
*2796 FILLER_10_35
*2825 FILLER_10_354
*2826 FILLER_10_360
*2827 FILLER_10_364
*2828 FILLER_10_370
*2829 FILLER_10_377
*2830 FILLER_10_384
*2831 FILLER_10_391
*2832 FILLER_10_398
*2792 FILLER_10_4
*2797 FILLER_10_42
*2798 FILLER_10_77
*2799 FILLER_10_84
*2800 FILLER_10_91
*2801 FILLER_10_98
*2845 FILLER_11_104
*2846 FILLER_11_111
*2847 FILLER_11_118
*2848 FILLER_11_135
*2849 FILLER_11_142
*2850 FILLER_11_150
*2851 FILLER_11_157
*2852 FILLER_11_164
*2853 FILLER_11_171
*2833 FILLER_11_18
*2854 FILLER_11_184
*2855 FILLER_11_188
*2856 FILLER_11_195
*2857 FILLER_11_236
*2858 FILLER_11_240
*2834 FILLER_11_25
*2859 FILLER_11_268
*2860 FILLER_11_304
*2835 FILLER_11_32
*2861 FILLER_11_338
*2862 FILLER_11_342
*2863 FILLER_11_352
*2864 FILLER_11_361
*2865 FILLER_11_372
*2866 FILLER_11_374
*2867 FILLER_11_383
*2836 FILLER_11_39
*2868 FILLER_11_390
*2869 FILLER_11_401
*2837 FILLER_11_46
*2838 FILLER_11_50
*2839 FILLER_11_55
*2840 FILLER_11_62
*2841 FILLER_11_77
*2842 FILLER_11_84
*2843 FILLER_11_91
*2844 FILLER_11_98
*2870 FILLER_12_0
*2873 FILLER_12_111
*2874 FILLER_12_118
*2875 FILLER_12_130
*2876 FILLER_12_137
*2877 FILLER_12_139
*2878 FILLER_12_147
*2879 FILLER_12_149
*2880 FILLER_12_160
*2881 FILLER_12_167
*2882 FILLER_12_174
*2883 FILLER_12_185
*2884 FILLER_12_189
*2885 FILLER_12_199
*2886 FILLER_12_232
*2887 FILLER_12_239
*2888 FILLER_12_251
*2889 FILLER_12_258
*2890 FILLER_12_260
*2891 FILLER_12_275
*2892 FILLER_12_282
*2893 FILLER_12_289
*2894 FILLER_12_296
*2895 FILLER_12_303
*2896 FILLER_12_310
*2897 FILLER_12_317
*2898 FILLER_12_324
*2899 FILLER_12_331
*2900 FILLER_12_335
*2901 FILLER_12_363
*2902 FILLER_12_370
*2903 FILLER_12_372
*2904 FILLER_12_378
*2905 FILLER_12_386
*2906 FILLER_12_393
*2907 FILLER_12_400
*2908 FILLER_12_404
*2871 FILLER_12_75
*2872 FILLER_12_82
*2909 FILLER_13_0
*2922 FILLER_13_103
*2923 FILLER_13_110
*2924 FILLER_13_117
*2925 FILLER_13_121
*2926 FILLER_13_150
*2927 FILLER_13_157
*2912 FILLER_13_16
*2928 FILLER_13_193
*2929 FILLER_13_200
*2930 FILLER_13_207
*2931 FILLER_13_214
*2932 FILLER_13_221
*2933 FILLER_13_228
*2913 FILLER_13_23
*2934 FILLER_13_272
*2914 FILLER_13_30
*2935 FILLER_13_301
*2936 FILLER_13_308
*2937 FILLER_13_315
*2915 FILLER_13_37
*2938 FILLER_13_387
*2939 FILLER_13_395
*2910 FILLER_13_4
*2940 FILLER_13_402
*2941 FILLER_13_404
*2916 FILLER_13_44
*2917 FILLER_13_51
*2918 FILLER_13_58
*2919 FILLER_13_62
*2920 FILLER_13_89
*2911 FILLER_13_9
*2921 FILLER_13_96
*2942 FILLER_14_0
*2949 FILLER_14_125
*2950 FILLER_14_129
*2944 FILLER_14_14
*2951 FILLER_14_144
*2952 FILLER_14_187
*2953 FILLER_14_203
*2954 FILLER_14_207
*2945 FILLER_14_21
*2955 FILLER_14_215
*2956 FILLER_14_230
*2957 FILLER_14_234
*2958 FILLER_14_252
*2946 FILLER_14_28
*2959 FILLER_14_282
*2960 FILLER_14_289
*2961 FILLER_14_296
*2962 FILLER_14_300
*2963 FILLER_14_307
*2964 FILLER_14_314
*2965 FILLER_14_320
*2966 FILLER_14_327
*2967 FILLER_14_337
*2968 FILLER_14_344
*2947 FILLER_14_35
*2969 FILLER_14_356
*2970 FILLER_14_368
*2971 FILLER_14_372
*2972 FILLER_14_378
*2973 FILLER_14_385
*2974 FILLER_14_392
*2975 FILLER_14_401
*2948 FILLER_14_69
*2943 FILLER_14_7
*2976 FILLER_15_0
*2982 FILLER_15_104
*2983 FILLER_15_109
*2984 FILLER_15_116
*2985 FILLER_15_123
*2986 FILLER_15_130
*2978 FILLER_15_14
*2987 FILLER_15_142
*2988 FILLER_15_149
*2989 FILLER_15_151
*2990 FILLER_15_189
*2991 FILLER_15_196
*2992 FILLER_15_204
*2993 FILLER_15_206
*2979 FILLER_15_21
*2994 FILLER_15_211
*2995 FILLER_15_220
*2996 FILLER_15_227
*2997 FILLER_15_234
*2998 FILLER_15_241
*2999 FILLER_15_250
*3000 FILLER_15_257
*2980 FILLER_15_28
*3001 FILLER_15_294
*3002 FILLER_15_301
*3003 FILLER_15_308
*3004 FILLER_15_312
*3005 FILLER_15_345
*3006 FILLER_15_347
*3007 FILLER_15_402
*3008 FILLER_15_404
*2977 FILLER_15_7
*2981 FILLER_15_76
*3009 FILLER_16_0
*3019 FILLER_16_118
*3011 FILLER_16_14
*3020 FILLER_16_153
*3012 FILLER_16_18
*3021 FILLER_16_192
*3022 FILLER_16_230
*3023 FILLER_16_237
*3013 FILLER_16_24
*3024 FILLER_16_266
*3025 FILLER_16_272
*3026 FILLER_16_281
*3027 FILLER_16_283
*3028 FILLER_16_287
*3029 FILLER_16_294
*3030 FILLER_16_301
*3031 FILLER_16_308
*3014 FILLER_16_31
*3032 FILLER_16_315
*3033 FILLER_16_350
*3034 FILLER_16_354
*3035 FILLER_16_364
*3036 FILLER_16_371
*3037 FILLER_16_373
*3015 FILLER_16_38
*3038 FILLER_16_401
*3016 FILLER_16_50
*3017 FILLER_16_57
*3018 FILLER_16_61
*3010 FILLER_16_7
*3039 FILLER_17_0
*3049 FILLER_17_136
*3041 FILLER_17_14
*3050 FILLER_17_143
*3051 FILLER_17_150
*3052 FILLER_17_179
*3053 FILLER_17_186
*3054 FILLER_17_205
*3042 FILLER_17_21
*3055 FILLER_17_212
*3056 FILLER_17_225
*3057 FILLER_17_232
*3058 FILLER_17_243
*3059 FILLER_17_245
*3060 FILLER_17_273
*3043 FILLER_17_28
*3061 FILLER_17_280
*3062 FILLER_17_284
*3063 FILLER_17_296
*3064 FILLER_17_303
*3065 FILLER_17_307
*3066 FILLER_17_314
*3067 FILLER_17_318
*3068 FILLER_17_332
*3069 FILLER_17_337
*3070 FILLER_17_344
*3071 FILLER_17_353
*3072 FILLER_17_360
*3073 FILLER_17_364
*3074 FILLER_17_378
*3075 FILLER_17_392
*3076 FILLER_17_399
*3044 FILLER_17_61
*3045 FILLER_17_68
*3040 FILLER_17_7
*3046 FILLER_17_75
*3047 FILLER_17_82
*3048 FILLER_17_89
*3077 FILLER_18_0
*3084 FILLER_18_105
*3085 FILLER_18_110
*3086 FILLER_18_138
*3079 FILLER_18_14
*3087 FILLER_18_172
*3088 FILLER_18_200
*3089 FILLER_18_207
*3090 FILLER_18_214
*3091 FILLER_18_221
*3092 FILLER_18_256
*3093 FILLER_18_263
*3094 FILLER_18_270
*3095 FILLER_18_272
*3096 FILLER_18_331
*3097 FILLER_18_335
*3098 FILLER_18_340
*3099 FILLER_18_347
*3100 FILLER_18_358
*3101 FILLER_18_362
*3102 FILLER_18_368
*3080 FILLER_18_58
*3081 FILLER_18_60
*3082 FILLER_18_66
*3078 FILLER_18_7
*3083 FILLER_18_72
*3103 FILLER_19_0
*3114 FILLER_19_114
*3115 FILLER_19_121
*3105 FILLER_19_14
*3116 FILLER_19_176
*3117 FILLER_19_183
*3118 FILLER_19_190
*3106 FILLER_19_21
*3119 FILLER_19_227
*3120 FILLER_19_258
*3121 FILLER_19_265
*3122 FILLER_19_272
*3123 FILLER_19_289
*3124 FILLER_19_301
*3125 FILLER_19_308
*3126 FILLER_19_314
*3127 FILLER_19_321
*3128 FILLER_19_325
*3107 FILLER_19_35
*3129 FILLER_19_357
*3130 FILLER_19_364
*3131 FILLER_19_396
*3132 FILLER_19_403
*3108 FILLER_19_42
*3109 FILLER_19_49
*3110 FILLER_19_56
*3111 FILLER_19_66
*3104 FILLER_19_7
*3112 FILLER_19_73
*3113 FILLER_19_77
*2377 FILLER_1_0
*2392 FILLER_1_100
*2393 FILLER_1_108
*2394 FILLER_1_112
*2395 FILLER_1_126
*2396 FILLER_1_130
*2397 FILLER_1_136
*2379 FILLER_1_14
*2398 FILLER_1_175
*2399 FILLER_1_177
*2400 FILLER_1_182
*2401 FILLER_1_191
*2402 FILLER_1_199
*2403 FILLER_1_206
*2380 FILLER_1_21
*2404 FILLER_1_217
*2405 FILLER_1_228
*2406 FILLER_1_235
*2407 FILLER_1_242
*2408 FILLER_1_248
*2409 FILLER_1_255
*2410 FILLER_1_262
*2411 FILLER_1_269
*2412 FILLER_1_276
*2381 FILLER_1_28
*2413 FILLER_1_283
*2414 FILLER_1_290
*2415 FILLER_1_297
*2416 FILLER_1_304
*2417 FILLER_1_311
*2418 FILLER_1_318
*2419 FILLER_1_325
*2420 FILLER_1_332
*2421 FILLER_1_339
*2422 FILLER_1_346
*2382 FILLER_1_35
*2423 FILLER_1_353
*2424 FILLER_1_360
*2425 FILLER_1_367
*2426 FILLER_1_374
*2427 FILLER_1_381
*2428 FILLER_1_388
*2429 FILLER_1_395
*2430 FILLER_1_402
*2431 FILLER_1_404
*2383 FILLER_1_42
*2384 FILLER_1_49
*2385 FILLER_1_56
*2386 FILLER_1_63
*2378 FILLER_1_7
*2387 FILLER_1_70
*2388 FILLER_1_77
*2389 FILLER_1_84
*2390 FILLER_1_91
*2391 FILLER_1_95
*3133 FILLER_20_0
*3144 FILLER_20_101
*3135 FILLER_20_12
*3145 FILLER_20_129
*3146 FILLER_20_156
*3136 FILLER_20_16
*3147 FILLER_20_163
*3148 FILLER_20_170
*3149 FILLER_20_172
*3150 FILLER_20_204
*3151 FILLER_20_211
*3152 FILLER_20_218
*3137 FILLER_20_22
*3153 FILLER_20_230
*3154 FILLER_20_246
*3155 FILLER_20_253
*3156 FILLER_20_260
*3157 FILLER_20_264
*3138 FILLER_20_29
*3158 FILLER_20_290
*3159 FILLER_20_301
*3160 FILLER_20_308
*3161 FILLER_20_315
*3162 FILLER_20_322
*3163 FILLER_20_324
*3139 FILLER_20_33
*3164 FILLER_20_333
*3165 FILLER_20_340
*3166 FILLER_20_347
*3167 FILLER_20_352
*3168 FILLER_20_359
*3169 FILLER_20_371
*3170 FILLER_20_373
*3171 FILLER_20_384
*3172 FILLER_20_391
*3173 FILLER_20_399
*3174 FILLER_20_403
*3134 FILLER_20_5
*3140 FILLER_20_62
*3141 FILLER_20_69
*3142 FILLER_20_76
*3143 FILLER_20_92
*3183 FILLER_21_104
*3184 FILLER_21_111
*3185 FILLER_21_118
*3186 FILLER_21_125
*3187 FILLER_21_132
*3188 FILLER_21_139
*3189 FILLER_21_146
*3190 FILLER_21_148
*3176 FILLER_21_16
*3191 FILLER_21_191
*3192 FILLER_21_195
*3193 FILLER_21_205
*3194 FILLER_21_215
*3195 FILLER_21_222
*3196 FILLER_21_229
*3177 FILLER_21_23
*3197 FILLER_21_236
*3198 FILLER_21_240
*3199 FILLER_21_245
*3200 FILLER_21_279
*3201 FILLER_21_286
*3202 FILLER_21_293
*3203 FILLER_21_295
*3204 FILLER_21_300
*3205 FILLER_21_307
*3206 FILLER_21_311
*3207 FILLER_21_340
*3208 FILLER_21_347
*3178 FILLER_21_35
*3179 FILLER_21_42
*3180 FILLER_21_49
*3181 FILLER_21_56
*3182 FILLER_21_84
*3175 FILLER_21_9
*3213 FILLER_22_103
*3214 FILLER_22_110
*3215 FILLER_22_117
*3216 FILLER_22_153
*3217 FILLER_22_158
*3210 FILLER_22_16
*3218 FILLER_22_165
*3219 FILLER_22_169
*3220 FILLER_22_197
*3221 FILLER_22_204
*3222 FILLER_22_211
*3223 FILLER_22_218
*3211 FILLER_22_23
*3224 FILLER_22_247
*3212 FILLER_22_25
*3225 FILLER_22_281
*3226 FILLER_22_288
*3227 FILLER_22_319
*3228 FILLER_22_326
*3229 FILLER_22_368
*3230 FILLER_22_370
*3231 FILLER_22_384
*3232 FILLER_22_388
*3233 FILLER_22_394
*3234 FILLER_22_401
*3209 FILLER_22_9
*3247 FILLER_23_126
*3248 FILLER_23_133
*3249 FILLER_23_140
*3236 FILLER_23_16
*3250 FILLER_23_167
*3251 FILLER_23_198
*3237 FILLER_23_23
*3252 FILLER_23_230
*3253 FILLER_23_237
*3254 FILLER_23_244
*3255 FILLER_23_248
*3256 FILLER_23_259
*3257 FILLER_23_265
*3258 FILLER_23_272
*3259 FILLER_23_279
*3260 FILLER_23_283
*3261 FILLER_23_289
*3262 FILLER_23_295
*3263 FILLER_23_299
*3238 FILLER_23_30
*3264 FILLER_23_304
*3265 FILLER_23_322
*3266 FILLER_23_326
*3267 FILLER_23_332
*3268 FILLER_23_339
*3269 FILLER_23_343
*3270 FILLER_23_369
*3239 FILLER_23_37
*3240 FILLER_23_44
*3241 FILLER_23_51
*3242 FILLER_23_82
*3243 FILLER_23_86
*3235 FILLER_23_9
*3244 FILLER_23_91
*3245 FILLER_23_93
*3246 FILLER_23_97
*3285 FILLER_24_100
*3286 FILLER_24_128
*3287 FILLER_24_135
*3288 FILLER_24_142
*3289 FILLER_24_144
*3290 FILLER_24_153
*3272 FILLER_24_17
*3291 FILLER_24_204
*3292 FILLER_24_211
*3293 FILLER_24_213
*3294 FILLER_24_222
*3295 FILLER_24_251
*3296 FILLER_24_260
*3297 FILLER_24_273
*3298 FILLER_24_280
*3299 FILLER_24_284
*3273 FILLER_24_31
*3300 FILLER_24_312
*3301 FILLER_24_316
*3274 FILLER_24_33
*3302 FILLER_24_348
*3303 FILLER_24_354
*3304 FILLER_24_361
*3305 FILLER_24_372
*3306 FILLER_24_379
*3275 FILLER_24_38
*3307 FILLER_24_384
*3308 FILLER_24_389
*3309 FILLER_24_396
*3310 FILLER_24_403
*3276 FILLER_24_46
*3277 FILLER_24_53
*3278 FILLER_24_59
*3279 FILLER_24_66
*3280 FILLER_24_85
*3281 FILLER_24_87
*3271 FILLER_24_9
*3282 FILLER_24_91
*3283 FILLER_24_93
*3284 FILLER_24_98
*3320 FILLER_25_105
*3321 FILLER_25_112
*3312 FILLER_25_13
*3322 FILLER_25_151
*3323 FILLER_25_156
*3313 FILLER_25_19
*3324 FILLER_25_219
*3325 FILLER_25_226
*3326 FILLER_25_230
*3327 FILLER_25_248
*3328 FILLER_25_254
*3329 FILLER_25_256
*3330 FILLER_25_261
*3331 FILLER_25_268
*3332 FILLER_25_275
*3333 FILLER_25_279
*3334 FILLER_25_307
*3335 FILLER_25_314
*3336 FILLER_25_321
*3337 FILLER_25_350
*3338 FILLER_25_357
*3339 FILLER_25_385
*3340 FILLER_25_392
*3341 FILLER_25_399
*3342 FILLER_25_403
*3314 FILLER_25_53
*3315 FILLER_25_61
*3316 FILLER_25_67
*3317 FILLER_25_74
*3318 FILLER_25_81
*3319 FILLER_25_88
*3311 FILLER_25_9
*3352 FILLER_26_106
*3353 FILLER_26_113
*3354 FILLER_26_130
*3355 FILLER_26_138
*3356 FILLER_26_145
*3344 FILLER_26_16
*3357 FILLER_26_165
*3358 FILLER_26_186
*3359 FILLER_26_193
*3360 FILLER_26_195
*3361 FILLER_26_201
*3362 FILLER_26_208
*3363 FILLER_26_212
*3364 FILLER_26_223
*3365 FILLER_26_230
*3366 FILLER_26_237
*3345 FILLER_26_24
*3367 FILLER_26_241
*3368 FILLER_26_248
*3369 FILLER_26_250
*3370 FILLER_26_261
*3371 FILLER_26_268
*3372 FILLER_26_275
*3373 FILLER_26_301
*3374 FILLER_26_308
*3375 FILLER_26_315
*3376 FILLER_26_327
*3377 FILLER_26_329
*3378 FILLER_26_338
*3379 FILLER_26_342
*3380 FILLER_26_354
*3381 FILLER_26_361
*3382 FILLER_26_368
*3383 FILLER_26_372
*3384 FILLER_26_377
*3385 FILLER_26_384
*3386 FILLER_26_389
*3387 FILLER_26_396
*3388 FILLER_26_403
*3346 FILLER_26_62
*3347 FILLER_26_66
*3348 FILLER_26_72
*3349 FILLER_26_79
*3343 FILLER_26_9
*3350 FILLER_26_92
*3351 FILLER_26_99
*3389 FILLER_27_0
*3403 FILLER_27_104
*3404 FILLER_27_111
*3405 FILLER_27_113
*3406 FILLER_27_141
*3407 FILLER_27_178
*3408 FILLER_27_185
*3409 FILLER_27_192
*3410 FILLER_27_196
*3411 FILLER_27_224
*3412 FILLER_27_231
*3413 FILLER_27_233
*3391 FILLER_27_24
*3414 FILLER_27_261
*3415 FILLER_27_268
*3416 FILLER_27_275
*3417 FILLER_27_279
*3392 FILLER_27_28
*3418 FILLER_27_290
*3419 FILLER_27_292
*3420 FILLER_27_297
*3421 FILLER_27_304
*3422 FILLER_27_311
*3423 FILLER_27_318
*3424 FILLER_27_327
*3425 FILLER_27_335
*3393 FILLER_27_34
*3426 FILLER_27_342
*3427 FILLER_27_349
*3428 FILLER_27_351
*3429 FILLER_27_356
*3430 FILLER_27_363
*3431 FILLER_27_370
*3432 FILLER_27_377
*3433 FILLER_27_384
*3434 FILLER_27_391
*3435 FILLER_27_398
*3394 FILLER_27_41
*3395 FILLER_27_48
*3396 FILLER_27_53
*3397 FILLER_27_59
*3398 FILLER_27_66
*3390 FILLER_27_7
*3399 FILLER_27_70
*3400 FILLER_27_76
*3401 FILLER_27_86
*3402 FILLER_27_93
*3436 FILLER_28_0
*3445 FILLER_28_106
*3446 FILLER_28_139
*3438 FILLER_28_14
*3447 FILLER_28_146
*3448 FILLER_28_153
*3449 FILLER_28_160
*3450 FILLER_28_167
*3451 FILLER_28_174
*3439 FILLER_28_18
*3452 FILLER_28_181
*3453 FILLER_28_188
*3454 FILLER_28_200
*3455 FILLER_28_207
*3456 FILLER_28_209
*3457 FILLER_28_231
*3458 FILLER_28_248
*3459 FILLER_28_255
*3460 FILLER_28_262
*3461 FILLER_28_291
*3462 FILLER_28_317
*3463 FILLER_28_352
*3464 FILLER_28_356
*3465 FILLER_28_371
*3466 FILLER_28_378
*3467 FILLER_28_382
*3468 FILLER_28_387
*3469 FILLER_28_394
*3470 FILLER_28_401
*3440 FILLER_28_47
*3441 FILLER_28_54
*3437 FILLER_28_7
*3442 FILLER_28_85
*3443 FILLER_28_92
*3444 FILLER_28_99
*3478 FILLER_29_101
*3479 FILLER_29_106
*3480 FILLER_29_113
*3481 FILLER_29_117
*3482 FILLER_29_128
*3471 FILLER_29_13
*3483 FILLER_29_156
*3484 FILLER_29_163
*3485 FILLER_29_170
*3486 FILLER_29_201
*3487 FILLER_29_203
*3488 FILLER_29_224
*3489 FILLER_29_231
*3490 FILLER_29_238
*3491 FILLER_29_242
*3492 FILLER_29_254
*3493 FILLER_29_258
*3494 FILLER_29_286
*3495 FILLER_29_288
*3496 FILLER_29_293
*3497 FILLER_29_295
*3498 FILLER_29_304
*3499 FILLER_29_311
*3500 FILLER_29_318
*3501 FILLER_29_325
*3502 FILLER_29_329
*3503 FILLER_29_335
*3504 FILLER_29_342
*3505 FILLER_29_355
*3506 FILLER_29_383
*3507 FILLER_29_390
*3508 FILLER_29_397
*3509 FILLER_29_404
*3472 FILLER_29_54
*3473 FILLER_29_61
*3474 FILLER_29_65
*3475 FILLER_29_75
*3476 FILLER_29_81
*3477 FILLER_29_83
*2432 FILLER_2_0
*2447 FILLER_2_105
*2448 FILLER_2_112
*2434 FILLER_2_14
*2449 FILLER_2_165
*2450 FILLER_2_172
*2451 FILLER_2_179
*2452 FILLER_2_181
*2453 FILLER_2_192
*2454 FILLER_2_201
*2455 FILLER_2_205
*2435 FILLER_2_21
*2456 FILLER_2_215
*2457 FILLER_2_223
*2458 FILLER_2_230
*2459 FILLER_2_237
*2460 FILLER_2_244
*2461 FILLER_2_251
*2436 FILLER_2_28
*2462 FILLER_2_282
*2463 FILLER_2_289
*2464 FILLER_2_296
*2465 FILLER_2_303
*2466 FILLER_2_310
*2467 FILLER_2_317
*2468 FILLER_2_324
*2469 FILLER_2_331
*2470 FILLER_2_338
*2471 FILLER_2_345
*2437 FILLER_2_35
*2472 FILLER_2_352
*2473 FILLER_2_359
*2474 FILLER_2_366
*2475 FILLER_2_373
*2476 FILLER_2_380
*2477 FILLER_2_387
*2478 FILLER_2_394
*2479 FILLER_2_401
*2438 FILLER_2_42
*2439 FILLER_2_49
*2440 FILLER_2_56
*2441 FILLER_2_63
*2433 FILLER_2_7
*2442 FILLER_2_70
*2443 FILLER_2_77
*2444 FILLER_2_84
*2445 FILLER_2_91
*2446 FILLER_2_98
*3510 FILLER_30_0
*3523 FILLER_30_106
*3524 FILLER_30_113
*3512 FILLER_30_12
*3525 FILLER_30_124
*3526 FILLER_30_180
*3527 FILLER_30_187
*3528 FILLER_30_189
*3513 FILLER_30_19
*3529 FILLER_30_217
*3530 FILLER_30_221
*3531 FILLER_30_228
*3532 FILLER_30_235
*3533 FILLER_30_242
*3534 FILLER_30_255
*3514 FILLER_30_26
*3535 FILLER_30_264
*3536 FILLER_30_272
*3537 FILLER_30_279
*3538 FILLER_30_281
*3539 FILLER_30_292
*3540 FILLER_30_296
*3541 FILLER_30_307
*3542 FILLER_30_312
*3543 FILLER_30_319
*3544 FILLER_30_323
*3545 FILLER_30_328
*3515 FILLER_30_33
*3546 FILLER_30_330
*3547 FILLER_30_338
*3548 FILLER_30_345
*3549 FILLER_30_374
*3550 FILLER_30_378
*3551 FILLER_30_394
*3516 FILLER_30_40
*3517 FILLER_30_47
*3518 FILLER_30_49
*3511 FILLER_30_5
*3519 FILLER_30_59
*3520 FILLER_30_66
*3521 FILLER_30_73
*3522 FILLER_30_75
*3556 FILLER_31_102
*3557 FILLER_31_109
*3558 FILLER_31_117
*3559 FILLER_31_124
*3560 FILLER_31_136
*3561 FILLER_31_143
*3562 FILLER_31_150
*3563 FILLER_31_156
*3564 FILLER_31_160
*3565 FILLER_31_199
*3566 FILLER_31_209
*3567 FILLER_31_219
*3568 FILLER_31_232
*3569 FILLER_31_243
*3570 FILLER_31_251
*3571 FILLER_31_258
*3572 FILLER_31_267
*3573 FILLER_31_274
*3574 FILLER_31_285
*3575 FILLER_31_292
*3576 FILLER_31_331
*3577 FILLER_31_335
*3578 FILLER_31_340
*3579 FILLER_31_342
*3580 FILLER_31_348
*3581 FILLER_31_355
*3582 FILLER_31_386
*3583 FILLER_31_393
*3584 FILLER_31_400
*3585 FILLER_31_404
*3553 FILLER_31_50
*3554 FILLER_31_79
*3552 FILLER_31_9
*3555 FILLER_31_95
*3591 FILLER_32_104
*3592 FILLER_32_111
*3593 FILLER_32_120
*3594 FILLER_32_126
*3595 FILLER_32_159
*3587 FILLER_32_16
*3596 FILLER_32_173
*3597 FILLER_32_180
*3598 FILLER_32_184
*3588 FILLER_32_23
*3599 FILLER_32_232
*3600 FILLER_32_239
*3601 FILLER_32_248
*3602 FILLER_32_255
*3603 FILLER_32_259
*3604 FILLER_32_288
*3605 FILLER_32_293
*3589 FILLER_32_30
*3606 FILLER_32_300
*3607 FILLER_32_329
*3608 FILLER_32_336
*3609 FILLER_32_342
*3610 FILLER_32_353
*3611 FILLER_32_360
*3612 FILLER_32_371
*3613 FILLER_32_375
*3590 FILLER_32_38
*3614 FILLER_32_386
*3615 FILLER_32_394
*3616 FILLER_32_401
*3586 FILLER_32_9
*3625 FILLER_33_105
*3626 FILLER_33_109
*3627 FILLER_33_120
*3628 FILLER_33_124
*3629 FILLER_33_152
*3630 FILLER_33_159
*3631 FILLER_33_163
*3632 FILLER_33_168
*3633 FILLER_33_175
*3634 FILLER_33_182
*3635 FILLER_33_186
*3618 FILLER_33_21
*3636 FILLER_33_232
*3637 FILLER_33_239
*3638 FILLER_33_246
*3639 FILLER_33_253
*3640 FILLER_33_257
*3619 FILLER_33_28
*3641 FILLER_33_285
*3642 FILLER_33_335
*3643 FILLER_33_337
*3620 FILLER_33_39
*3644 FILLER_33_392
*3645 FILLER_33_399
*3646 FILLER_33_403
*3621 FILLER_33_72
*3622 FILLER_33_79
*3623 FILLER_33_86
*3617 FILLER_33_9
*3624 FILLER_33_99
*3654 FILLER_34_106
*3655 FILLER_34_113
*3656 FILLER_34_119
*3657 FILLER_34_123
*3648 FILLER_34_13
*3658 FILLER_34_149
*3659 FILLER_34_151
*3660 FILLER_34_156
*3661 FILLER_34_163
*3662 FILLER_34_170
*3663 FILLER_34_199
*3664 FILLER_34_206
*3665 FILLER_34_213
*3666 FILLER_34_259
*3667 FILLER_34_261
*3668 FILLER_34_271
*3669 FILLER_34_278
*3670 FILLER_34_285
*3671 FILLER_34_290
*3672 FILLER_34_297
*3673 FILLER_34_299
*3674 FILLER_34_327
*3675 FILLER_34_334
*3676 FILLER_34_341
*3677 FILLER_34_348
*3678 FILLER_34_382
*3679 FILLER_34_389
*3680 FILLER_34_396
*3681 FILLER_34_403
*3649 FILLER_34_45
*3650 FILLER_34_49
*3651 FILLER_34_89
*3647 FILLER_34_9
*3652 FILLER_34_93
*3653 FILLER_34_99
*3689 FILLER_35_100
*3690 FILLER_35_107
*3691 FILLER_35_111
*3692 FILLER_35_149
*3683 FILLER_35_15
*3693 FILLER_35_156
*3694 FILLER_35_160
*3695 FILLER_35_167
*3696 FILLER_35_174
*3697 FILLER_35_181
*3698 FILLER_35_188
*3699 FILLER_35_195
*3700 FILLER_35_212
*3701 FILLER_35_227
*3702 FILLER_35_234
*3703 FILLER_35_238
*3704 FILLER_35_244
*3705 FILLER_35_248
*3706 FILLER_35_255
*3707 FILLER_35_259
*3708 FILLER_35_269
*3709 FILLER_35_275
*3710 FILLER_35_277
*3711 FILLER_35_288
*3712 FILLER_35_295
*3713 FILLER_35_329
*3714 FILLER_35_363
*3715 FILLER_35_365
*3716 FILLER_35_393
*3717 FILLER_35_400
*3718 FILLER_35_404
*3684 FILLER_35_53
*3685 FILLER_35_60
*3686 FILLER_35_62
*3682 FILLER_35_8
*3687 FILLER_35_90
*3688 FILLER_35_94
*3719 FILLER_36_0
*3721 FILLER_36_10
*3733 FILLER_36_101
*3734 FILLER_36_113
*3722 FILLER_36_14
*3735 FILLER_36_145
*3736 FILLER_36_152
*3737 FILLER_36_183
*3738 FILLER_36_185
*3739 FILLER_36_190
*3740 FILLER_36_216
*3741 FILLER_36_223
*3742 FILLER_36_230
*3743 FILLER_36_237
*3744 FILLER_36_244
*3723 FILLER_36_26
*3745 FILLER_36_283
*3746 FILLER_36_290
*3724 FILLER_36_33
*3747 FILLER_36_333
*3748 FILLER_36_337
*3749 FILLER_36_344
*3750 FILLER_36_348
*3751 FILLER_36_354
*3752 FILLER_36_363
*3753 FILLER_36_369
*3754 FILLER_36_374
*3755 FILLER_36_379
*3756 FILLER_36_383
*3757 FILLER_36_394
*3720 FILLER_36_4
*3725 FILLER_36_40
*3758 FILLER_36_401
*3726 FILLER_36_55
*3727 FILLER_36_57
*3728 FILLER_36_68
*3729 FILLER_36_75
*3730 FILLER_36_82
*3731 FILLER_36_86
*3732 FILLER_36_91
*3764 FILLER_37_100
*3765 FILLER_37_107
*3766 FILLER_37_114
*3767 FILLER_37_121
*3768 FILLER_37_128
*3760 FILLER_37_13
*3769 FILLER_37_135
*3770 FILLER_37_139
*3771 FILLER_37_177
*3772 FILLER_37_211
*3773 FILLER_37_218
*3774 FILLER_37_225
*3775 FILLER_37_227
*3776 FILLER_37_232
*3777 FILLER_37_239
*3778 FILLER_37_270
*3779 FILLER_37_278
*3780 FILLER_37_285
*3781 FILLER_37_289
*3782 FILLER_37_295
*3783 FILLER_37_304
*3784 FILLER_37_306
*3785 FILLER_37_311
*3786 FILLER_37_318
*3787 FILLER_37_322
*3788 FILLER_37_337
*3789 FILLER_37_344
*3790 FILLER_37_351
*3791 FILLER_37_355
*3792 FILLER_37_382
*3793 FILLER_37_389
*3794 FILLER_37_396
*3795 FILLER_37_403
*3761 FILLER_37_46
*3762 FILLER_37_53
*3763 FILLER_37_57
*3759 FILLER_37_9
*3800 FILLER_38_103
*3801 FILLER_38_110
*3802 FILLER_38_117
*3803 FILLER_38_146
*3804 FILLER_38_173
*3805 FILLER_38_179
*3806 FILLER_38_186
*3807 FILLER_38_197
*3808 FILLER_38_201
*3809 FILLER_38_222
*3810 FILLER_38_251
*3811 FILLER_38_293
*3812 FILLER_38_300
*3813 FILLER_38_302
*3814 FILLER_38_307
*3815 FILLER_38_314
*3816 FILLER_38_321
*3817 FILLER_38_328
*3818 FILLER_38_335
*3819 FILLER_38_337
*3820 FILLER_38_347
*3821 FILLER_38_352
*3822 FILLER_38_369
*3823 FILLER_38_376
*3824 FILLER_38_383
*3825 FILLER_38_390
*3826 FILLER_38_397
*3827 FILLER_38_404
*3797 FILLER_38_56
*3798 FILLER_38_88
*3796 FILLER_38_9
*3799 FILLER_38_92
*3838 FILLER_39_101
*3839 FILLER_39_108
*3840 FILLER_39_115
*3841 FILLER_39_121
*3842 FILLER_39_128
*3843 FILLER_39_139
*3844 FILLER_39_146
*3829 FILLER_39_16
*3845 FILLER_39_174
*3846 FILLER_39_181
*3847 FILLER_39_192
*3848 FILLER_39_199
*3849 FILLER_39_206
*3850 FILLER_39_213
*3830 FILLER_39_23
*3851 FILLER_39_259
*3852 FILLER_39_283
*3853 FILLER_39_295
*3854 FILLER_39_299
*3831 FILLER_39_30
*3855 FILLER_39_311
*3856 FILLER_39_318
*3857 FILLER_39_322
*3858 FILLER_39_327
*3859 FILLER_39_366
*3860 FILLER_39_368
*3832 FILLER_39_37
*3861 FILLER_39_373
*3862 FILLER_39_380
*3863 FILLER_39_387
*3864 FILLER_39_389
*3865 FILLER_39_394
*3866 FILLER_39_398
*3867 FILLER_39_404
*3833 FILLER_39_44
*3834 FILLER_39_55
*3835 FILLER_39_57
*3836 FILLER_39_63
*3828 FILLER_39_9
*3837 FILLER_39_91
*2480 FILLER_3_0
*2495 FILLER_3_105
*2496 FILLER_3_129
*2497 FILLER_3_137
*2482 FILLER_3_14
*2498 FILLER_3_148
*2499 FILLER_3_154
*2500 FILLER_3_164
*2501 FILLER_3_200
*2502 FILLER_3_207
*2483 FILLER_3_21
*2503 FILLER_3_214
*2504 FILLER_3_221
*2505 FILLER_3_250
*2506 FILLER_3_254
*2507 FILLER_3_259
*2508 FILLER_3_264
*2509 FILLER_3_271
*2510 FILLER_3_278
*2484 FILLER_3_28
*2511 FILLER_3_285
*2512 FILLER_3_292
*2513 FILLER_3_299
*2514 FILLER_3_306
*2515 FILLER_3_313
*2516 FILLER_3_320
*2517 FILLER_3_327
*2518 FILLER_3_334
*2519 FILLER_3_341
*2520 FILLER_3_348
*2485 FILLER_3_35
*2521 FILLER_3_355
*2522 FILLER_3_362
*2523 FILLER_3_369
*2524 FILLER_3_376
*2525 FILLER_3_383
*2526 FILLER_3_390
*2527 FILLER_3_397
*2528 FILLER_3_404
*2486 FILLER_3_42
*2487 FILLER_3_49
*2488 FILLER_3_56
*2489 FILLER_3_63
*2481 FILLER_3_7
*2490 FILLER_3_70
*2491 FILLER_3_77
*2492 FILLER_3_84
*2493 FILLER_3_91
*2494 FILLER_3_98
*3868 FILLER_40_0
*3874 FILLER_40_103
*3875 FILLER_40_120
*3871 FILLER_40_14
*3876 FILLER_40_163
*3872 FILLER_40_18
*3869 FILLER_40_2
*3877 FILLER_40_209
*3878 FILLER_40_222
*3879 FILLER_40_226
*3880 FILLER_40_233
*3881 FILLER_40_240
*3882 FILLER_40_247
*3883 FILLER_40_254
*3884 FILLER_40_261
*3885 FILLER_40_265
*3886 FILLER_40_294
*3887 FILLER_40_329
*3888 FILLER_40_340
*3889 FILLER_40_347
*3890 FILLER_40_354
*3891 FILLER_40_356
*3892 FILLER_40_384
*3893 FILLER_40_391
*3894 FILLER_40_396
*3895 FILLER_40_403
*3870 FILLER_40_7
*3873 FILLER_40_92
*3896 FILLER_41_0
*3908 FILLER_41_106
*3909 FILLER_41_113
*3910 FILLER_41_120
*3911 FILLER_41_127
*3898 FILLER_41_14
*3912 FILLER_41_156
*3913 FILLER_41_160
*3914 FILLER_41_177
*3915 FILLER_41_179
*3899 FILLER_41_21
*3916 FILLER_41_219
*3917 FILLER_41_226
*3918 FILLER_41_236
*3919 FILLER_41_243
*3900 FILLER_41_25
*3920 FILLER_41_250
*3921 FILLER_41_290
*3922 FILLER_41_297
*3923 FILLER_41_304
*3924 FILLER_41_308
*3901 FILLER_41_31
*3925 FILLER_41_336
*3926 FILLER_41_343
*3927 FILLER_41_347
*3928 FILLER_41_352
*3929 FILLER_41_359
*3930 FILLER_41_370
*3902 FILLER_41_39
*3931 FILLER_41_391
*3932 FILLER_41_398
*3903 FILLER_41_46
*3904 FILLER_41_53
*3905 FILLER_41_60
*3906 FILLER_41_64
*3897 FILLER_41_7
*3907 FILLER_41_99
*3933 FILLER_42_0
*3942 FILLER_42_101
*3943 FILLER_42_108
*3944 FILLER_42_115
*3945 FILLER_42_120
*3946 FILLER_42_133
*3935 FILLER_42_14
*3947 FILLER_42_150
*3948 FILLER_42_166
*3949 FILLER_42_174
*3950 FILLER_42_181
*3951 FILLER_42_183
*3952 FILLER_42_194
*3953 FILLER_42_201
*3954 FILLER_42_208
*3936 FILLER_42_21
*3955 FILLER_42_210
*3956 FILLER_42_238
*3957 FILLER_42_242
*3958 FILLER_42_251
*3959 FILLER_42_255
*3960 FILLER_42_262
*3961 FILLER_42_273
*3962 FILLER_42_280
*3963 FILLER_42_291
*3964 FILLER_42_298
*3965 FILLER_42_305
*3966 FILLER_42_334
*3967 FILLER_42_338
*3968 FILLER_42_348
*3969 FILLER_42_350
*3970 FILLER_42_355
*3971 FILLER_42_362
*3972 FILLER_42_379
*3973 FILLER_42_386
*3974 FILLER_42_388
*3975 FILLER_42_397
*3976 FILLER_42_404
*3937 FILLER_42_69
*3934 FILLER_42_7
*3938 FILLER_42_75
*3939 FILLER_42_82
*3940 FILLER_42_89
*3941 FILLER_42_91
*3977 FILLER_43_0
*3988 FILLER_43_103
*3989 FILLER_43_109
*3990 FILLER_43_121
*3979 FILLER_43_14
*3991 FILLER_43_162
*3992 FILLER_43_169
*3993 FILLER_43_176
*3994 FILLER_43_183
*3995 FILLER_43_190
*3980 FILLER_43_21
*3996 FILLER_43_218
*3997 FILLER_43_225
*3998 FILLER_43_232
*3999 FILLER_43_239
*3981 FILLER_43_28
*4000 FILLER_43_284
*4001 FILLER_43_291
*4002 FILLER_43_299
*4003 FILLER_43_311
*4004 FILLER_43_315
*4005 FILLER_43_321
*4006 FILLER_43_338
*4007 FILLER_43_340
*3982 FILLER_43_35
*3983 FILLER_43_37
*4008 FILLER_43_373
*4009 FILLER_43_380
*4010 FILLER_43_387
*4011 FILLER_43_394
*4012 FILLER_43_401
*3978 FILLER_43_7
*3984 FILLER_43_79
*3985 FILLER_43_86
*3986 FILLER_43_92
*3987 FILLER_43_99
*4013 FILLER_44_0
*4015 FILLER_44_14
*4023 FILLER_44_141
*4024 FILLER_44_148
*4025 FILLER_44_180
*4016 FILLER_44_21
*4026 FILLER_44_212
*4027 FILLER_44_214
*4028 FILLER_44_252
*4029 FILLER_44_259
*4017 FILLER_44_28
*4030 FILLER_44_285
*4031 FILLER_44_292
*4032 FILLER_44_299
*4033 FILLER_44_330
*4034 FILLER_44_337
*4018 FILLER_44_34
*4035 FILLER_44_344
*4036 FILLER_44_400
*4037 FILLER_44_404
*4019 FILLER_44_42
*4020 FILLER_44_49
*4021 FILLER_44_56
*4014 FILLER_44_7
*4022 FILLER_44_85
*4038 FILLER_45_0
*4053 FILLER_45_103
*4054 FILLER_45_105
*4055 FILLER_45_110
*4056 FILLER_45_117
*4057 FILLER_45_124
*4058 FILLER_45_131
*4059 FILLER_45_138
*4040 FILLER_45_14
*4060 FILLER_45_142
*4061 FILLER_45_163
*4062 FILLER_45_170
*4063 FILLER_45_180
*4064 FILLER_45_196
*4065 FILLER_45_203
*4041 FILLER_45_21
*4066 FILLER_45_210
*4067 FILLER_45_212
*4068 FILLER_45_258
*4069 FILLER_45_269
*4070 FILLER_45_271
*4042 FILLER_45_28
*4071 FILLER_45_281
*4072 FILLER_45_288
*4073 FILLER_45_295
*4074 FILLER_45_302
*4075 FILLER_45_309
*4076 FILLER_45_316
*4077 FILLER_45_320
*4078 FILLER_45_347
*4043 FILLER_45_35
*4079 FILLER_45_354
*4080 FILLER_45_361
*4081 FILLER_45_368
*4082 FILLER_45_374
*4083 FILLER_45_381
*4084 FILLER_45_388
*4085 FILLER_45_395
*4086 FILLER_45_399
*4044 FILLER_45_46
*4045 FILLER_45_53
*4046 FILLER_45_57
*4047 FILLER_45_64
*4039 FILLER_45_7
*4048 FILLER_45_71
*4049 FILLER_45_80
*4050 FILLER_45_86
*4051 FILLER_45_93
*4052 FILLER_45_97
*4087 FILLER_46_0
*4096 FILLER_46_116
*4097 FILLER_46_120
*4098 FILLER_46_126
*4099 FILLER_46_132
*4100 FILLER_46_134
*4101 FILLER_46_138
*4089 FILLER_46_14
*4102 FILLER_46_145
*4103 FILLER_46_174
*4104 FILLER_46_181
*4090 FILLER_46_21
*4105 FILLER_46_216
*4106 FILLER_46_223
*4107 FILLER_46_230
*4108 FILLER_46_237
*4109 FILLER_46_244
*4110 FILLER_46_251
*4091 FILLER_46_28
*4111 FILLER_46_285
*4112 FILLER_46_296
*4113 FILLER_46_303
*4114 FILLER_46_310
*4115 FILLER_46_317
*4116 FILLER_46_324
*4117 FILLER_46_331
*4118 FILLER_46_338
*4119 FILLER_46_345
*4092 FILLER_46_35
*4120 FILLER_46_352
*4121 FILLER_46_359
*4122 FILLER_46_366
*4093 FILLER_46_37
*4123 FILLER_46_373
*4124 FILLER_46_380
*4125 FILLER_46_387
*4126 FILLER_46_394
*4127 FILLER_46_401
*4094 FILLER_46_48
*4088 FILLER_46_7
*4095 FILLER_46_85
*4128 FILLER_47_0
*4130 FILLER_47_14
*4138 FILLER_47_140
*4139 FILLER_47_147
*4140 FILLER_47_176
*4141 FILLER_47_193
*4142 FILLER_47_200
*4143 FILLER_47_207
*4144 FILLER_47_209
*4131 FILLER_47_21
*4145 FILLER_47_214
*4146 FILLER_47_223
*4147 FILLER_47_225
*4148 FILLER_47_253
*4149 FILLER_47_257
*4132 FILLER_47_28
*4150 FILLER_47_290
*4151 FILLER_47_296
*4152 FILLER_47_303
*4153 FILLER_47_310
*4154 FILLER_47_317
*4155 FILLER_47_324
*4156 FILLER_47_331
*4157 FILLER_47_338
*4158 FILLER_47_345
*4133 FILLER_47_35
*4159 FILLER_47_352
*4160 FILLER_47_359
*4161 FILLER_47_366
*4162 FILLER_47_373
*4163 FILLER_47_380
*4164 FILLER_47_387
*4165 FILLER_47_394
*4134 FILLER_47_46
*4129 FILLER_47_7
*4135 FILLER_47_82
*4136 FILLER_47_89
*4137 FILLER_47_96
*4166 FILLER_48_0
*4179 FILLER_48_101
*4180 FILLER_48_109
*4181 FILLER_48_113
*4182 FILLER_48_128
*4183 FILLER_48_132
*4168 FILLER_48_14
*4184 FILLER_48_170
*4185 FILLER_48_178
*4186 FILLER_48_182
*4187 FILLER_48_187
*4188 FILLER_48_189
*4169 FILLER_48_21
*4189 FILLER_48_227
*4190 FILLER_48_234
*4191 FILLER_48_236
*4192 FILLER_48_245
*4193 FILLER_48_252
*4194 FILLER_48_254
*4195 FILLER_48_264
*4196 FILLER_48_271
*4197 FILLER_48_275
*4170 FILLER_48_28
*4198 FILLER_48_290
*4199 FILLER_48_297
*4200 FILLER_48_304
*4201 FILLER_48_311
*4202 FILLER_48_318
*4203 FILLER_48_325
*4204 FILLER_48_332
*4205 FILLER_48_339
*4206 FILLER_48_346
*4207 FILLER_48_353
*4208 FILLER_48_360
*4209 FILLER_48_367
*4210 FILLER_48_374
*4211 FILLER_48_381
*4212 FILLER_48_388
*4213 FILLER_48_395
*4214 FILLER_48_402
*4215 FILLER_48_404
*4171 FILLER_48_42
*4172 FILLER_48_49
*4173 FILLER_48_56
*4174 FILLER_48_63
*4167 FILLER_48_7
*4175 FILLER_48_70
*4176 FILLER_48_74
*4177 FILLER_48_87
*4178 FILLER_48_94
*4216 FILLER_49_0
*4224 FILLER_49_120
*4225 FILLER_49_125
*4226 FILLER_49_132
*4227 FILLER_49_139
*4218 FILLER_49_14
*4228 FILLER_49_149
*4229 FILLER_49_178
*4230 FILLER_49_185
*4231 FILLER_49_196
*4232 FILLER_49_203
*4219 FILLER_49_21
*4233 FILLER_49_210
*4234 FILLER_49_214
*4235 FILLER_49_222
*4236 FILLER_49_229
*4237 FILLER_49_234
*4238 FILLER_49_239
*4239 FILLER_49_241
*4240 FILLER_49_246
*4241 FILLER_49_251
*4220 FILLER_49_28
*4242 FILLER_49_284
*4243 FILLER_49_293
*4244 FILLER_49_298
*4245 FILLER_49_305
*4246 FILLER_49_312
*4247 FILLER_49_319
*4248 FILLER_49_326
*4249 FILLER_49_333
*4250 FILLER_49_340
*4251 FILLER_49_347
*4252 FILLER_49_354
*4253 FILLER_49_361
*4254 FILLER_49_368
*4255 FILLER_49_375
*4256 FILLER_49_382
*4257 FILLER_49_389
*4258 FILLER_49_396
*4259 FILLER_49_403
*4221 FILLER_49_48
*4217 FILLER_49_7
*4222 FILLER_49_81
*4223 FILLER_49_92
*2529 FILLER_4_0
*2544 FILLER_4_105
*2545 FILLER_4_134
*2546 FILLER_4_138
*2531 FILLER_4_14
*2547 FILLER_4_144
*2548 FILLER_4_151
*2549 FILLER_4_160
*2550 FILLER_4_162
*2551 FILLER_4_201
*2552 FILLER_4_208
*2532 FILLER_4_21
*2553 FILLER_4_215
*2554 FILLER_4_222
*2555 FILLER_4_232
*2556 FILLER_4_234
*2557 FILLER_4_248
*2558 FILLER_4_252
*2533 FILLER_4_28
*2559 FILLER_4_287
*2560 FILLER_4_294
*2561 FILLER_4_301
*2562 FILLER_4_308
*2563 FILLER_4_315
*2564 FILLER_4_322
*2565 FILLER_4_329
*2566 FILLER_4_336
*2567 FILLER_4_343
*2534 FILLER_4_35
*2568 FILLER_4_350
*2569 FILLER_4_357
*2570 FILLER_4_364
*2571 FILLER_4_371
*2572 FILLER_4_378
*2573 FILLER_4_385
*2574 FILLER_4_392
*2575 FILLER_4_399
*2576 FILLER_4_403
*2535 FILLER_4_42
*2536 FILLER_4_49
*2537 FILLER_4_56
*2538 FILLER_4_63
*2530 FILLER_4_7
*2539 FILLER_4_70
*2540 FILLER_4_77
*2541 FILLER_4_84
*2542 FILLER_4_91
*2543 FILLER_4_98
*4260 FILLER_50_0
*4266 FILLER_50_114
*4267 FILLER_50_121
*4268 FILLER_50_132
*4269 FILLER_50_139
*4262 FILLER_50_14
*4270 FILLER_50_146
*4271 FILLER_50_153
*4272 FILLER_50_155
*4273 FILLER_50_169
*4274 FILLER_50_176
*4275 FILLER_50_183
*4276 FILLER_50_187
*4263 FILLER_50_21
*4277 FILLER_50_247
*4278 FILLER_50_254
*4279 FILLER_50_261
*4280 FILLER_50_268
*4281 FILLER_50_302
*4282 FILLER_50_309
*4283 FILLER_50_316
*4284 FILLER_50_323
*4285 FILLER_50_330
*4286 FILLER_50_337
*4287 FILLER_50_344
*4288 FILLER_50_351
*4289 FILLER_50_358
*4290 FILLER_50_365
*4291 FILLER_50_372
*4292 FILLER_50_379
*4293 FILLER_50_386
*4294 FILLER_50_393
*4295 FILLER_50_400
*4296 FILLER_50_404
*4261 FILLER_50_7
*4264 FILLER_50_82
*4265 FILLER_50_86
*2577 FILLER_5_0
*2592 FILLER_5_105
*2593 FILLER_5_112
*2594 FILLER_5_123
*2595 FILLER_5_130
*2596 FILLER_5_132
*2579 FILLER_5_14
*2597 FILLER_5_140
*2598 FILLER_5_142
*2599 FILLER_5_168
*2600 FILLER_5_175
*2601 FILLER_5_177
*2602 FILLER_5_201
*2603 FILLER_5_207
*2604 FILLER_5_209
*2580 FILLER_5_21
*2605 FILLER_5_214
*2606 FILLER_5_221
*2607 FILLER_5_228
*2608 FILLER_5_235
*2609 FILLER_5_242
*2610 FILLER_5_249
*2581 FILLER_5_28
*2611 FILLER_5_289
*2612 FILLER_5_296
*2613 FILLER_5_303
*2614 FILLER_5_310
*2615 FILLER_5_317
*2616 FILLER_5_324
*2617 FILLER_5_331
*2618 FILLER_5_338
*2619 FILLER_5_345
*2582 FILLER_5_35
*2620 FILLER_5_352
*2621 FILLER_5_359
*2622 FILLER_5_366
*2623 FILLER_5_373
*2624 FILLER_5_380
*2625 FILLER_5_387
*2626 FILLER_5_394
*2627 FILLER_5_401
*2583 FILLER_5_42
*2584 FILLER_5_49
*2585 FILLER_5_56
*2586 FILLER_5_63
*2578 FILLER_5_7
*2587 FILLER_5_70
*2588 FILLER_5_77
*2589 FILLER_5_84
*2590 FILLER_5_91
*2591 FILLER_5_98
*2628 FILLER_6_0
*2643 FILLER_6_105
*2644 FILLER_6_107
*2645 FILLER_6_120
*2646 FILLER_6_127
*2647 FILLER_6_134
*2648 FILLER_6_136
*2630 FILLER_6_14
*2649 FILLER_6_172
*2650 FILLER_6_179
*2651 FILLER_6_183
*2652 FILLER_6_189
*2653 FILLER_6_191
*2654 FILLER_6_196
*2655 FILLER_6_200
*2631 FILLER_6_21
*2656 FILLER_6_221
*2657 FILLER_6_231
*2658 FILLER_6_238
*2659 FILLER_6_249
*2660 FILLER_6_255
*2661 FILLER_6_259
*2662 FILLER_6_269
*2663 FILLER_6_276
*2632 FILLER_6_28
*2664 FILLER_6_280
*2665 FILLER_6_285
*2666 FILLER_6_292
*2667 FILLER_6_299
*2668 FILLER_6_306
*2669 FILLER_6_313
*2670 FILLER_6_320
*2671 FILLER_6_327
*2672 FILLER_6_334
*2673 FILLER_6_341
*2674 FILLER_6_348
*2633 FILLER_6_35
*2675 FILLER_6_375
*2676 FILLER_6_382
*2677 FILLER_6_389
*2678 FILLER_6_396
*2679 FILLER_6_403
*2634 FILLER_6_42
*2635 FILLER_6_49
*2636 FILLER_6_56
*2637 FILLER_6_63
*2629 FILLER_6_7
*2638 FILLER_6_70
*2639 FILLER_6_77
*2640 FILLER_6_84
*2641 FILLER_6_91
*2642 FILLER_6_98
*2680 FILLER_7_0
*2695 FILLER_7_105
*2696 FILLER_7_112
*2682 FILLER_7_14
*2697 FILLER_7_150
*2698 FILLER_7_192
*2699 FILLER_7_196
*2700 FILLER_7_201
*2683 FILLER_7_21
*2701 FILLER_7_211
*2702 FILLER_7_218
*2703 FILLER_7_255
*2704 FILLER_7_268
*2684 FILLER_7_28
*2705 FILLER_7_307
*2706 FILLER_7_314
*2707 FILLER_7_321
*2708 FILLER_7_328
*2709 FILLER_7_335
*2710 FILLER_7_342
*2685 FILLER_7_35
*2711 FILLER_7_401
*2686 FILLER_7_42
*2687 FILLER_7_49
*2688 FILLER_7_56
*2689 FILLER_7_63
*2681 FILLER_7_7
*2690 FILLER_7_70
*2691 FILLER_7_77
*2692 FILLER_7_84
*2693 FILLER_7_91
*2694 FILLER_7_98
*2712 FILLER_8_0
*2726 FILLER_8_108
*2727 FILLER_8_113
*2728 FILLER_8_120
*2729 FILLER_8_127
*2714 FILLER_8_14
*2730 FILLER_8_155
*2731 FILLER_8_165
*2732 FILLER_8_172
*2733 FILLER_8_179
*2715 FILLER_8_21
*2734 FILLER_8_210
*2735 FILLER_8_217
*2736 FILLER_8_221
*2737 FILLER_8_257
*2738 FILLER_8_259
*2739 FILLER_8_272
*2740 FILLER_8_279
*2716 FILLER_8_28
*2741 FILLER_8_286
*2742 FILLER_8_293
*2743 FILLER_8_300
*2744 FILLER_8_307
*2745 FILLER_8_336
*2746 FILLER_8_345
*2717 FILLER_8_35
*2747 FILLER_8_352
*2748 FILLER_8_359
*2749 FILLER_8_374
*2750 FILLER_8_381
*2751 FILLER_8_385
*2752 FILLER_8_389
*2753 FILLER_8_396
*2754 FILLER_8_403
*2718 FILLER_8_42
*2719 FILLER_8_49
*2720 FILLER_8_56
*2721 FILLER_8_63
*2713 FILLER_8_7
*2722 FILLER_8_70
*2723 FILLER_8_77
*2724 FILLER_8_84
*2725 FILLER_8_91
*2755 FILLER_9_0
*2764 FILLER_9_133
*2757 FILLER_9_14
*2765 FILLER_9_140
*2766 FILLER_9_146
*2767 FILLER_9_184
*2768 FILLER_9_192
*2769 FILLER_9_199
*2770 FILLER_9_206
*2771 FILLER_9_208
*2758 FILLER_9_21
*2772 FILLER_9_219
*2773 FILLER_9_226
*2774 FILLER_9_235
*2775 FILLER_9_239
*2776 FILLER_9_245
*2777 FILLER_9_247
*2778 FILLER_9_271
*2779 FILLER_9_278
*2759 FILLER_9_28
*2780 FILLER_9_285
*2781 FILLER_9_292
*2782 FILLER_9_297
*2783 FILLER_9_304
*2784 FILLER_9_306
*2785 FILLER_9_315
*2760 FILLER_9_35
*2786 FILLER_9_356
*2787 FILLER_9_358
*2788 FILLER_9_364
*2789 FILLER_9_366
*2790 FILLER_9_403
*2761 FILLER_9_42
*2762 FILLER_9_58
*2756 FILLER_9_7
*2763 FILLER_9_89
*1196 _0605_
*1197 _0606_
*1198 _0607_
*1199 _0608_
*1200 _0609_
*1201 _0610_
*1202 _0611_
*1203 _0612_
*1204 _0613_
*1205 _0614_
*1206 _0615_
*1207 _0616_
*1208 _0617_
*1209 _0618_
*1210 _0619_
*1211 _0620_
*1212 _0621_
*1213 _0622_
*1214 _0623_
*1215 _0624_
*1216 _0625_
*1217 _0626_
*1218 _0627_
*1219 _0628_
*1220 _0629_
*1221 _0630_
*1222 _0631_
*1223 _0632_
*1224 _0633_
*1225 _0634_
*1226 _0635_
*1227 _0636_
*1228 _0637_
*1229 _0638_
*1230 _0639_
*1231 _0640_
*1232 _0641_
*1233 _0642_
*1234 _0643_
*1235 _0644_
*1236 _0645_
*1237 _0646_
*1238 _0647_
*1239 _0648_
*1240 _0649_
*1241 _0650_
*1242 _0651_
*1243 _0652_
*1244 _0653_
*1245 _0654_
*1246 _0655_
*1247 _0656_
*1248 _0657_
*1249 _0658_
*1250 _0659_
*1251 _0660_
*1252 _0661_
*1254 _0663_
*1255 _0664_
*1256 _0665_
*1257 _0666_
*1258 _0667_
*1259 _0668_
*1260 _0669_
*1261 _0670_
*1262 _0671_
*1263 _0672_
*1264 _0673_
*1265 _0674_
*1266 _0675_
*1267 _0676_
*1268 _0677_
*1269 _0678_
*1270 _0679_
*1271 _0680_
*1272 _0681_
*1273 _0682_
*1274 _0683_
*1275 _0684_
*1276 _0685_
*1277 _0686_
*1278 _0687_
*1279 _0688_
*1280 _0689_
*1281 _0690_
*1282 _0691_
*1283 _0692_
*1284 _0693_
*1285 _0694_
*1286 _0695_
*1287 _0696_
*1288 _0697_
*1289 _0698_
*1290 _0699_
*1291 _0700_
*1292 _0701_
*1293 _0702_
*1294 _0703_
*1295 _0704_
*1296 _0705_
*1299 _0708_
*1300 _0709_
*1301 _0710_
*1302 _0711_
*1303 _0712_
*1304 _0713_
*1305 _0714_
*1306 _0715_
*1307 _0716_
*1308 _0717_
*1309 _0718_
*1310 _0719_
*1311 _0720_
*1312 _0721_
*1313 _0722_
*1314 _0723_
*1315 _0724_
*1316 _0725_
*1317 _0726_
*1318 _0727_
*1319 _0728_
*1320 _0729_
*1321 _0730_
*1322 _0731_
*1323 _0732_
*1324 _0733_
*1325 _0734_
*1326 _0735_
*1327 _0736_
*1328 _0737_
*1329 _0738_
*1330 _0739_
*1331 _0740_
*1332 _0741_
*1333 _0742_
*1334 _0743_
*1335 _0744_
*1336 _0745_
*1337 _0746_
*1338 _0747_
*1339 _0748_
*1340 _0749_
*1341 _0750_
*1342 _0751_
*1343 _0752_
*1344 _0753_
*1345 _0754_
*1346 _0755_
*1347 _0756_
*1348 _0757_
*1349 _0758_
*1350 _0759_
*1351 _0760_
*1352 _0761_
*1353 _0762_
*1354 _0763_
*1355 _0764_
*1356 _0765_
*1357 _0766_
*1358 _0767_
*1359 _0768_
*1360 _0769_
*1361 _0770_
*1362 _0771_
*1363 _0772_
*1364 _0773_
*1365 _0774_
*1366 _0775_
*1367 _0776_
*1368 _0777_
*1369 _0778_
*1370 _0779_
*1371 _0780_
*1372 _0781_
*1373 _0782_
*1374 _0783_
*1375 _0784_
*1376 _0785_
*1377 _0786_
*1378 _0787_
*1379 _0788_
*1380 _0789_
*1381 _0790_
*1382 _0791_
*1383 _0792_
*1384 _0793_
*1385 _0794_
*1388 _0797_
*1389 _0798_
*1390 _0799_
*1392 _0801_
*1393 _0802_
*1394 _0803_
*1395 _0804_
*1396 _0805_
*1397 _0806_
*1398 _0807_
*1399 _0808_
*1400 _0809_
*1401 _0810_
*1402 _0811_
*1403 _0812_
*1404 _0813_
*1405 _0814_
*1406 _0815_
*1407 _0816_
*1408 _0817_
*1409 _0818_
*1410 _0819_
*1411 _0820_
*1412 _0821_
*1413 _0822_
*1414 _0823_
*1415 _0824_
*1416 _0825_
*1417 _0826_
*1418 _0827_
*1419 _0828_
*1420 _0829_
*1421 _0830_
*1422 _0831_
*1423 _0832_
*1424 _0833_
*1425 _0834_
*1426 _0835_
*1427 _0836_
*1428 _0837_
*1429 _0838_
*1430 _0839_
*1431 _0840_
*1432 _0841_
*1433 _0842_
*1434 _0843_
*1435 _0844_
*1436 _0845_
*1437 _0846_
*1438 _0847_
*1439 _0848_
*1440 _0849_
*1441 _0850_
*1442 _0851_
*1445 _0854_
*1446 _0855_
*1447 _0856_
*1448 _0857_
*1449 _0858_
*1450 _0859_
*1451 _0860_
*1452 _0861_
*1453 _0862_
*1454 _0863_
*1455 _0864_
*1456 _0865_
*1457 _0866_
*1458 _0867_
*1459 _0868_
*1460 _0869_
*1461 _0870_
*1462 _0871_
*1463 _0872_
*1464 _0873_
*1465 _0874_
*1466 _0875_
*1467 _0876_
*1468 _0877_
*1469 _0878_
*1470 _0879_
*1471 _0880_
*1472 _0881_
*1473 _0882_
*1474 _0883_
*1475 _0884_
*1476 _0885_
*1477 _0886_
*1478 _0887_
*1481 _0890_
*1483 _0892_
*1485 _0894_
*1486 _0895_
*1487 _0896_
*1488 _0897_
*1489 _0898_
*1490 _0899_
*1491 _0900_
*1492 _0901_
*1493 _0902_
*1494 _0903_
*1495 _0904_
*1496 _0905_
*1498 _0907_
*1499 _0908_
*1500 _0909_
*1501 _0910_
*1502 _0911_
*1503 _0912_
*1504 _0913_
*1505 _0914_
*1506 _0915_
*1507 _0916_
*1508 _0917_
*1509 _0918_
*1510 _0919_
*1511 _0920_
*1512 _0921_
*1513 _0922_
*1514 _0923_
*1515 _0924_
*1516 _0925_
*1517 _0926_
*1518 _0927_
*1519 _0928_
*1520 _0929_
*1521 _0930_
*1522 _0931_
*1523 _0932_
*1524 _0933_
*1525 _0934_
*1526 _0935_
*1527 _0936_
*1528 _0937_
*1529 _0938_
*1530 _0939_
*1531 _0940_
*1532 _0941_
*1533 _0942_
*1534 _0943_
*1535 _0944_
*1536 _0945_
*1537 _0946_
*1538 _0947_
*1539 _0948_
*1540 _0949_
*1541 _0950_
*1542 _0951_
*1543 _0952_
*1544 _0953_
*1545 _0954_
*1546 _0955_
*1547 _0956_
*1548 _0957_
*1549 _0958_
*1550 _0959_
*1551 _0960_
*1552 _0961_
*1553 _0962_
*1554 _0963_
*1555 _0964_
*1556 _0965_
*1557 _0966_
*1558 _0967_
*1559 _0968_
*1560 _0969_
*1561 _0970_
*1562 _0971_
*1563 _0972_
*1564 _0973_
*1565 _0974_
*1566 _0975_
*1567 _0976_
*1568 _0977_
*1569 _0978_
*1570 _0979_
*1571 _0980_
*1572 _0981_
*1573 _0982_
*1576 _0985_
*1578 _0987_
*1579 _0988_
*1580 _0989_
*1581 _0990_
*1582 _0991_
*1583 _0992_
*1584 _0993_
*1585 _0994_
*1586 _0995_
*1587 _0996_
*1588 _0997_
*1589 _0998_
*1590 _0999_
*1591 _1000_
*1592 _1001_
*1593 _1002_
*1594 _1003_
*1595 _1004_
*1596 _1005_
*1597 _1006_
*1598 _1007_
*1599 _1008_
*1600 _1009_
*1601 _1010_
*1602 _1011_
*1603 _1012_
*1604 _1013_
*1605 _1014_
*1606 _1015_
*1607 _1016_
*1608 _1017_
*1609 _1018_
*1610 _1019_
*1611 _1020_
*1612 _1021_
*1613 _1022_
*1614 _1023_
*1615 _1024_
*1616 _1025_
*1617 _1026_
*1618 _1027_
*1619 _1028_
*1620 _1029_
*1621 _1030_
*1622 _1031_
*1623 _1032_
*1624 _1033_
*1625 _1034_
*1626 _1035_
*1627 _1036_
*1628 _1037_
*1629 _1038_
*1630 _1039_
*1631 _1040_
*1632 _1041_
*1633 _1042_
*1634 _1043_
*1635 _1044_
*1636 _1045_
*1637 _1046_
*1638 _1047_
*1639 _1048_
*1640 _1049_
*1641 _1050_
*1642 _1051_
*1643 _1052_
*1644 _1053_
*1645 _1054_
*1646 _1055_
*1647 _1056_
*1648 _1057_
*1649 _1058_
*1650 _1059_
*1651 _1060_
*1652 _1061_
*1653 _1062_
*1654 _1063_
*1655 _1064_
*1656 _1065_
*1657 _1066_
*1658 _1067_
*1659 _1068_
*1660 _1069_
*1661 _1070_
*1662 _1071_
*1664 _1073_
*1665 _1074_
*1666 _1075_
*1667 _1076_
*1668 _1077_
*1669 _1078_
*1670 _1079_
*1671 _1080_
*1672 _1081_
*1673 _1082_
*1674 _1083_
*1675 _1084_
*1676 _1085_
*1677 _1086_
*1678 _1087_
*1679 _1088_
*1680 _1089_
*1681 _1090_
*1682 _1091_
*1683 _1092_
*1684 _1093_
*1685 _1094_
*1686 _1095_
*1687 _1096_
*1688 _1097_
*1689 _1098_
*1690 _1099_
*1691 _1100_
*1692 _1101_
*1693 _1102_
*1694 _1103_
*1695 _1104_
*1696 _1105_
*1697 _1106_
*1698 _1107_
*1699 _1108_
*1700 _1109_
*1701 _1110_
*1702 _1111_
*1703 _1112_
*1704 _1113_
*1705 _1114_
*1706 _1115_
*1707 _1116_
*1708 _1117_
*1709 _1118_
*1710 _1119_
*1711 _1120_
*1712 _1121_
*1713 _1122_
*1714 _1123_
*1715 _1124_
*1716 _1125_
*1717 _1126_
*1718 _1127_
*1719 _1128_
*1720 _1129_
*1721 _1130_
*1722 _1131_
*1723 _1132_
*1724 _1133_
*1725 _1134_
*1726 _1135_
*1727 _1136_
*1728 _1137_
*1729 _1138_
*1730 _1139_
*1731 _1140_
*1732 _1141_
*1733 _1142_
*1734 _1143_
*1735 _1144_
*1736 _1145_
*1737 _1146_
*1738 _1147_
*1739 _1148_
*1740 _1149_
*1741 _1150_
*1742 _1151_
*1743 _1152_
*1744 _1153_
*1745 _1154_
*1746 _1155_
*1747 _1156_
*1748 _1157_
*1749 _1158_
*1750 _1159_
*1751 _1160_
*1752 _1161_
*1753 _1162_
*1754 _1163_
*1755 _1164_
*1756 _1165_
*1757 _1166_
*1758 _1167_
*1759 _1168_
*1760 _1169_
*1761 _1170_
*1762 _1171_
*1763 _1172_
*1764 _1173_
*1765 _1174_
*1766 _1175_
*1767 _1176_
*1768 _1177_
*1769 _1178_
*1770 _1179_
*1771 _1180_
*1772 _1181_
*1773 _1182_
*1774 _1183_
*1775 _1184_
*1776 _1185_
*1777 _1186_
*1778 _1187_
*1779 _1188_
*1780 _1189_
*1781 _1190_
*1782 _1191_
*1783 _1192_
*1784 _1193_
*1785 _1194_
*1786 _1195_
*1787 _1196_
*1788 _1197_
*1789 _1198_
*1790 _1199_
*1791 _1200_
*1792 _1201_
*1793 _1202_
*1794 _1203_
*1795 _1204_
*1796 _1205_
*1797 _1206_
*1798 _1207_
*1799 _1208_
*1800 _1209_
*1801 _1210_
*1802 _1211_
*1803 _1212_
*1804 _1213_
*1805 _1214_
*1806 _1215_
*1807 _1216_
*1808 _1217_
*1809 _1218_
*1810 _1219_
*1811 _1220_
*1812 _1221_
*1813 _1222_
*1814 _1223_
*1815 _1224_
*1816 _1225_
*1817 _1226_
*1818 _1227_
*1819 _1228_
*1820 _1229_
*1821 _1230_
*1822 _1231_
*1823 _1232_
*1824 _1233_
*1825 _1234_
*1826 _1235_
*1827 _1236_
*1828 _1237_
*1829 _1238_
*1830 _1239_
*1831 _1240_
*1832 _1241_
*1833 _1242_
*1834 _1243_
*1835 _1244_
*1836 _1245_
*1837 _1246_
*1838 _1247_
*1839 _1248_
*1840 _1249_
*1841 _1250_
*1842 _1251_
*1843 _1252_
*1844 _1253_
*1845 _1254_
*1846 _1255_
*1847 _1256_
*1848 _1257_
*1849 _1258_
*1850 _1259_
*1851 _1260_
*1852 _1261_
*1853 _1262_
*1854 _1263_
*1855 _1264_
*1856 _1265_
*1857 _1266_
*1858 _1267_
*1859 _1268_
*1860 _1269_
*1861 _1270_
*1862 _1271_
*1863 _1272_
*1864 _1273_
*1865 _1274_
*1866 _1275_
*1867 _1276_
*1868 _1277_
*1869 _1278_
*1870 _1279_
*1871 _1280_
*1872 _1281_
*1873 _1282_
*1874 _1283_
*1875 _1284_
*1876 _1285_
*1877 _1286_
*1878 _1287_
*1879 _1288_
*1880 _1289_
*1881 _1290_
*1882 _1291_
*1883 _1292_
*1884 _1293_
*1885 _1294_
*1886 _1295_
*1887 _1296_
*1888 _1297_
*1889 _1298_
*1890 _1299_
*1891 _1300_
*1892 _1301_
*1893 _1302_
*1894 _1303_
*1895 _1304_
*1896 _1305_
*1897 _1306_
*1898 _1307_
*1899 _1308_
*1900 _1309_
*1901 _1310_
*1902 _1311_
*1903 _1312_
*1904 _1313_
*1905 _1314_
*1906 _1315_
*1907 _1316_
*1908 _1317_
*1909 _1318_
*1910 _1319_
*1911 _1320_
*1912 _1321_
*1913 _1322_
*1914 _1323_
*1915 _1324_
*1916 _1325_
*1917 _1326_
*1918 _1327_
*1919 _1328_
*1920 _1329_
*1921 _1330_
*1922 _1331_
*1923 _1332_
*1924 _1333_
*1925 _1334_
*1926 _1335_
*1927 _1336_
*1928 _1337_
*1929 _1338_
*1930 _1339_
*1931 _1340_
*1932 _1341_
*1933 _1342_
*1934 _1343_
*1935 _1344_
*1936 _1345_
*1937 _1346_
*1938 _1347_
*1939 _1348_
*1940 _1349_
*1941 _1350_
*1942 _1351_
*1943 _1352_
*1944 _1353_
*1945 _1354_
*1946 _1355_
*1947 _1356_
*1948 _1357_
*1949 _1358_
*1950 _1359_
*1951 _1360_
*1952 _1361_
*1953 _1362_
*1954 _1363_
*1955 _1364_
*1956 _1365_
*1957 _1366_
*1958 _1367_
*1959 _1368_
*1960 _1369_
*1961 _1370_
*1962 _1371_
*1963 _1372_
*1964 _1373_
*1965 _1374_
*1966 _1375_
*1967 _1376_
*1968 _1377_
*1969 _1378_
*1970 _1379_
*1971 _1380_
*1972 _1381_
*1973 _1382_
*1974 _1383_
*1975 _1384_
*1976 _1385_
*1977 _1386_
*1978 _1387_
*1979 _1388_
*1980 _1389_
*1981 _1390_
*1982 _1391_
*1983 _1392_
*1984 _1393_
*1985 _1394_
*1986 _1395_
*1987 _1396_
*1988 _1397_
*1989 _1398_
*1990 _1399_
*1991 _1400_
*1992 _1401_
*1993 _1402_
*1994 _1403_
*1995 _1404_
*1996 _1405_
*1997 _1406_
*1998 _1407_
*1999 _1408_
*2000 _1409_
*2001 _1410_
*2002 _1411_
*2003 _1412_
*2004 _1413_
*2005 _1414_
*2006 _1415_
*2007 _1416_
*2008 _1417_
*2009 _1418_
*2010 _1419_
*2011 _1420_
*2012 _1421_
*2013 _1422_
*2014 _1423_
*2015 _1424_
*2016 _1425_
*2017 _1426_
*2018 _1427_
*2019 _1428_
*2020 _1429_
*2021 _1430_
*2022 _1431_
*2023 _1432_
*2024 _1433_
*2025 _1434_
*2026 _1435_
*2027 _1436_
*2028 _1437_
*2029 _1438_
*2030 _1439_
*2031 _1440_
*2032 _1441_
*2033 _1442_
*2034 _1443_
*2035 _1444_
*2036 _1445_
*2037 _1446_
*2038 _1447_
*2039 _1448_
*2040 _1449_
*2041 _1450_
*2137 _1450__4
*2043 _1451_
*2044 _1452_
*2045 _1453_
*2046 _1454_
*2047 _1455_
*2042 _1455__5
*2049 _1456_
*2048 _1456__6
*2051 _1457_
*2052 _1458_
*2053 _1459_
*2054 _1460_
*2055 _1461_
*2056 _1462_
*2057 _1463_
*2058 _1464_
*2059 _1465_
*2060 _1466_
*2061 _1467_
*2062 _1468_
*2063 _1469_
*2064 _1470_
*2065 _1471_
*2066 _1472_
*2067 _1473_
*2068 _1474_
*2069 _1475_
*2070 _1476_
*2071 _1477_
*2072 _1478_
*2073 _1479_
*2074 _1480_
*2075 _1481_
*2076 _1482_
*2077 _1483_
*2078 _1484_
*2079 _1485_
*2080 _1486_
*2081 _1487_
*2082 _1488_
*2083 _1489_
*2084 _1490_
*2050 _1490__7
*2229 _1506__2
*2100 _1542__3
*2238 clkbuf_0_clk_i
*2232 clkbuf_2_0__f_clk_i
*1444 clkbuf_2_1__f_clk_i
*2245 clkbuf_2_2__f_clk_i
*2280 clkbuf_2_3__f_clk_i
*2252 clkbuf_leaf_0_clk_i
*2111 clkbuf_leaf_10_clk_i
*2106 clkbuf_leaf_11_clk_i
*2091 clkbuf_leaf_12_clk_i
*2127 clkbuf_leaf_13_clk_i
*2097 clkbuf_leaf_14_clk_i
*2096 clkbuf_leaf_15_clk_i
*2126 clkbuf_leaf_16_clk_i
*1663 clkbuf_leaf_17_clk_i
*2271 clkbuf_leaf_18_clk_i
*2272 clkbuf_leaf_19_clk_i
*2249 clkbuf_leaf_1_clk_i
*2274 clkbuf_leaf_20_clk_i
*2277 clkbuf_leaf_21_clk_i
*2278 clkbuf_leaf_22_clk_i
*2276 clkbuf_leaf_23_clk_i
*2279 clkbuf_leaf_24_clk_i
*2275 clkbuf_leaf_25_clk_i
*2273 clkbuf_leaf_26_clk_i
*2121 clkbuf_leaf_27_clk_i
*2248 clkbuf_leaf_2_clk_i
*2247 clkbuf_leaf_3_clk_i
*2251 clkbuf_leaf_4_clk_i
*2250 clkbuf_leaf_5_clk_i
*2246 clkbuf_leaf_6_clk_i
*1391 clkbuf_leaf_7_clk_i
*2090 clkbuf_leaf_8_clk_i
*2112 clkbuf_leaf_9_clk_i
*2281 clkload0
*2282 hold370
*2283 hold371
*2284 hold372
*2285 hold373
*2286 hold374
*2287 hold375
*2288 hold376
*2289 hold377
*2290 hold378
*2291 hold379
*2292 hold380
*2293 hold381
*2294 hold382
*2295 hold383
*2296 hold384
*2297 hold385
*2298 hold386
*2299 hold387
*2300 hold388
*2301 hold389
*2302 hold390
*2303 hold391
*2304 hold392
*2305 hold393
*2306 hold394
*2307 hold395
*2308 hold396
*2309 hold397
*2310 hold398
*2311 hold399
*2312 hold400
*2313 hold401
*2314 hold402
*2315 hold403
*2316 hold404
*2317 hold405
*2318 hold406
*2319 hold407
*2320 hold408
*2321 hold409
*2322 hold410
*2323 hold411
*2324 hold412
*2325 hold413
*2326 hold414
*2327 hold415
*2328 hold416
*2226 input10
*2225 input11
*2224 input12
*2223 input13
*2222 input14
*2221 input15
*2220 input16
*2219 input17
*2218 input18
*2217 input19
*2216 input20
*2215 input21
*2214 input22
*2213 input23
*2212 input24
*2211 input25
*2210 input26
*2209 input27
*2208 input28
*2207 input29
*2206 input30
*2205 input31
*2204 input32
*2203 input33
*2202 input34
*2201 input35
*2200 input36
*2199 input37
*2198 input38
*2197 input39
*2196 input40
*2195 input41
*2194 input42
*2193 input43
*2192 input44
*2191 input45
*2190 input46
*2189 input47
*2188 input48
*2228 input8
*2227 input9
*2187 output49
*2186 output50
*2185 output51
*2184 output52
*2183 output53
*2182 output54
*2181 output55
*2180 output56
*2179 output57
*2178 output58
*2177 output59
*2176 output60
*2175 output61
*2174 output62
*2173 output63
*2172 output64
*2171 output65
*2170 output66
*2169 output67
*2168 output68
*2167 output69
*2166 output70
*2165 output71
*2164 output72
*2163 output73
*2162 output74
*2161 output75
*2160 output76
*2159 output77
*2158 output78
*2157 output79
*2156 output80
*2155 output81
*2154 output82
*2153 output83
*2152 output84
*2151 output85
*2150 output86
*2149 output87
*2148 output88
*2147 output89
*2146 output90
*2145 output91
*2144 output92
*2143 output93
*2142 output94
*2141 output95
*2140 output96
*2139 output97
*2138 output98
*2136 output99
*2254 place285
*2262 place286
*2256 place287
*2257 place288
*2255 place289
*2260 place290
*2135 place291
*2132 place292
*2131 place293
*2264 place294
*2265 place295
*2263 place296
*2266 place297
*2259 place298
*2261 place299
*2130 place300
*2268 place301
*2125 place302
*2124 place303
*2120 place304
*2119 place305
*2267 place306
*2269 place307
*2134 place308
*2133 place309
*2270 place310
*2258 place311
*2253 place312
*2116 place313
*2109 place314
*2118 place315
*2129 place316
*2105 place317
*2110 place318
*2108 place319
*2107 place320
*2123 place321
*2122 place322
*2128 place323
*2103 place324
*2104 place325
*2102 place326
*2099 place327
*2095 place328
*2089 place329
*2092 place330
*2098 place331
*2093 place332
*2114 place333
*2101 place334
*2113 place335
*2117 place336
*2115 place337
*1387 place338
*1253 place339
*2231 place340
*2230 place341
*2085 place342
*1386 place343
*1297 place344
*2235 place345
*2234 place346
*2236 place347
*2237 place348
*2233 place349
*2240 place350
*2242 place351
*2243 place352
*2241 place353
*2239 place354
*2244 place355
*2088 place356
*2087 place357
*1575 place358
*1574 place359
*2086 place360
*1577 place361
*2094 place362
*1480 place363
*1484 place364
*1482 place365
*1479 place366
*1497 place367
*1298 place368
*1443 place369

*PORTS
axi_lite_i[0] I
axi_lite_i[10] I
axi_lite_i[11] I
axi_lite_i[12] I
axi_lite_i[13] I
axi_lite_i[14] I
axi_lite_i[15] I
axi_lite_i[16] I
axi_lite_i[17] I
axi_lite_i[18] I
axi_lite_i[19] I
axi_lite_i[1] I
axi_lite_i[20] I
axi_lite_i[21] I
axi_lite_i[22] I
axi_lite_i[23] I
axi_lite_i[24] I
axi_lite_i[25] I
axi_lite_i[26] I
axi_lite_i[27] I
axi_lite_i[28] I
axi_lite_i[29] I
axi_lite_i[2] I
axi_lite_i[30] I
axi_lite_i[31] I
axi_lite_i[32] I
axi_lite_i[33] I
axi_lite_i[34] I
axi_lite_i[35] I
axi_lite_i[36] I
axi_lite_i[37] I
axi_lite_i[38] I
axi_lite_i[39] I
axi_lite_i[3] I
axi_lite_i[40] I
axi_lite_i[41] I
axi_lite_i[42] I
axi_lite_i[43] I
axi_lite_i[44] I
axi_lite_i[45] I
axi_lite_i[46] I
axi_lite_i[47] I
axi_lite_i[48] I
axi_lite_i[49] I
axi_lite_i[4] I
axi_lite_i[50] I
axi_lite_i[51] I
axi_lite_i[52] I
axi_lite_i[53] I
axi_lite_i[54] I
axi_lite_i[5] I
axi_lite_i[6] I
axi_lite_i[7] I
axi_lite_i[8] I
axi_lite_i[9] I
axi_lite_o[0] O
axi_lite_o[10] O
axi_lite_o[11] O
axi_lite_o[12] O
axi_lite_o[13] O
axi_lite_o[14] O
axi_lite_o[15] O
axi_lite_o[16] O
axi_lite_o[17] O
axi_lite_o[18] O
axi_lite_o[19] O
axi_lite_o[1] O
axi_lite_o[20] O
axi_lite_o[21] O
axi_lite_o[22] O
axi_lite_o[23] O
axi_lite_o[24] O
axi_lite_o[25] O
axi_lite_o[26] O
axi_lite_o[27] O
axi_lite_o[28] O
axi_lite_o[29] O
axi_lite_o[2] O
axi_lite_o[30] O
axi_lite_o[31] O
axi_lite_o[32] O
axi_lite_o[33] O
axi_lite_o[34] O
axi_lite_o[35] O
axi_lite_o[36] O
axi_lite_o[37] O
axi_lite_o[38] O
axi_lite_o[39] O
axi_lite_o[3] O
axi_lite_o[40] O
axi_lite_o[4] O
axi_lite_o[5] O
axi_lite_o[6] O
axi_lite_o[7] O
axi_lite_o[8] O
axi_lite_o[9] O
cio_gpio_en_o[0] O
cio_gpio_en_o[1] O
cio_gpio_en_o[2] O
cio_gpio_en_o[3] O
cio_gpio_i[0] I
cio_gpio_i[1] I
cio_gpio_i[2] I
cio_gpio_i[3] I
cio_gpio_o[0] O
cio_gpio_o[1] O
cio_gpio_o[2] O
cio_gpio_o[3] O
clk_i I
intr_gpio_o[0] O
intr_gpio_o[1] O
intr_gpio_o[2] O
intr_gpio_o[3] O
rst_ni I

*D_NET *1 0.000199762
*CONN
*I *2038:D I *D sg13g2_dfrbpq_1
*I *1299:X O *D sg13g2_mux2_1
*CAP
1 *2038:D 9.98809e-05
2 *1299:X 9.98809e-05
3 *2038:D *1299:A0 0
4 *2038:D *904:20 0
*RES
1 *1299:X *2038:D 40.968 
*END

*D_NET *2 0.000184897
*CONN
*I *2037:D I *D sg13g2_dfrbpq_1
*I *1303:X O *D sg13g2_mux2_1
*CAP
1 *2037:D 9.24485e-05
2 *1303:X 9.24485e-05
3 *2037:D *410:16 0
*RES
1 *1303:X *2037:D 40.968 
*END

*D_NET *3 0.000360382
*CONN
*I *2036:D I *D sg13g2_dfrbpq_1
*I *1307:X O *D sg13g2_mux2_1
*CAP
1 *2036:D 0.000151946
2 *1307:X 0.000151946
3 *2036:D *1569:A2 4.77534e-05
4 *2036:D *1851:A0 0
5 *2036:D *307:18 8.73578e-06
*RES
1 *1307:X *2036:D 41.3904 
*END

*D_NET *4 0.000867237
*CONN
*I *2034:D I *D sg13g2_dfrbpq_1
*I *1312:Y O *D sg13g2_o21ai_1
*CAP
1 *2034:D 0
2 *1312:Y 0.000179115
3 *4:8 0.000179115
4 *4:8 *313:10 0
5 *4:8 *829:48 0.000509007
*RES
1 *1312:Y *4:8 42.4112 
2 *4:8 *2034:D 40 
*END

*D_NET *5 0.000541294
*CONN
*I *2033:D I *D sg13g2_dfrbpq_1
*I *1317:Y O *D sg13g2_o21ai_1
*CAP
1 *2033:D 0
2 *1317:Y 0.000153212
3 *5:8 0.000153212
4 *5:8 *1316:B 0
5 *5:8 *1326:B 0
6 *5:8 *421:8 0.000234869
7 *5:8 *428:8 0
*RES
1 *1317:Y *5:8 41.5664 
2 *5:8 *2033:D 40 
*END

*D_NET *6 0.0013274
*CONN
*I *2032:D I *D sg13g2_dfrbpq_1
*I *1322:Y O *D sg13g2_o21ai_1
*CAP
1 *2032:D 0
2 *1322:Y 0.000165903
3 *6:8 0.000165903
4 *6:8 *1322:A1 0.000236393
5 *6:8 *1331:A 0.000234224
6 *6:8 *425:8 0.000183362
7 *6:8 *843:41 0.00034162
*RES
1 *1322:Y *6:8 42.6224 
2 *6:8 *2032:D 40 
*END

*D_NET *7 9.45957e-05
*CONN
*I *2030:D I *D sg13g2_dfrbpq_1
*I *1327:Y O *D sg13g2_o21ai_1
*CAP
1 *2030:D 4.72978e-05
2 *1327:Y 4.72978e-05
3 *2030:D *2033:RESET_B 0
*RES
1 *1327:Y *2030:D 40.5104 
*END

*D_NET *8 0.000446121
*CONN
*I *2029:D I *D sg13g2_dfrbpq_1
*I *1332:Y O *D sg13g2_o21ai_1
*CAP
1 *2029:D 0.000215333
2 *1332:Y 0.000215333
3 *2029:D *1332:B1 1.54556e-05
4 *2029:D *2032:RESET_B 0
5 *2029:D *1098:44 0
6 *2029:D *1098:66 0
7 *2029:D *1130:53 0
*RES
1 *1332:Y *2029:D 41.936 
*END

*D_NET *9 0.000513219
*CONN
*I *2028:D I *D sg13g2_dfrbpq_1
*I *1337:Y O *D sg13g2_o21ai_1
*CAP
1 *2028:D 0.000256609
2 *1337:Y 0.000256609
3 *2028:D *2303:A 0
4 *2028:D *827:12 0
5 *2028:D *914:14 0
*RES
1 *1337:Y *2028:D 42.244 
*END

*D_NET *10 0.000736832
*CONN
*I *2026:D I *D sg13g2_dfrbpq_1
*I *1342:Y O *D sg13g2_o21ai_1
*CAP
1 *2026:D 0.000329051
2 *1342:Y 0.000329051
3 *2026:D *1342:B1 1.54556e-05
4 *2026:D *2047:RESET_B 0
5 *2026:D *721:70 0
6 *2026:D *910:48 1.54556e-05
7 *2026:D *1128:39 4.78195e-05
*RES
1 *1342:Y *2026:D 43.0448 
*END

*D_NET *11 0.000351542
*CONN
*I *2025:D I *D sg13g2_dfrbpq_1
*I *1347:Y O *D sg13g2_o21ai_1
*CAP
1 *2025:D 0
2 *1347:Y 0.000175771
3 *11:8 0.000175771
4 *11:8 *1674:S 0
5 *11:8 *832:12 0
6 *11:8 *1119:30 0
7 *11:8 *1119:34 0
*RES
1 *1347:Y *11:8 41.5664 
2 *11:8 *2025:D 40 
*END

*D_NET *12 0.000370452
*CONN
*I *2024:D I *D sg13g2_dfrbpq_1
*I *1352:Y O *D sg13g2_o21ai_1
*CAP
1 *2024:D 0.00016127
2 *1352:Y 0.00016127
3 *2024:D *2255:A 4.79124e-05
*RES
1 *1352:Y *2024:D 41.628 
*END

*D_NET *13 0.00091574
*CONN
*I *2022:D I *D sg13g2_dfrbpq_1
*I *1358:Y O *D sg13g2_a21oi_1
*CAP
1 *2022:D 0.000144768
2 *1358:Y 0.000115983
3 *13:8 0.000260751
4 *2022:D *1299:A0 0
5 *2022:D *1099:66 0
6 *13:8 *825:21 0.000394239
7 *13:8 *1099:12 0
*RES
1 *1358:Y *13:8 41.5664 
2 *13:8 *2022:D 41.012 
*END

*D_NET *14 0.0010255
*CONN
*I *2021:D I *D sg13g2_dfrbpq_1
*I *1364:Y O *D sg13g2_a21oi_1
*CAP
1 *2021:D 0.000101325
2 *1364:Y 0.000289327
3 *14:10 0.000390652
4 *2021:D *410:16 0
5 *14:10 *1359:A 0
6 *14:10 *1715:A1 0.000181192
7 *14:10 *1716:B 1.54008e-05
8 *14:10 *1717:B 0
9 *14:10 *455:8 0
10 *14:10 *727:20 4.76068e-05
*RES
1 *1364:Y *14:10 42.684 
2 *14:10 *2021:D 40.8272 
*END

*D_NET *15 0.000718487
*CONN
*I *2020:D I *D sg13g2_dfrbpq_1
*I *1370:Y O *D sg13g2_a21oi_1
*CAP
1 *2020:D 0.000122467
2 *1370:Y 0.00011073
3 *15:8 0.000233197
4 *2020:D *1369:A 0.000177273
5 *2020:D *285:14 0
6 *15:8 *1369:B 7.48209e-05
7 *15:8 *1708:A 0
8 *15:8 *710:10 0
*RES
1 *1370:Y *15:8 40.9328 
2 *15:8 *2020:D 41.012 
*END

*D_NET *16 0.00618583
*CONN
*I *2016:D I *D sg13g2_dfrbpq_1
*I *1375:Y O *D sg13g2_xnor2_1
*CAP
1 *2016:D 0
2 *1375:Y 0.00120057
3 *16:20 0.000379503
4 *16:14 0.00158008
5 *16:14 *1375:B 8.03692e-05
6 *16:14 *1831:B 0.0001448
7 *16:14 *1832:A1 8.01938e-05
8 *16:14 *1832:B1 0
9 *16:14 *172:10 0.000240537
10 *16:14 *466:16 0.000112365
11 *16:14 *658:18 0.000231792
12 *16:14 *658:31 0.000155478
13 *16:14 *658:56 0
14 *16:14 *1086:14 0.000177268
15 *16:14 *1187:16 0.000694305
16 *16:20 *1381:B 0.000980407
17 *16:20 *1097:38 0.00012816
18 *16:20 *1141:56 0
19 *16:20 *1141:58 0
*RES
1 *1375:Y *16:14 31.1056 
2 *16:14 *16:20 44.9456 
3 *16:20 *2016:D 20 
*END

*D_NET *17 9.45957e-05
*CONN
*I *1990:D I *D sg13g2_dfrbpq_1
*I *1378:Y O *D sg13g2_o21ai_1
*CAP
1 *1990:D 4.72978e-05
2 *1378:Y 4.72978e-05
3 *1990:D *1861:D 0
*RES
1 *1378:Y *1990:D 40.5104 
*END

*D_NET *18 0.00037151
*CONN
*I *2012:D I *D sg13g2_dfrbpq_1
*I *1384:Y O *D sg13g2_xnor2_1
*CAP
1 *2012:D 0.000178055
2 *1384:Y 0.000178055
3 *2012:D *1965:CLK 1.54008e-05
4 *2012:D *2085:A 0
*RES
1 *1384:Y *2012:D 41.3816 
*END

*D_NET *19 0.000849778
*CONN
*I *1989:D I *D sg13g2_dfrbpq_1
*I *1388:X O *D sg13g2_mux2_1
*CAP
1 *1989:D 0.000320082
2 *1388:X 0.000320082
3 *1989:D *1963:D 0
4 *1989:D *1989:RESET_B 0
5 *1989:D *719:14 0
6 *1989:D *925:24 0
7 *1989:D *927:10 0.000209615
*RES
1 *1388:X *1989:D 42.9744 
*END

*D_NET *20 0.000422306
*CONN
*I *1988:D I *D sg13g2_dfrbpq_1
*I *1389:X O *D sg13g2_mux2_1
*CAP
1 *1988:D 0.000211153
2 *1389:X 0.000211153
3 *1988:D *1389:A1 0
4 *1988:D *719:12 0
5 *1988:D *719:14 0
*RES
1 *1389:X *1988:D 41.892 
*END

*D_NET *21 0.000401697
*CONN
*I *1987:D I *D sg13g2_dfrbpq_1
*I *1390:X O *D sg13g2_mux2_1
*CAP
1 *1987:D 0.000200849
2 *1390:X 0.000200849
3 *1987:D *1390:A1 0
4 *1987:D *505:18 0
*RES
1 *1390:X *1987:D 41.892 
*END

*D_NET *22 0.000240748
*CONN
*I *1986:D I *D sg13g2_dfrbpq_1
*I *1394:Y O *D sg13g2_a21oi_1
*CAP
1 *1986:D 0.000120374
2 *1394:Y 0.000120374
3 *1986:D *844:84 0
*RES
1 *1394:Y *1986:D 41.012 
*END

*D_NET *23 0.00112354
*CONN
*I *1985:D I *D sg13g2_dfrbpq_1
*I *1396:Y O *D sg13g2_a21oi_1
*CAP
1 *1985:D 0.000561771
2 *1396:Y 0.000561771
3 *1985:D *1394:A2 0
4 *1985:D *1396:B1 0
5 *1985:D *721:59 0
6 *1985:D *844:67 0
7 *1985:D *844:84 0
*RES
1 *1396:Y *1985:D 45.0072 
*END

*D_NET *24 0.000592421
*CONN
*I *1984:D I *D sg13g2_dfrbpq_1
*I *1398:Y O *D sg13g2_a21oi_1
*CAP
1 *1984:D 0.00029621
2 *1398:Y 0.00029621
3 *1984:D *1984:RESET_B 0
4 *1984:D *2122:A 0
5 *1984:D *939:47 0
*RES
1 *1398:Y *1984:D 42.8776 
*END

*D_NET *25 0.000266754
*CONN
*I *1983:D I *D sg13g2_dfrbpq_1
*I *1400:Y O *D sg13g2_a21oi_1
*CAP
1 *1983:D 0.000133377
2 *1400:Y 0.000133377
3 *1983:D *1959:CLK 0
4 *1983:D *939:21 0
*RES
1 *1400:Y *1983:D 41.012 
*END

*D_NET *26 0.000415004
*CONN
*I *1982:D I *D sg13g2_dfrbpq_1
*I *1403:Y O *D sg13g2_a21oi_1
*CAP
1 *1982:D 0.000207502
2 *1403:Y 0.000207502
3 *1982:D *1403:B1 0
4 *1982:D *1983:RESET_B 0
*RES
1 *1403:Y *1982:D 41.892 
*END

*D_NET *27 0.000224945
*CONN
*I *1981:D I *D sg13g2_dfrbpq_1
*I *1405:Y O *D sg13g2_a21oi_1
*CAP
1 *1981:D 0.000112472
2 *1405:Y 0.000112472
3 *1981:D *1405:A2 0
4 *1981:D *919:12 0
*RES
1 *1405:Y *1981:D 41.2056 
*END

*D_NET *28 0.000332218
*CONN
*I *1980:D I *D sg13g2_dfrbpq_1
*I *1407:Y O *D sg13g2_a21oi_1
*CAP
1 *1980:D 0.000166109
2 *1407:Y 0.000166109
3 *1980:D *1977:D 0
4 *1980:D *1978:RESET_B 0
5 *1980:D *911:27 0
*RES
1 *1407:Y *1980:D 41.3112 
*END

*D_NET *29 0.000415351
*CONN
*I *1979:D I *D sg13g2_dfrbpq_1
*I *1409:Y O *D sg13g2_a21oi_1
*CAP
1 *1979:D 0
2 *1409:Y 9.00614e-05
3 *29:8 9.00614e-05
4 *29:8 *1320:A2 0
5 *29:8 *1409:A1 0.000235228
6 *29:8 *911:97 0
*RES
1 *1409:Y *29:8 41.144 
2 *29:8 *1979:D 40 
*END

*D_NET *30 0.000232763
*CONN
*I *1978:D I *D sg13g2_dfrbpq_1
*I *1412:Y O *D sg13g2_a21oi_1
*CAP
1 *1978:D 0.000116381
2 *1412:Y 0.000116381
3 *1978:D *911:40 0
*RES
1 *1412:Y *1978:D 41.2056 
*END

*D_NET *31 0.00120245
*CONN
*I *1977:D I *D sg13g2_dfrbpq_1
*I *1414:Y O *D sg13g2_a21oi_1
*CAP
1 *1977:D 0.000383807
2 *1414:Y 0.000383807
3 *1977:D *1407:B1 8.01938e-05
4 *1977:D *1413:B 0
5 *1977:D *1414:A2 4.78521e-05
6 *1977:D *911:27 0
7 *1977:D *942:8 0.000306794
8 *1980:D *1977:D 0
*RES
1 *1414:Y *1977:D 43.4848 
*END

*D_NET *32 0.000512877
*CONN
*I *1976:D I *D sg13g2_dfrbpq_1
*I *1416:Y O *D sg13g2_a21oi_1
*CAP
1 *1976:D 0
2 *1416:Y 4.79341e-05
3 *32:8 4.79341e-05
4 *32:8 *1320:A2 0.000235228
5 *32:8 *1416:A1 0.000181781
6 *32:8 *720:12 0
*RES
1 *1416:Y *32:8 40.9328 
2 *32:8 *1976:D 40 
*END

*D_NET *33 0.000363783
*CONN
*I *1975:D I *D sg13g2_dfrbpq_1
*I *1418:Y O *D sg13g2_a21oi_1
*CAP
1 *1975:D 0.000181891
2 *1418:Y 0.000181891
3 *1975:D *907:6 0
4 *1975:D *907:17 0
5 *1975:D *919:35 0
*RES
1 *1418:Y *1975:D 41.5224 
*END

*D_NET *34 0.000355189
*CONN
*I *1974:D I *D sg13g2_dfrbpq_1
*I *1421:Y O *D sg13g2_a21oi_1
*CAP
1 *1974:D 0
2 *1421:Y 8.67042e-05
3 *34:8 8.67042e-05
4 *34:8 *493:25 0.000181781
5 *34:8 *907:44 0
6 *34:8 *1027:27 0
*RES
1 *1421:Y *34:8 40.9328 
2 *34:8 *1974:D 40 
*END

*D_NET *35 0.00039303
*CONN
*I *1973:D I *D sg13g2_dfrbpq_1
*I *1423:Y O *D sg13g2_a21oi_1
*CAP
1 *1973:D 0.000196515
2 *1423:Y 0.000196515
3 *1973:D *720:67 0
4 *1973:D *905:14 0
5 *1973:D *905:24 0
*RES
1 *1423:Y *1973:D 41.6808 
*END

*D_NET *36 0.000864458
*CONN
*I *1972:D I *D sg13g2_dfrbpq_1
*I *1425:Y O *D sg13g2_a21oi_1
*CAP
1 *1972:D 0.000168659
2 *1425:Y 0.00026357
3 *36:8 0.000432229
4 *1972:D *1355:A 0
5 *1972:D *905:71 0
6 *1972:D *905:81 0
7 *36:8 *1971:RESET_B 0
8 *36:8 *496:12 0
9 *36:8 *905:71 0
10 *36:8 *1113:50 0
*RES
1 *1425:Y *36:8 42.4112 
2 *36:8 *1972:D 41.5664 
*END

*D_NET *37 0.00130688
*CONN
*I *1971:D I *D sg13g2_dfrbpq_1
*I *1427:Y O *D sg13g2_a21oi_1
*CAP
1 *1971:D 0.00015122
2 *1427:Y 0.000381212
3 *37:8 0.000532433
4 *1971:D *900:12 0
5 *1971:D *1054:10 0.000242017
6 *37:8 *1971:RESET_B 0
7 *37:8 *458:8 0
8 *37:8 *497:8 0
9 *37:8 *920:21 0
*RES
1 *1427:Y *37:8 43.0448 
2 *37:8 *1971:D 41.3816 
*END

*D_NET *38 0.000301486
*CONN
*I *1970:D I *D sg13g2_dfrbpq_1
*I *1430:Y O *D sg13g2_a21oi_1
*CAP
1 *1970:D 0.000150743
2 *1430:Y 0.000150743
3 *1970:D *721:102 0
4 *1970:D *1113:22 0
*RES
1 *1430:Y *1970:D 41.3112 
*END

*D_NET *39 0.000286814
*CONN
*I *1969:D I *D sg13g2_dfrbpq_1
*I *1432:Y O *D sg13g2_a21oi_1
*CAP
1 *1969:D 0.000135706
2 *1432:Y 0.000135706
3 *1969:D *1432:B1 1.54008e-05
4 *1969:D *914:38 0
*RES
1 *1432:Y *1969:D 41.012 
*END

*D_NET *40 0.000563655
*CONN
*I *1968:D I *D sg13g2_dfrbpq_1
*I *1434:Y O *D sg13g2_a21oi_1
*CAP
1 *1968:D 0
2 *1434:Y 0.000193515
3 *40:10 0.000193515
4 *40:10 *1434:A1 0.000176625
5 *40:10 *1434:B1 0
6 *40:10 *611:10 0
7 *40:10 *920:88 0
8 *40:10 *1165:10 0
*RES
1 *1434:Y *40:10 41.5224 
2 *40:10 *1968:D 40 
*END

*D_NET *41 0.000462952
*CONN
*I *1967:D I *D sg13g2_dfrbpq_1
*I *1436:Y O *D sg13g2_a21oi_1
*CAP
1 *1967:D 0.000231476
2 *1436:Y 0.000231476
3 *1967:D *1941:RESET_B 0
4 *1967:D *2303:A 0
*RES
1 *1436:Y *1967:D 41.892 
*END

*D_NET *42 0.000331029
*CONN
*I *1966:D I *D sg13g2_dfrbpq_1
*I *1438:Y O *D sg13g2_a21oi_1
*CAP
1 *1966:D 0.000165514
2 *1438:Y 0.000165514
3 *1966:D *1438:A2 0
4 *1966:D *1438:B1 0
5 *1966:D *1966:RESET_B 0
*RES
1 *1438:Y *1966:D 41.3112 
*END

*D_NET *43 0.00252051
*CONN
*I *1965:D I *D sg13g2_dfrbpq_1
*I *1439:X O *D sg13g2_mux2_1
*CAP
1 *1965:D 0
2 *1439:X 0.000837935
3 *43:10 0.000837935
4 *43:10 *1471:A1 0
5 *43:10 *1938:RESET_B 0
6 *43:10 *1073:8 0
7 *43:10 *1112:12 0.000127744
8 *43:10 *1112:25 0.000716897
9 *43:10 *1112:38 0
10 *43:10 *1143:23 0
*RES
1 *1439:X *43:10 48.6504 
2 *43:10 *1965:D 40 
*END

*D_NET *44 0.000773594
*CONN
*I *1964:D I *D sg13g2_dfrbpq_1
*I *1440:X O *D sg13g2_mux2_1
*CAP
1 *1964:D 0
2 *1440:X 0.000258028
3 *44:10 0.000258028
4 *44:10 *2011:RESET_B 1.54008e-05
5 *44:10 *475:27 0.000242137
6 *44:10 *1072:12 0
7 *44:10 *1072:18 0
8 *44:10 *1079:27 0
*RES
1 *1440:X *44:10 42.5256 
2 *44:10 *1964:D 40 
*END

*D_NET *45 0.00022645
*CONN
*I *1963:D I *D sg13g2_dfrbpq_1
*I *1445:X O *D sg13g2_mux2_1
*CAP
1 *1963:D 0.000105524
2 *1445:X 0.000105524
3 *1963:D *1445:A0 0
4 *1963:D *927:10 1.54008e-05
5 *1989:D *1963:D 0
*RES
1 *1445:X *1963:D 40.968 
*END

*D_NET *46 0.000210865
*CONN
*I *1962:D I *D sg13g2_dfrbpq_1
*I *1446:X O *D sg13g2_mux2_1
*CAP
1 *1962:D 0.000105432
2 *1446:X 0.000105432
3 *1962:D *719:8 0
4 *1962:D *719:12 0
5 *1962:D *925:58 0
*RES
1 *1446:X *1962:D 40.968 
*END

*D_NET *47 0.000389245
*CONN
*I *1961:D I *D sg13g2_dfrbpq_1
*I *1448:Y O *D sg13g2_a21oi_1
*CAP
1 *1961:D 0.000122151
2 *1448:Y 0.000122151
3 *1961:D *1448:B1 0.000144942
4 *1961:D *505:31 0
*RES
1 *1448:Y *1961:D 41.012 
*END

*D_NET *48 0.000449579
*CONN
*I *1960:D I *D sg13g2_dfrbpq_1
*I *1449:X O *D sg13g2_mux2_1
*CAP
1 *1960:D 0.00022479
2 *1449:X 0.00022479
3 *1960:D *927:40 0
*RES
1 *1449:X *1960:D 42.1912 
*END

*D_NET *49 0.000240137
*CONN
*I *1959:D I *D sg13g2_dfrbpq_1
*I *1450:X O *D sg13g2_mux2_1
*CAP
1 *1959:D 9.61505e-05
2 *1450:X 9.61505e-05
3 *1959:D *1960:CLK 0
4 *1959:D *2089:A 0
5 *1959:D *925:68 4.78359e-05
*RES
1 *1450:X *1959:D 40.968 
*END

*D_NET *50 0.000203984
*CONN
*I *1958:D I *D sg13g2_dfrbpq_1
*I *1451:X O *D sg13g2_mux2_1
*CAP
1 *1958:D 0.000101992
2 *1451:X 0.000101992
3 *1958:D *1451:S 0
4 *1958:D *903:17 0
*RES
1 *1451:X *1958:D 40.968 
*END

*D_NET *51 0.000528115
*CONN
*I *1957:D I *D sg13g2_dfrbpq_1
*I *1452:X O *D sg13g2_mux2_1
*CAP
1 *1957:D 0.000264057
2 *1452:X 0.000264057
3 *1957:D *1452:A1 0
4 *1957:D *1957:RESET_B 0
5 *1957:D *628:8 0
6 *1957:D *927:55 0
7 *1957:D *927:66 0
*RES
1 *1452:X *1957:D 42.2616 
*END

*D_NET *52 0.00022204
*CONN
*I *1956:D I *D sg13g2_dfrbpq_1
*I *1453:X O *D sg13g2_mux2_1
*CAP
1 *1956:D 0.000103314
2 *1453:X 0.000103314
3 *1956:D *1453:A1 0
4 *1956:D *903:27 1.5412e-05
*RES
1 *1453:X *1956:D 40.968 
*END

*D_NET *53 0.000460452
*CONN
*I *1955:D I *D sg13g2_dfrbpq_1
*I *1454:X O *D sg13g2_mux2_1
*CAP
1 *1955:D 0.000230226
2 *1454:X 0.000230226
3 *1955:D *1453:S 0
4 *1955:D *903:27 0
5 *1955:D *906:31 0
*RES
1 *1454:X *1955:D 42.0504 
*END

*D_NET *54 0.000210047
*CONN
*I *1954:D I *D sg13g2_dfrbpq_1
*I *1455:X O *D sg13g2_mux2_1
*CAP
1 *1954:D 0.000105023
2 *1455:X 0.000105023
3 *1954:D *1954:RESET_B 0
4 *1954:D *903:38 0
*RES
1 *1455:X *1954:D 40.968 
*END

*D_NET *55 0.000201944
*CONN
*I *1953:D I *D sg13g2_dfrbpq_1
*I *1456:X O *D sg13g2_mux2_1
*CAP
1 *1953:D 9.32787e-05
2 *1456:X 9.32787e-05
3 *1953:D *1456:S 0
4 *1953:D *1953:RESET_B 1.53871e-05
*RES
1 *1456:X *1953:D 40.968 
*END

*D_NET *56 0.000276912
*CONN
*I *1952:D I *D sg13g2_dfrbpq_1
*I *1457:X O *D sg13g2_mux2_1
*CAP
1 *1952:D 0.000138456
2 *1457:X 0.000138456
3 *1952:D *1952:RESET_B 0
4 *1952:D *927:85 0
*RES
1 *1457:X *1952:D 41.3904 
*END

*D_NET *57 0.000784194
*CONN
*I *1951:D I *D sg13g2_dfrbpq_1
*I *1458:X O *D sg13g2_mux2_1
*CAP
1 *1951:D 0
2 *1458:X 0.000263328
3 *57:10 0.000263328
4 *57:10 *1413:A 0
5 *57:10 *1415:A 0
6 *57:10 *621:10 0
7 *57:10 *903:38 0.000242137
8 *57:10 *903:47 1.54008e-05
*RES
1 *1458:X *57:10 42.5256 
2 *57:10 *1951:D 40 
*END

*D_NET *58 0.00020891
*CONN
*I *1950:D I *D sg13g2_dfrbpq_1
*I *1459:X O *D sg13g2_mux2_1
*CAP
1 *1950:D 0.000104455
2 *1459:X 0.000104455
*RES
1 *1459:X *1950:D 40.968 
*END

*D_NET *59 0.000277931
*CONN
*I *1949:D I *D sg13g2_dfrbpq_1
*I *1460:X O *D sg13g2_mux2_1
*CAP
1 *1949:D 9.88466e-05
2 *1460:X 9.88466e-05
3 *1949:D *1460:A0 0
4 *1949:D *619:6 0
5 *1949:D *915:8 8.02379e-05
*RES
1 *1460:X *1949:D 40.968 
*END

*D_NET *60 0.000181063
*CONN
*I *1948:D I *D sg13g2_dfrbpq_1
*I *1461:X O *D sg13g2_mux2_1
*CAP
1 *1948:D 9.05313e-05
2 *1461:X 9.05313e-05
3 *1948:D *1461:A0 0
4 *1948:D *1948:RESET_B 0
*RES
1 *1461:X *1948:D 40.968 
*END

*D_NET *61 0.000602235
*CONN
*I *1947:D I *D sg13g2_dfrbpq_1
*I *1462:X O *D sg13g2_mux2_1
*CAP
1 *1947:D 8.55472e-05
2 *1462:X 0.00021557
3 *61:8 0.000301118
4 *61:8 *1422:A 0
5 *61:8 *1462:A1 0
*RES
1 *1462:X *61:8 41.7776 
2 *61:8 *1947:D 40.6424 
*END

*D_NET *62 0.000578314
*CONN
*I *1946:D I *D sg13g2_dfrbpq_1
*I *1463:X O *D sg13g2_mux2_1
*CAP
1 *1946:D 0.000265201
2 *1463:X 0.000265201
3 *1946:D *1463:A0 0
4 *1946:D *905:81 0
5 *1946:D *905:98 4.79124e-05
6 *1946:D *915:72 0
*RES
1 *1463:X *1946:D 42.4728 
*END

*D_NET *63 0.00258049
*CONN
*I *1945:D I *D sg13g2_dfrbpq_1
*I *1464:X O *D sg13g2_mux2_1
*CAP
1 *1945:D 0
2 *1464:X 0.000661246
3 *63:10 0.000661246
4 *63:10 *614:8 0.000144942
5 *63:10 *900:38 0
6 *63:10 *900:71 0
7 *63:10 *915:87 0
8 *63:10 *1077:8 0
9 *63:10 *1077:27 0
10 *63:10 *1078:25 0.00103784
11 *63:10 *1171:10 7.52149e-05
*RES
1 *1464:X *63:10 47.5944 
2 *63:10 *1945:D 40 
*END

*D_NET *64 0.00021149
*CONN
*I *1944:D I *D sg13g2_dfrbpq_1
*I *1465:X O *D sg13g2_mux2_1
*CAP
1 *1944:D 0.000105745
2 *1465:X 0.000105745
3 *1944:D *720:56 0
4 *1944:D *915:8 0
5 *1944:D *915:42 0
*RES
1 *1465:X *1944:D 40.968 
*END

*D_NET *65 0.00019665
*CONN
*I *1943:D I *D sg13g2_dfrbpq_1
*I *1466:X O *D sg13g2_mux2_1
*CAP
1 *1943:D 9.83249e-05
2 *1466:X 9.83249e-05
3 *1943:D *1466:A1 0
4 *1943:D *914:38 0
*RES
1 *1466:X *1943:D 40.968 
*END

*D_NET *66 0.000258523
*CONN
*I *1942:D I *D sg13g2_dfrbpq_1
*I *1467:X O *D sg13g2_mux2_1
*CAP
1 *1942:D 8.90769e-05
2 *1467:X 8.90769e-05
3 *1942:D *1467:A0 0
4 *1942:D *920:73 8.03692e-05
*RES
1 *1467:X *1942:D 40.968 
*END

*D_NET *67 0.00202477
*CONN
*I *1941:D I *D sg13g2_dfrbpq_1
*I *1468:X O *D sg13g2_mux2_1
*CAP
1 *1941:D 0.000204679
2 *1468:X 0.000259039
3 *67:8 0.000463719
4 *1941:D *1436:B1 4.77425e-05
5 *1941:D *2303:A 0
6 *1941:D *920:47 0
7 *1941:D *920:57 4.77425e-05
8 *67:8 *411:12 0
9 *67:8 *453:8 0.000766377
10 *67:8 *920:57 0.00023547
*RES
1 *1468:X *67:8 43.0448 
2 *67:8 *1941:D 41.7512 
*END

*D_NET *68 0.00233493
*CONN
*I *1940:D I *D sg13g2_dfrbpq_1
*I *1469:X O *D sg13g2_mux2_1
*CAP
1 *1940:D 0.00100425
2 *1469:X 0.000123156
3 *68:8 0.0011274
4 *1940:D *1817:A 0
5 *1940:D *1817:B 8.0128e-05
6 *1940:D *1818:B1 0
7 *1940:D *1863:D 0
8 *1940:D *475:49 0
9 *1940:D *475:58 0
10 *1940:D *653:20 0
11 *1940:D *707:14 0
12 *1940:D *1079:8 0
13 *1940:D *1100:49 0
14 *68:8 *913:18 0
15 *68:8 *1143:10 0
*RES
1 *1469:X *68:8 41.144 
2 *68:8 *1940:D 48.3336 
*END

*D_NET *69 0.00269749
*CONN
*I *1939:D I *D sg13g2_dfrbpq_1
*I *1470:X O *D sg13g2_mux2_1
*CAP
1 *1939:D 0
2 *1470:X 0.000498815
3 *69:10 0.000498815
4 *69:10 *1470:A0 0
5 *69:10 *505:64 0.000767121
6 *69:10 *505:81 0.000318607
7 *69:10 *653:20 0.000307067
8 *69:10 *707:14 0.000307067
9 *69:10 *1141:58 0
*RES
1 *1470:X *69:10 46.0632 
2 *69:10 *1939:D 40 
*END

*D_NET *70 0.00077181
*CONN
*I *1938:D I *D sg13g2_dfrbpq_1
*I *1471:X O *D sg13g2_mux2_1
*CAP
1 *1938:D 0.000305628
2 *1471:X 0.000305628
3 *1938:D *1439:A0 4.79124e-05
4 *1938:D *1440:A0 0.000112642
5 *1938:D *1471:A1 0
6 *1938:D *650:12 0
*RES
1 *1471:X *1938:D 42.5608 
*END

*D_NET *71 0.000306638
*CONN
*I *2008:D I *D sg13g2_dfrbpq_1
*I *1475:Y O *D sg13g2_xnor2_1
*CAP
1 *2008:D 0.000153319
2 *1475:Y 0.000153319
3 *2008:D *2006:RESET_B 0
4 *2008:D *511:6 0
*RES
1 *1475:Y *2008:D 41.3816 
*END

*D_NET *72 0.00129383
*CONN
*I *1937:D I *D sg13g2_dfrbpq_1
*I *1485:Y O *D sg13g2_o21ai_1
*CAP
1 *1937:D 0.000421825
2 *1485:Y 0.000421825
3 *1937:D *1196:A 0.000274611
4 *1937:D *1932:D 0.000112426
5 *1937:D *930:31 4.77425e-05
6 *1937:D *930:33 1.54008e-05
7 *1937:D *1103:68 0
*RES
1 *1485:Y *1937:D 43.828 
*END

*D_NET *73 0.0017527
*CONN
*I *1936:D I *D sg13g2_dfrbpq_1
*I *1486:Y O *D sg13g2_o21ai_1
*CAP
1 *1936:D 0
2 *1486:Y 0.000438306
3 *73:10 0.000438306
4 *73:10 *1213:A 0
5 *73:10 *2277:A 0
6 *73:10 *507:44 0
7 *73:10 *1103:8 0
8 *73:10 *1103:18 0.00087609
9 *73:10 *1126:74 0
10 *73:10 *1145:15 0
*RES
1 *1486:Y *73:10 45.324 
2 *73:10 *1936:D 40 
*END

*D_NET *74 0.000820546
*CONN
*I *1935:D I *D sg13g2_dfrbpq_1
*I *1487:Y O *D sg13g2_o21ai_1
*CAP
1 *1935:D 0
2 *1487:Y 0.000321625
3 *74:10 0.000321625
4 *74:10 *1223:B 0
5 *74:10 *1935:RESET_B 0
6 *74:10 *1935:CLK 0
7 *74:10 *506:14 0.000177295
*RES
1 *1487:Y *74:10 43.212 
2 *74:10 *1935:D 40 
*END

*D_NET *75 0.000328182
*CONN
*I *1934:D I *D sg13g2_dfrbpq_1
*I *1488:Y O *D sg13g2_o21ai_1
*CAP
1 *1934:D 0.000164091
2 *1488:Y 0.000164091
3 *1934:D *2277:A 0
4 *1934:D *1103:27 0
*RES
1 *1488:Y *1934:D 41.3112 
*END

*D_NET *76 0.000611272
*CONN
*I *1933:D I *D sg13g2_dfrbpq_1
*I *1489:Y O *D sg13g2_o21ai_1
*CAP
1 *1933:D 0.000265594
2 *1489:Y 0.000265594
3 *1933:D *1230:B1 8.00842e-05
4 *1933:D *1236:A1 0
5 *1933:D *1491:A2 0
*RES
1 *1489:Y *1933:D 42.2352 
*END

*D_NET *77 0.0024719
*CONN
*I *1932:D I *D sg13g2_dfrbpq_1
*I *1490:Y O *D sg13g2_o21ai_1
*CAP
1 *1932:D 0.000680472
2 *1490:Y 0.000680472
3 *1932:D *930:33 0.000306145
4 *1932:D *930:39 1.54556e-05
5 *1932:D *1002:10 4.72458e-05
6 *1932:D *1103:36 0.000209164
7 *1932:D *1103:66 0.000420523
8 *1937:D *1932:D 0.000112426
*RES
1 *1490:Y *1932:D 46.16 
*END

*D_NET *78 0.000740966
*CONN
*I *1931:D I *D sg13g2_dfrbpq_1
*I *1491:Y O *D sg13g2_o21ai_1
*CAP
1 *1931:D 0.000249343
2 *1491:Y 0.000249343
3 *1931:D *1235:B 0
4 *1931:D *1236:B1 0.000242281
*RES
1 *1491:Y *1931:D 42.2352 
*END

*D_NET *79 0.00189972
*CONN
*I *1930:D I *D sg13g2_dfrbpq_1
*I *1492:Y O *D sg13g2_o21ai_1
*CAP
1 *1930:D 0.000608696
2 *1492:Y 0.000233342
3 *79:10 0.000842038
4 *1930:D *1232:B 0
5 *1930:D *1492:A1 0
6 *1930:D *1589:A 8.00842e-05
7 *1930:D *2272:A 0
8 *1930:D *506:44 0
9 *1930:D *506:61 0
10 *1930:D *506:70 0
11 *1930:D *1105:96 0
12 *79:10 *1492:B1 7.31538e-06
13 *79:10 *588:8 0.000128247
14 *79:10 *1105:73 0
*RES
1 *1492:Y *79:10 41.8392 
2 *79:10 *1930:D 45.4648 
*END

*D_NET *80 0.000410504
*CONN
*I *1929:D I *D sg13g2_dfrbpq_1
*I *1493:Y O *D sg13g2_o21ai_1
*CAP
1 *1929:D 0.000205252
2 *1493:Y 0.000205252
3 *1929:D *1221:A1 0
4 *1929:D *1493:B1 0
5 *1929:D *682:12 0
6 *1929:D *1103:27 0
7 *1929:D *1103:36 0
8 *1929:D *1126:30 0
9 *1929:D *1126:47 0
*RES
1 *1493:Y *1929:D 41.7336 
*END

*D_NET *81 0.00348483
*CONN
*I *1928:D I *D sg13g2_dfrbpq_1
*I *1494:Y O *D sg13g2_o21ai_1
*CAP
1 *1928:D 0.000125782
2 *1494:Y 0.00096481
3 *81:10 0.00109059
4 *1928:D *328:10 0.000399681
5 *81:10 *1198:A1 0
6 *81:10 *1198:B1 0
7 *81:10 *1704:B1 0
8 *81:10 *1928:RESET_B 0.000144349
9 *81:10 *323:27 0
10 *81:10 *518:26 0
11 *81:10 *519:36 0
12 *81:10 *790:17 0
13 *81:10 *930:10 0
14 *81:10 *930:16 0
15 *81:10 *1183:14 0.000759614
*RES
1 *1494:Y *81:10 49.2312 
2 *81:10 *1928:D 41.5664 
*END

*D_NET *82 0.00246731
*CONN
*I *1927:D I *D sg13g2_dfrbpq_1
*I *1495:Y O *D sg13g2_o21ai_1
*CAP
1 *1927:D 0
2 *1495:Y 0.00049969
3 *82:10 0.00049969
4 *82:10 *1495:B1 4.77425e-05
5 *82:10 *516:21 0.000112426
6 *82:10 *930:16 0.000306832
7 *82:10 *1126:26 0
8 *82:10 *1142:40 0.000287672
9 *82:10 *1142:44 0.000713259
*RES
1 *1495:Y *82:10 45.8256 
2 *82:10 *1927:D 40 
*END

*D_NET *83 0.00039897
*CONN
*I *1926:D I *D sg13g2_dfrbpq_1
*I *1500:Y O *D sg13g2_a21oi_1
*CAP
1 *1926:D 0.000110865
2 *1500:Y 0.000110865
3 *1926:D *523:16 0.00017724
4 *1926:D *893:10 0
*RES
1 *1500:Y *1926:D 41.012 
*END

*D_NET *84 0.000470769
*CONN
*I *1925:D I *D sg13g2_dfrbpq_1
*I *1503:Y O *D sg13g2_a21oi_1
*CAP
1 *1925:D 0.000179471
2 *1503:Y 0.000179471
3 *1925:D *525:14 0.000111827
4 *1925:D *1101:10 0
5 *1925:D *1101:18 0
6 *1925:D *1109:37 0
*RES
1 *1503:Y *1925:D 41.5224 
*END

*D_NET *85 0.00117648
*CONN
*I *1924:D I *D sg13g2_dfrbpq_1
*I *1506:Y O *D sg13g2_a21oi_1
*CAP
1 *1924:D 0.000134406
2 *1506:Y 0.000416272
3 *85:8 0.000550678
4 *1924:D *1101:49 0
5 *85:8 *525:14 0
6 *85:8 *528:8 7.51285e-05
*RES
1 *1506:Y *85:8 43.8896 
2 *85:8 *1924:D 41.012 
*END

*D_NET *86 0.000354863
*CONN
*I *1923:D I *D sg13g2_dfrbpq_1
*I *1509:Y O *D sg13g2_a21oi_1
*CAP
1 *1923:D 0.000177432
2 *1509:Y 0.000177432
3 *1923:D *1507:A2 0
4 *1923:D *1923:RESET_B 0
*RES
1 *1509:Y *1923:D 41.5224 
*END

*D_NET *87 0.0010109
*CONN
*I *1922:D I *D sg13g2_dfrbpq_1
*I *1512:Y O *D sg13g2_a21oi_1
*CAP
1 *1922:D 5.64392e-05
2 *1512:Y 9.99144e-05
3 *87:10 0.000156354
4 *1922:D *1891:D 0
5 *87:10 *1511:A 0.000341119
6 *87:10 *1512:B1 1.54556e-05
7 *87:10 *695:12 0.00034162
*RES
1 *1512:Y *87:10 41.628 
2 *87:10 *1922:D 40.4576 
*END

*D_NET *88 0.000416333
*CONN
*I *1921:D I *D sg13g2_dfrbpq_1
*I *1515:Y O *D sg13g2_a21oi_1
*CAP
1 *1921:D 0.000197443
2 *1515:Y 0.000197443
3 *1921:D *1515:A2 2.14475e-05
4 *1921:D *1547:A 0
5 *1921:D *1696:A2 0
6 *1921:D *1921:RESET_B 0
7 *1921:D *522:46 0
*RES
1 *1515:Y *1921:D 41.6808 
*END

*D_NET *89 0.000872645
*CONN
*I *1920:D I *D sg13g2_dfrbpq_1
*I *1518:Y O *D sg13g2_a21oi_1
*CAP
1 *1920:D 4.44638e-05
2 *1518:Y 0.000167899
3 *89:12 0.000212363
4 *1920:D *1889:D 7.97712e-05
5 *1920:D *931:34 7.97712e-05
6 *89:12 *541:14 0.000288377
*RES
1 *1518:Y *89:12 41.716 
2 *89:12 *1920:D 40.4576 
*END

*D_NET *90 0.000637965
*CONN
*I *1919:D I *D sg13g2_dfrbpq_1
*I *1521:Y O *D sg13g2_a21oi_1
*CAP
1 *1919:D 0.000102527
2 *1521:Y 0.000127794
3 *90:8 0.000230321
4 *1919:D *723:85 0.000177323
5 *1919:D *1131:10 0
6 *90:8 *1919:RESET_B 0
7 *90:8 *537:12 0
8 *90:8 *723:76 0
9 *90:8 *723:93 0
*RES
1 *1521:Y *90:8 41.144 
2 *90:8 *1919:D 41.012 
*END

*D_NET *91 0.000873328
*CONN
*I *1918:D I *D sg13g2_dfrbpq_1
*I *1524:Y O *D sg13g2_a21oi_1
*CAP
1 *1918:D 0.000436664
2 *1524:Y 0.000436664
3 *1918:D *1921:CLK 0
4 *1918:D *539:12 0
5 *1918:D *723:12 0
6 *1918:D *723:25 0
7 *1918:D *723:34 0
8 *1918:D *1108:70 0
*RES
1 *1524:Y *1918:D 43.9776 
*END

*D_NET *92 0.000740375
*CONN
*I *1917:D I *D sg13g2_dfrbpq_1
*I *1527:Y O *D sg13g2_a21oi_1
*CAP
1 *1917:D 0.000230825
2 *1527:Y 0.000230825
3 *1917:D *2119:A 0
4 *1917:D *522:55 0
5 *1917:D *1110:102 0.000278726
*RES
1 *1527:Y *1917:D 42.4024 
*END

*D_NET *93 0.000933453
*CONN
*I *1916:D I *D sg13g2_dfrbpq_1
*I *1530:Y O *D sg13g2_a21oi_1
*CAP
1 *1916:D 0.000459026
2 *1530:Y 0.000459026
3 *1916:D *1530:A1 1.54008e-05
4 *1916:D *1913:D 0
5 *1916:D *1134:30 0
6 *1916:D *1134:43 0
7 *1916:D *1135:12 0
8 *1916:D *1135:79 0
*RES
1 *1530:Y *1916:D 43.7312 
*END

*D_NET *94 0.00101837
*CONN
*I *1915:D I *D sg13g2_dfrbpq_1
*I *1533:Y O *D sg13g2_a21oi_1
*CAP
1 *1915:D 0.000112661
2 *1533:Y 0.000137379
3 *94:8 0.00025004
4 *1915:D *1133:15 0.000175581
5 *1915:D *1137:40 0
6 *94:8 *543:8 0.000342708
*RES
1 *1533:Y *94:8 41.3552 
2 *94:8 *1915:D 41.012 
*END

*D_NET *95 0.000268616
*CONN
*I *1914:D I *D sg13g2_dfrbpq_1
*I *1537:Y O *D sg13g2_a21oi_1
*CAP
1 *1914:D 0.000134308
2 *1537:Y 0.000134308
3 *1914:D *1624:A1 0
4 *1914:D *1883:D 0
*RES
1 *1537:Y *1914:D 41.2936 
*END

*D_NET *96 0.000509441
*CONN
*I *1913:D I *D sg13g2_dfrbpq_1
*I *1540:Y O *D sg13g2_a21oi_1
*CAP
1 *1913:D 0.000230792
2 *1540:Y 0.000230792
3 *1913:D *1540:B1 0
4 *1913:D *1882:RESET_B 0
5 *1913:D *1134:47 0
6 *1913:D *1135:79 4.7856e-05
7 *1916:D *1913:D 0
*RES
1 *1540:Y *1913:D 42.1912 
*END

*D_NET *97 0.000681536
*CONN
*I *1912:D I *D sg13g2_dfrbpq_1
*I *1543:Y O *D sg13g2_a21oi_1
*CAP
1 *1912:D 0.000276924
2 *1543:Y 0.000276924
3 *1912:D *1543:B1 4.77425e-05
4 *1912:D *575:22 0
5 *1912:D *840:33 7.99455e-05
6 *1912:D *912:54 0
*RES
1 *1543:Y *1912:D 42.3496 
*END

*D_NET *98 0.000508419
*CONN
*I *1911:D I *D sg13g2_dfrbpq_1
*I *1546:Y O *D sg13g2_a21oi_1
*CAP
1 *1911:D 0
2 *1546:Y 6.11368e-05
3 *98:8 6.11368e-05
4 *98:8 *1545:B 0.000127744
5 *98:8 *912:35 0.000129659
6 *98:8 *1137:69 0.000128742
*RES
1 *1546:Y *98:8 40.9328 
2 *98:8 *1911:D 40 
*END

*D_NET *99 9.45957e-05
*CONN
*I *1910:D I *D sg13g2_dfrbpq_1
*I *1553:Y O *D sg13g2_o21ai_1
*CAP
1 *1910:D 4.72978e-05
2 *1553:Y 4.72978e-05
*RES
1 *1553:Y *1910:D 40.5104 
*END

*D_NET *100 0.000583711
*CONN
*I *1909:D I *D sg13g2_dfrbpq_1
*I *1561:Y O *D sg13g2_o21ai_1
*CAP
1 *1909:D 0.000267984
2 *1561:Y 0.000267984
3 *1909:D *1553:A2 0
4 *1909:D *1561:B1 4.77425e-05
5 *1909:D *1878:D 0
6 *1909:D *1909:RESET_B 0
*RES
1 *1561:Y *1909:D 42.2352 
*END

*D_NET *101 0.000633971
*CONN
*I *1908:D I *D sg13g2_dfrbpq_1
*I *1566:Y O *D sg13g2_a21oi_1
*CAP
1 *1908:D 0
2 *1566:Y 0.000229115
3 *101:10 0.000229115
4 *101:10 *1566:A2 0
5 *101:10 *1908:RESET_B 0.000175742
6 *101:10 *560:12 0
7 *101:10 *932:27 0
*RES
1 *1566:Y *101:10 42.156 
2 *101:10 *1908:D 40 
*END

*D_NET *102 0.000482222
*CONN
*I *1907:D I *D sg13g2_dfrbpq_1
*I *1571:Y O *D sg13g2_a21oi_1
*CAP
1 *1907:D 0.000241111
2 *1571:Y 0.000241111
3 *1907:D *1571:A1 0
4 *1907:D *1637:A1 0
5 *1907:D *1876:D 0
*RES
1 *1571:Y *1907:D 41.892 
*END

*D_NET *103 0.00125019
*CONN
*I *1906:D I *D sg13g2_dfrbpq_1
*I *1578:Y O *D sg13g2_o21ai_1
*CAP
1 *1906:D 0.000468598
2 *1578:Y 0.000468598
3 *1906:D *1578:B1 1.54556e-05
4 *1906:D *1578:A1 4.78524e-05
5 *1906:D *1598:A1 3.96571e-05
6 *1906:D *929:54 0
7 *1906:D *933:32 0.000210026
8 *1906:D *933:62 0
9 *1906:D *1107:50 0
*RES
1 *1578:Y *1906:D 44.5496 
*END

*D_NET *104 9.45957e-05
*CONN
*I *1905:D I *D sg13g2_dfrbpq_1
*I *1580:Y O *D sg13g2_o21ai_1
*CAP
1 *1905:D 4.72978e-05
2 *1580:Y 4.72978e-05
3 *1905:D *1904:RESET_B 0
*RES
1 *1580:Y *1905:D 40.5104 
*END

*D_NET *105 9.49885e-05
*CONN
*I *1904:D I *D sg13g2_dfrbpq_1
*I *1582:Y O *D sg13g2_o21ai_1
*CAP
1 *1904:D 4.74942e-05
2 *1582:Y 4.74942e-05
3 *1904:D *933:62 0
4 *1904:D *933:68 0
*RES
1 *1582:Y *1904:D 40.5104 
*END

*D_NET *106 0.00054046
*CONN
*I *1903:D I *D sg13g2_dfrbpq_1
*I *1584:Y O *D sg13g2_o21ai_1
*CAP
1 *1903:D 0.00026253
2 *1584:Y 0.00026253
3 *1903:D *1580:A1 0
4 *1903:D *1584:B1 1.54008e-05
5 *1903:D *972:12 0
*RES
1 *1584:Y *1903:D 42.2352 
*END

*D_NET *107 0.000819638
*CONN
*I *1902:D I *D sg13g2_dfrbpq_1
*I *1586:Y O *D sg13g2_o21ai_1
*CAP
1 *1902:D 0.0003697
2 *1586:Y 0.0003697
3 *1902:D *1897:CLK 8.02379e-05
4 *1902:D *964:8 0
*RES
1 *1586:Y *1902:D 43.6784 
*END

*D_NET *108 0.00276957
*CONN
*I *1901:D I *D sg13g2_dfrbpq_1
*I *1588:Y O *D sg13g2_o21ai_1
*CAP
1 *1901:D 0.000746615
2 *1588:Y 0.000539167
3 *108:10 0.00128578
4 *1901:D *1581:A 0.00018261
5 *1901:D *1107:39 0
6 *1901:D *1183:18 0
7 *108:10 *1588:A1 0
8 *108:10 *1588:A2 1.54008e-05
9 *108:10 *578:44 0
10 *108:10 *970:12 0
*RES
1 *1588:Y *108:10 44.6376 
2 *108:10 *1901:D 46.424 
*END

*D_NET *109 9.45957e-05
*CONN
*I *1900:D I *D sg13g2_dfrbpq_1
*I *1590:Y O *D sg13g2_o21ai_1
*CAP
1 *1900:D 4.72978e-05
2 *1590:Y 4.72978e-05
*RES
1 *1590:Y *1900:D 40.5104 
*END

*D_NET *110 0.00131804
*CONN
*I *1899:D I *D sg13g2_dfrbpq_1
*I *1592:Y O *D sg13g2_o21ai_1
*CAP
1 *1899:D 0
2 *1592:Y 0.000321335
3 *110:10 0.000321335
4 *110:10 *1592:B1 1.54008e-05
5 *110:10 *1592:A2 0.000130055
6 *110:10 *1899:CLK 0
7 *110:10 *1101:18 0.000238126
8 *110:10 *1132:8 0.000291791
*RES
1 *1592:Y *110:10 43.3704 
2 *110:10 *1899:D 40 
*END

*D_NET *111 0.000585456
*CONN
*I *1898:D I *D sg13g2_dfrbpq_1
*I *1594:Y O *D sg13g2_o21ai_1
*CAP
1 *1898:D 0.000204697
2 *1594:Y 0.000204697
3 *1898:D *1593:A 0
4 *1898:D *1904:RESET_B 8.03692e-05
5 *1898:D *933:68 8.02927e-05
6 *1898:D *933:70 1.54008e-05
*RES
1 *1594:Y *1898:D 42.0592 
*END

*D_NET *112 0.000779381
*CONN
*I *1897:D I *D sg13g2_dfrbpq_1
*I *1596:Y O *D sg13g2_o21ai_1
*CAP
1 *1897:D 0
2 *1596:Y 0.00038969
3 *112:10 0.00038969
4 *112:10 *2131:A 0
5 *112:10 *519:10 0
6 *112:10 *578:38 0
7 *112:10 *929:27 0
8 *112:10 *1109:12 0
*RES
1 *1596:Y *112:10 42.7896 
2 *112:10 *1897:D 40 
*END

*D_NET *113 0.000779342
*CONN
*I *1896:D I *D sg13g2_dfrbpq_1
*I *1598:Y O *D sg13g2_o21ai_1
*CAP
1 *1896:D 0.000204453
2 *1598:Y 0.000204453
3 *1896:D *1598:B1 8.0216e-05
4 *1896:D *933:32 0.000274765
5 *1896:D *1107:50 0
6 *1896:D *1107:54 1.54556e-05
*RES
1 *1598:Y *1896:D 41.936 
*END

*D_NET *114 0.000384404
*CONN
*I *1895:D I *D sg13g2_dfrbpq_1
*I *1600:Y O *D sg13g2_a21oi_1
*CAP
1 *1895:D 0.000192202
2 *1600:Y 0.000192202
3 *1895:D *1500:A2 0
4 *1895:D *1600:B1 0
5 *1895:D *1895:RESET_B 0
6 *1895:D *1129:14 0
*RES
1 *1600:Y *1895:D 41.892 
*END

*D_NET *115 0.000393918
*CONN
*I *1894:D I *D sg13g2_dfrbpq_1
*I *1602:Y O *D sg13g2_a21oi_1
*CAP
1 *1894:D 0.000108259
2 *1602:Y 0.000108259
3 *1894:D *1109:37 0.000177399
4 *1894:D *1132:12 0
*RES
1 *1602:Y *1894:D 41.012 
*END

*D_NET *116 0.000360982
*CONN
*I *1893:D I *D sg13g2_dfrbpq_1
*I *1604:Y O *D sg13g2_a21oi_1
*CAP
1 *1893:D 0.000180491
2 *1604:Y 0.000180491
3 *1893:D *1604:A1 0
4 *1893:D *523:16 0
*RES
1 *1604:Y *1893:D 41.7336 
*END

*D_NET *117 0.000283197
*CONN
*I *1892:D I *D sg13g2_dfrbpq_1
*I *1606:Y O *D sg13g2_a21oi_1
*CAP
1 *1892:D 0.000141598
2 *1606:Y 0.000141598
3 *1892:D *1507:A1 0
*RES
1 *1606:Y *1892:D 41.3112 
*END

*D_NET *118 0.001766
*CONN
*I *1891:D I *D sg13g2_dfrbpq_1
*I *1608:Y O *D sg13g2_a21oi_1
*CAP
1 *1891:D 0.000527712
2 *1608:Y 0.000527712
3 *1891:D *1514:B 0
4 *1891:D *1608:A1 0.000111945
5 *1891:D *1922:RESET_B 0.000209769
6 *1891:D *669:12 0
7 *1891:D *1108:21 0.000388863
8 *1922:D *1891:D 0
*RES
1 *1608:Y *1891:D 45.0072 
*END

*D_NET *119 0.000551681
*CONN
*I *1890:D I *D sg13g2_dfrbpq_1
*I *1610:Y O *D sg13g2_a21oi_1
*CAP
1 *1890:D 0.000236078
2 *1610:Y 0.000236078
3 *1890:D *994:8 7.95255e-05
4 *1890:D *1108:34 0
5 *1890:D *1148:67 0
*RES
1 *1610:Y *1890:D 42.1032 
*END

*D_NET *120 0.00119344
*CONN
*I *1889:D I *D sg13g2_dfrbpq_1
*I *1612:Y O *D sg13g2_a21oi_1
*CAP
1 *1889:D 0.000318599
2 *1612:Y 0.000149583
3 *120:10 0.000468181
4 *1889:D *2242:A 0
5 *1889:D *2267:A 0.000177301
6 *1889:D *931:34 0
7 *1889:D *1111:48 0
8 *120:10 *599:10 0
9 *1920:D *1889:D 7.97712e-05
*RES
1 *1612:Y *120:10 41.2056 
2 *120:10 *1889:D 42.7896 
*END

*D_NET *121 0.00191278
*CONN
*I *1888:D I *D sg13g2_dfrbpq_1
*I *1614:Y O *D sg13g2_a21oi_1
*CAP
1 *1888:D 0.000575985
2 *1614:Y 0.000575985
3 *1888:D *1888:RESET_B 0.000760809
4 *1888:D *2149:A 0
5 *1888:D *1016:10 0
*RES
1 *1614:Y *1888:D 45.3592 
*END

*D_NET *122 0.000290369
*CONN
*I *1887:D I *D sg13g2_dfrbpq_1
*I *1616:Y O *D sg13g2_a21oi_1
*CAP
1 *1887:D 0.000145184
2 *1616:Y 0.000145184
3 *1887:D *539:12 0
4 *1887:D *954:8 0
5 *1887:D *1148:67 0
*RES
1 *1616:Y *1887:D 41.3112 
*END

*D_NET *123 0.000567431
*CONN
*I *1886:D I *D sg13g2_dfrbpq_1
*I *1618:Y O *D sg13g2_a21oi_1
*CAP
1 *1886:D 2.56682e-05
2 *1618:Y 0.000234176
3 *123:12 0.000259844
4 *1886:D *522:46 0
5 *1886:D *1110:102 4.77425e-05
6 *123:12 *541:14 0
7 *123:12 *723:25 0
8 *123:12 *1110:102 0
*RES
1 *1618:Y *123:12 41.848 
2 *123:12 *1886:D 40.2728 
*END

*D_NET *124 0.000395601
*CONN
*I *1885:D I *D sg13g2_dfrbpq_1
*I *1620:Y O *D sg13g2_a21oi_1
*CAP
1 *1885:D 0.000125417
2 *1620:Y 0.000125417
3 *1885:D *1619:A 0
4 *1885:D *1620:B1 0.000144767
5 *1885:D *1134:30 0
*RES
1 *1620:Y *1885:D 41.012 
*END

*D_NET *125 0.000591013
*CONN
*I *1884:D I *D sg13g2_dfrbpq_1
*I *1622:Y O *D sg13g2_a21oi_1
*CAP
1 *1884:D 0.000228085
2 *1622:Y 0.000228085
3 *1884:D *1133:6 0.000134844
4 *1884:D *1137:29 0
*RES
1 *1622:Y *1884:D 42.2792 
*END

*D_NET *126 0.000868912
*CONN
*I *1883:D I *D sg13g2_dfrbpq_1
*I *1624:Y O *D sg13g2_a21oi_1
*CAP
1 *1883:D 0.000434456
2 *1624:Y 0.000434456
3 *1883:D *1624:A1 0
4 *1883:D *1883:RESET_B 0
5 *1883:D *1914:RESET_B 0
6 *1883:D *1135:41 0
7 *1914:D *1883:D 0
*RES
1 *1624:Y *1883:D 43.9072 
*END

*D_NET *127 0.000303315
*CONN
*I *1882:D I *D sg13g2_dfrbpq_1
*I *1626:Y O *D sg13g2_a21oi_1
*CAP
1 *1882:D 0.000151658
2 *1626:Y 0.000151658
3 *1882:D *1882:RESET_B 0
4 *1882:D *661:12 0
5 *1882:D *1110:47 0
*RES
1 *1626:Y *1882:D 41.3112 
*END

*D_NET *128 0.00189086
*CONN
*I *1881:D I *D sg13g2_dfrbpq_1
*I *1628:Y O *D sg13g2_a21oi_1
*CAP
1 *1881:D 0.000945428
2 *1628:Y 0.000945428
3 *1881:D *1627:A 0
4 *1881:D *1912:CLK 0
5 *1881:D *912:95 0
6 *1881:D *924:42 0
7 *1881:D *924:51 0
8 *1881:D *1133:59 0
9 *1881:D *1133:72 0
10 *1881:D *1137:91 0
*RES
1 *1628:Y *1881:D 48.1752 
*END

*D_NET *129 0.000667702
*CONN
*I *1880:D I *D sg13g2_dfrbpq_1
*I *1630:Y O *D sg13g2_a21oi_1
*CAP
1 *1880:D 0.000141445
2 *1630:Y 0.000141445
3 *1880:D *1535:A1 0
4 *1880:D *575:22 0.000144715
5 *1880:D *840:33 0.000240097
*RES
1 *1630:Y *1880:D 41.3816 
*END

*D_NET *130 0.000773732
*CONN
*I *1879:D I *D sg13g2_dfrbpq_1
*I *1632:X O *D sg13g2_mux2_1
*CAP
1 *1879:D 0.000233447
2 *1632:X 0.000233447
3 *1879:D *1553:B1 0
4 *1879:D *1553:A2 0
5 *1879:D *931:12 0.000306837
*RES
1 *1632:X *1879:D 42.2616 
*END

*D_NET *131 0.000679628
*CONN
*I *1878:D I *D sg13g2_dfrbpq_1
*I *1633:X O *D sg13g2_mux2_1
*CAP
1 *1878:D 0.000186398
2 *1633:X 0.000186398
3 *1878:D *1553:A2 0.000306832
4 *1878:D *1111:8 0
5 *1909:D *1878:D 0
*RES
1 *1633:X *1878:D 41.7512 
*END

*D_NET *132 0.000624896
*CONN
*I *1877:D I *D sg13g2_dfrbpq_1
*I *1635:Y O *D sg13g2_a21oi_1
*CAP
1 *1877:D 0.000155687
2 *1635:Y 0.000156761
3 *132:8 0.000312448
4 *1877:D *928:68 0
5 *132:8 *571:18 0
*RES
1 *1635:Y *132:8 41.144 
2 *132:8 *1877:D 41.012 
*END

*D_NET *133 0.00142443
*CONN
*I *1876:D I *D sg13g2_dfrbpq_1
*I *1637:Y O *D sg13g2_a21oi_1
*CAP
1 *1876:D 0.000672243
2 *1637:Y 0.000672243
3 *1876:D cio_gpio_o[3] 0
4 *1876:D *1570:A 7.99451e-05
5 *1876:D *1571:A1 0
6 *1876:D *1637:A1 0
7 *1876:D *575:22 0
8 *1876:D *912:80 0
9 *1876:D *912:95 0
10 *1907:D *1876:D 0
*RES
1 *1637:Y *1876:D 45.412 
*END

*D_NET *134 0.00168887
*CONN
*I *2004:D I *D sg13g2_dfrbpq_1
*I *1647:Y O *D sg13g2_nor2_1
*CAP
1 *2004:D 0
2 *1647:Y 0.000667136
3 *134:12 0.000667136
4 *134:12 *1641:A 0
5 *134:12 *1642:B 0
6 *134:12 *1646:C 0.000144963
7 *134:12 *1647:B 0.000209632
8 *134:12 *2004:RESET_B 0
9 *134:12 *2228:A 0
10 *134:12 *2327:A 0
11 *134:12 *353:8 0
*RES
1 *1647:Y *134:12 46.3624 
2 *134:12 *2004:D 40 
*END

*D_NET *135 0.000477943
*CONN
*I *1875:D I *D sg13g2_dfrbpq_1
*I *1650:Y O *D sg13g2_a21oi_1
*CAP
1 *1875:D 0.000151167
2 *1650:Y 0.000151167
3 *1875:D *1650:A1 0.000175608
*RES
1 *1650:Y *1875:D 41.3112 
*END

*D_NET *136 0.0025971
*CONN
*I *1874:D I *D sg13g2_dfrbpq_1
*I *1652:Y O *D sg13g2_a21oi_1
*CAP
1 *1874:D 0
2 *1652:Y 0.000569512
3 *136:10 0.000569512
4 *136:10 *1652:B1 0.00024211
5 *136:10 *197:29 0
6 *136:10 *366:8 0
7 *136:10 *368:8 0
8 *136:10 *406:43 0.000234726
9 *136:10 *406:58 0.000266405
10 *136:10 *509:10 0
11 *136:10 *509:21 0
12 *136:10 *510:26 0.000714833
*RES
1 *1652:Y *136:10 46.7496 
2 *136:10 *1874:D 40 
*END

*D_NET *137 0.000495398
*CONN
*I *1873:D I *D sg13g2_dfrbpq_1
*I *1654:Y O *D sg13g2_a21oi_1
*CAP
1 *1873:D 0.000175228
2 *1654:Y 0.000175228
3 *1873:D *2297:A 0
4 *1873:D *197:29 0
5 *1873:D *197:40 0
6 *1873:D *367:12 0.000144942
*RES
1 *1654:Y *1873:D 41.7336 
*END

*D_NET *138 0.000427007
*CONN
*I *1872:D I *D sg13g2_dfrbpq_1
*I *1657:X O *D sg13g2_mux2_1
*CAP
1 *1872:D 0.000213503
2 *1657:X 0.000213503
3 *1872:D *1901:RESET_B 0
4 *1872:D *1104:62 0
*RES
1 *1657:X *1872:D 41.6808 
*END

*D_NET *139 0.000561723
*CONN
*I *2290:A I *D sg13g2_dlygate4sd3_1
*I *1659:Y O *D sg13g2_a21oi_1
*CAP
1 *2290:A 0.00017696
2 *1659:Y 0.00017696
3 *2290:A *1651:A 0
4 *2290:A *197:14 0
5 *2290:A *197:23 0
6 *2290:A *202:32 0.000207804
7 *2290:A *655:10 0
*RES
1 *1659:Y *2290:A 41.7072 
*END

*D_NET *140 0.00378911
*CONN
*I *2297:A I *D sg13g2_dlygate4sd3_1
*I *1661:Y O *D sg13g2_a21oi_1
*CAP
1 *2297:A 0.00106737
2 *1661:Y 0.00106737
3 *2297:A *1660:A 0.000337144
4 *2297:A *1661:A2 0.00022515
5 *2297:A *1873:RESET_B 0
6 *2297:A *2296:A 0.000240258
7 *2297:A *197:23 0
8 *2297:A *197:82 0
9 *2297:A *202:32 0
10 *2297:A *202:39 0.000851813
11 *2297:A *367:12 0
12 *2297:A *946:10 0
13 *1873:D *2297:A 0
*RES
1 *1661:Y *2297:A 49.5128 
*END

*D_NET *141 0.000991309
*CONN
*I *2001:D I *D sg13g2_dfrbpq_1
*I *1664:X O *D sg13g2_mux2_1
*CAP
1 *2001:D 0
2 *1664:X 0.000342324
3 *141:10 0.000342324
4 *141:10 *702:16 0
5 *141:10 *722:10 0.000306662
6 *141:10 *726:8 0
7 *141:10 *1122:14 0
*RES
1 *1664:X *141:10 42.8952 
2 *141:10 *2001:D 40 
*END

*D_NET *142 0.000567372
*CONN
*I *2000:D I *D sg13g2_dfrbpq_1
*I *1665:X O *D sg13g2_mux2_1
*CAP
1 *2000:D 0.000283686
2 *1665:X 0.000283686
3 *2000:D *722:23 0
4 *2000:D *726:8 0
*RES
1 *1665:X *2000:D 42.0504 
*END

*D_NET *143 0.000188149
*CONN
*I *1999:D I *D sg13g2_dfrbpq_1
*I *1666:X O *D sg13g2_mux2_1
*CAP
1 *1999:D 9.40746e-05
2 *1666:X 9.40746e-05
3 *1999:D *1666:A1 0
4 *1999:D *1998:D 0
5 *1999:D *722:66 0
*RES
1 *1666:X *1999:D 40.968 
*END

*D_NET *144 0.000626939
*CONN
*I *1997:D I *D sg13g2_dfrbpq_1
*I *1667:X O *D sg13g2_mux2_1
*CAP
1 *1997:D 0.000192417
2 *1667:X 0.000192417
3 *1997:D *722:6 0
4 *1997:D *726:8 0.000242105
*RES
1 *1667:X *1997:D 41.6808 
*END

*D_NET *145 0.000312536
*CONN
*I *1996:D I *D sg13g2_dfrbpq_1
*I *1669:Y O *D sg13g2_a21oi_1
*CAP
1 *1996:D 0.000156268
2 *1669:Y 0.000156268
3 *1996:D intr_gpio_o[0] 0
*RES
1 *1669:Y *1996:D 41.3112 
*END

*D_NET *146 0.00118685
*CONN
*I *1995:D I *D sg13g2_dfrbpq_1
*I *1671:Y O *D sg13g2_a21oi_1
*CAP
1 *1995:D 0.000521079
2 *1671:Y 0.000521079
3 *1995:D intr_gpio_o[3] 0
4 *1995:D *1792:S 0
5 *1995:D *701:16 0.000144691
6 *1995:D *709:8 0
7 *1995:D *709:16 0
8 *1995:D *722:88 0
*RES
1 *1671:Y *1995:D 44.3384 
*END

*D_NET *147 0.0019431
*CONN
*I *1991:D I *D sg13g2_dfrbpq_1
*I *1769:X O *D sg13g2_mux2_1
*CAP
1 *1991:D 5.0088e-05
2 *1769:X 0.000881332
3 *147:8 0.00093142
4 *1991:D *2047:RESET_B 8.02595e-05
5 *147:8 *1991:CLK 0
6 *147:8 *441:8 0
7 *147:8 *873:68 0
8 *147:8 *937:62 0
*RES
1 *1769:X *147:8 47.48 
2 *147:8 *1991:D 40.4576 
*END

*D_NET *148 0.000581974
*CONN
*I *1992:D I *D sg13g2_dfrbpq_1
*I *1772:X O *D sg13g2_mux2_1
*CAP
1 *1992:D 0.000211158
2 *1772:X 0.000211158
3 *1992:D *844:107 0.000112085
4 *1992:D *873:60 4.75723e-05
5 *1992:D *937:47 0
6 *1992:D *937:62 0
*RES
1 *1772:X *1992:D 41.892 
*END

*D_NET *149 0.0014598
*CONN
*I *1993:D I *D sg13g2_dfrbpq_1
*I *1781:X O *D sg13g2_mux2_1
*CAP
1 *1993:D 0
2 *1781:X 0.000426553
3 *149:12 0.000426553
4 *149:12 *1993:CLK 0.000606693
5 *149:12 *887:12 0
6 *149:12 *938:54 0
7 *149:12 *938:60 0
8 *149:12 *1106:15 0
*RES
1 *1781:X *149:12 44.092 
2 *149:12 *1993:D 40 
*END

*D_NET *150 0.00225758
*CONN
*I *1994:D I *D sg13g2_dfrbpq_1
*I *1786:X O *D sg13g2_mux2_1
*CAP
1 *1994:D 0.00012831
2 *1786:X 0.000641022
3 *150:8 0.000769332
4 *1994:D *1662:B 0.000242181
5 *1994:D *1662:A 0.000242056
6 *150:8 *385:24 0.000234678
7 *150:8 *831:32 0
8 *150:8 *833:38 0
*RES
1 *1786:X *150:8 45.1568 
2 *150:8 *1994:D 41.3816 
*END

*D_NET *151 0.000195385
*CONN
*I *1998:D I *D sg13g2_dfrbpq_1
*I *1789:X O *D sg13g2_mux2_1
*CAP
1 *1998:D 9.76926e-05
2 *1789:X 9.76926e-05
3 *1998:D *1789:A0 0
4 *1998:D *1789:S 0
5 *1998:D *710:32 0
6 *1998:D *722:66 0
7 *1999:D *1998:D 0
*RES
1 *1789:X *1998:D 40.968 
*END

*D_NET *152 0.000484296
*CONN
*I *2002:D I *D sg13g2_dfrbpq_1
*I *1792:X O *D sg13g2_mux2_1
*CAP
1 *2002:D 0.000242148
2 *1792:X 0.000242148
3 *2002:D *1792:A1 0
4 *2002:D *708:18 0
5 *2002:D *710:32 0
*RES
1 *1792:X *2002:D 42.0504 
*END

*D_NET *153 0.00116186
*CONN
*I *1869:D I *D sg13g2_dfrbpq_1
*I *1793:X O *D sg13g2_mux2_1
*CAP
1 *1869:D 0
2 *1793:X 0.000580929
3 *153:10 0.000580929
4 *153:10 *1274:A2 0
5 *153:10 *1793:S 0
6 *153:10 *197:40 0
7 *153:10 *1144:26 0
*RES
1 *1793:X *153:10 45.06 
2 *153:10 *1869:D 40 
*END

*D_NET *154 0.000597269
*CONN
*I *1868:D I *D sg13g2_dfrbpq_1
*I *1795:Y O *D sg13g2_a21oi_1
*CAP
1 *1868:D 0.000116562
2 *1795:Y 0.000182073
3 *154:8 0.000298635
4 *1868:D *1868:RESET_B 0
5 *1868:D *1869:CLK 0
6 *154:8 *383:10 0
7 *154:8 *507:59 0
*RES
1 *1795:Y *154:8 41.5664 
2 *154:8 *1868:D 41.012 
*END

*D_NET *155 0.00042453
*CONN
*I *2003:D I *D sg13g2_dfrbpq_1
*I *1796:Y O *D sg13g2_xnor2_1
*CAP
1 *2003:D 0.000204564
2 *1796:Y 0.000204564
3 *2003:D *1261:B1 1.54008e-05
4 *2003:D *510:18 0
5 *2003:D *657:14 0
*RES
1 *1796:Y *2003:D 41.7512 
*END

*D_NET *156 0.00205986
*CONN
*I *2005:D I *D sg13g2_dfrbpq_1
*I *1799:Y O *D sg13g2_o21ai_1
*CAP
1 *2005:D 0
2 *1799:Y 0.000607546
3 *156:10 0.000607546
4 *156:10 *1799:B1 1.54008e-05
5 *156:10 *194:20 0
6 *156:10 *615:20 0
7 *156:10 *1097:69 0.000829364
*RES
1 *1799:Y *156:10 46.0368 
2 *156:10 *2005:D 40 
*END

*D_NET *157 0.000602224
*CONN
*I *2006:D I *D sg13g2_dfrbpq_1
*I *1800:Y O *D sg13g2_xnor2_1
*CAP
1 *2006:D 0.000118522
2 *1800:Y 0.00018259
3 *157:8 0.000301112
4 *2006:D *193:27 0
5 *2006:D *690:10 0
*RES
1 *1800:Y *157:8 41.5664 
2 *157:8 *2006:D 41.012 
*END

*D_NET *158 0.000900244
*CONN
*I *1867:D I *D sg13g2_dfrbpq_1
*I *1802:Y O *D sg13g2_o21ai_1
*CAP
1 *1867:D 0.000305158
2 *1802:Y 0.000305158
3 *1867:D *1802:B1 1.54008e-05
4 *1867:D *1802:A2 0
5 *1867:D *2241:A 0
6 *1867:D *929:27 0
7 *1867:D *929:33 0
8 *1867:D *1105:10 0
9 *1867:D *1105:23 0.000274528
*RES
1 *1802:Y *1867:D 42.9568 
*END

*D_NET *159 0.000552183
*CONN
*I *1866:D I *D sg13g2_dfrbpq_1
*I *1804:Y O *D sg13g2_o21ai_1
*CAP
1 *1866:D 2.82366e-05
2 *1804:Y 0.000151583
3 *159:10 0.00017982
4 *1866:D *1802:B1 4.77425e-05
5 *1866:D *1109:29 0
6 *159:10 *1585:A 0
7 *159:10 *1802:B1 0.0001448
8 *159:10 *1105:34 0
*RES
1 *1804:Y *159:10 41.3376 
2 *159:10 *1866:D 40.2728 
*END

*D_NET *160 0.000349371
*CONN
*I *1865:D I *D sg13g2_dfrbpq_1
*I *1806:Y O *D sg13g2_o21ai_1
*CAP
1 *1865:D 0.000174685
2 *1806:Y 0.000174685
3 *1865:D *1196:A 0
4 *1865:D *1865:RESET_B 0
5 *1865:D *1138:8 0
6 *1865:D *1138:43 0
*RES
1 *1806:Y *1865:D 41.3112 
*END

*D_NET *161 0.00162216
*CONN
*I *1864:D I *D sg13g2_dfrbpq_1
*I *1807:Y O *D sg13g2_o21ai_1
*CAP
1 *1864:D 0.000249427
2 *1807:Y 0.000463328
3 *161:8 0.000712755
4 *1864:D *1229:B 1.54556e-05
5 *1864:D *506:44 0
6 *161:8 *1703:B 0
7 *161:8 *1807:A1 0.000181192
8 *161:8 *342:8 0
9 *161:8 *507:100 0
*RES
1 *1807:Y *161:8 43.8896 
2 *161:8 *1864:D 41.936 
*END

*D_NET *162 0.000157458
*CONN
*I *2007:D I *D sg13g2_dfrbpq_1
*I *1808:Y O *D sg13g2_xnor2_1
*CAP
1 *2007:D 7.87288e-05
2 *1808:Y 7.87288e-05
3 *2007:D *1808:A 0
4 *2007:D *943:8 0
5 *2007:D *1112:90 0
*RES
1 *1808:Y *2007:D 40.7832 
*END

*D_NET *163 0.00217921
*CONN
*I *2009:D I *D sg13g2_dfrbpq_1
*I *1814:Y O *D sg13g2_o21ai_1
*CAP
1 *2009:D 0
2 *1814:Y 0.000570765
3 *163:10 0.000570765
4 *163:10 *1751:S 0
5 *163:10 *1814:A2 0.000177164
6 *163:10 *1826:A 0
7 *163:10 *406:43 0
8 *163:10 *1020:8 0.000144822
9 *163:10 *1143:54 0.000715696
*RES
1 *1814:Y *163:10 45.7464 
2 *163:10 *2009:D 40 
*END

*D_NET *164 0.00165723
*CONN
*I *2010:D I *D sg13g2_dfrbpq_1
*I *1815:Y O *D sg13g2_xnor2_1
*CAP
1 *2010:D 0
2 *1815:Y 0.000359704
3 *164:10 0.000359704
4 *164:10 *507:8 0.000468912
5 *164:10 *1104:97 0.000468912
6 *164:10 *1106:43 0
*RES
1 *1815:Y *164:10 43.8192 
2 *164:10 *2010:D 40 
*END

*D_NET *165 0.000192033
*CONN
*I *1863:D I *D sg13g2_dfrbpq_1
*I *1816:X O *D sg13g2_mux2_1
*CAP
1 *1863:D 9.60163e-05
2 *1816:X 9.60163e-05
3 *1863:D *1818:B1 0
4 *1863:D *475:49 0
5 *1863:D *475:58 0
6 *1940:D *1863:D 0
*RES
1 *1816:X *1863:D 40.968 
*END

*D_NET *166 0.000408686
*CONN
*I *1862:D I *D sg13g2_dfrbpq_1
*I *1818:Y O *D sg13g2_a21oi_1
*CAP
1 *1862:D 0.000204343
2 *1818:Y 0.000204343
3 *1862:D *475:58 0
4 *1862:D *1100:49 0
*RES
1 *1818:Y *1862:D 41.7336 
*END

*D_NET *167 0.00104011
*CONN
*I *2011:D I *D sg13g2_dfrbpq_1
*I *1819:Y O *D sg13g2_xnor2_1
*CAP
1 *2011:D 0
2 *1819:Y 0.000520056
3 *167:10 0.000520056
4 *167:10 *2094:A 0
5 *167:10 *401:12 0
6 *167:10 *707:14 0
7 *167:10 *1079:10 0
8 *167:10 *1079:25 0
*RES
1 *1819:Y *167:10 44.0568 
2 *167:10 *2011:D 40 
*END

*D_NET *168 0.000848815
*CONN
*I *2013:D I *D sg13g2_dfrbpq_1
*I *1821:Y O *D sg13g2_xnor2_1
*CAP
1 *2013:D 0.000118301
2 *1821:Y 0.000214192
3 *168:8 0.000332494
4 *2013:D *1821:B 0
5 *168:8 *1821:A 0.000183828
*RES
1 *1821:Y *168:8 42.4112 
2 *168:8 *2013:D 41.012 
*END

*D_NET *169 0.000418274
*CONN
*I *2014:D I *D sg13g2_dfrbpq_1
*I *1822:Y O *D sg13g2_xnor2_1
*CAP
1 *2014:D 0.000209137
2 *1822:Y 0.000209137
3 *2014:D *706:20 0
4 *2014:D *1097:120 0
*RES
1 *1822:Y *2014:D 41.892 
*END

*D_NET *170 9.45957e-05
*CONN
*I *1861:D I *D sg13g2_dfrbpq_1
*I *1825:Y O *D sg13g2_o21ai_1
*CAP
1 *1861:D 4.72978e-05
2 *1825:Y 4.72978e-05
3 *1990:D *1861:D 0
*RES
1 *1825:Y *1861:D 40.5104 
*END

*D_NET *171 0.000208513
*CONN
*I *2015:D I *D sg13g2_dfrbpq_1
*I *1826:Y O *D sg13g2_xnor2_1
*CAP
1 *2015:D 8.03715e-05
2 *1826:Y 8.03715e-05
3 *2015:D *652:16 0
4 *2015:D *1100:83 4.77699e-05
*RES
1 *1826:Y *2015:D 40.7832 
*END

*D_NET *172 0.0027476
*CONN
*I *2017:D I *D sg13g2_dfrbpq_1
*I *1832:Y O *D sg13g2_a21oi_1
*CAP
1 *2017:D 0
2 *1832:Y 0.00109346
3 *172:10 0.00109346
4 *172:10 *1830:A 0.0001765
5 *172:10 *1832:B1 1.54008e-05
6 *172:10 *465:8 0.000128247
7 *172:10 *653:8 0
8 *172:10 *688:12 0
9 *172:10 *1097:63 0
10 *172:10 *1154:10 0
11 *172:10 *1191:10 0
12 *16:14 *172:10 0.000240537
*RES
1 *1832:Y *172:10 48.8616 
2 *172:10 *2017:D 40 
*END

*D_NET *173 0.000192322
*CONN
*I *2018:D I *D sg13g2_dfrbpq_1
*I *1833:Y O *D sg13g2_xnor2_1
*CAP
1 *2018:D 7.22046e-05
2 *1833:Y 7.22046e-05
3 *2018:D *2018:RESET_B 0
4 *2018:D *1100:83 4.79124e-05
*RES
1 *1833:Y *2018:D 40.7832 
*END

*D_NET *174 0.00140806
*CONN
*I *2019:D I *D sg13g2_dfrbpq_1
*I *1835:Y O *D sg13g2_a21oi_1
*CAP
1 *2019:D 0.000171899
2 *1835:Y 0.000435787
3 *174:8 0.000607686
4 *2019:D *466:8 0
5 *2019:D *658:56 4.77425e-05
6 *2019:D *1086:14 0.000144942
7 *174:8 *400:28 0
*RES
1 *1835:Y *174:8 43.256 
2 *174:8 *2019:D 41.3816 
*END

*D_NET *175 0.00048834
*CONN
*I *2023:D I *D sg13g2_dfrbpq_1
*I *1838:Y O *D sg13g2_a21oi_1
*CAP
1 *2023:D 0.000155841
2 *1838:Y 0.000155841
3 *2023:D *1851:A0 0.000176658
4 *2023:D *2020:RESET_B 0
*RES
1 *1838:Y *2023:D 41.3112 
*END

*D_NET *176 0.00235966
*CONN
*I *2027:D I *D sg13g2_dfrbpq_1
*I *1842:Y O *D sg13g2_o21ai_1
*CAP
1 *2027:D 0.000719351
2 *1842:Y 0.000719351
3 *2027:D *1841:B 0
4 *2027:D *2027:RESET_B 0
5 *2027:D *2075:D 0
6 *2027:D *2076:RESET_B 8.0216e-05
7 *2027:D *2078:RESET_B 0.000242483
8 *2027:D *310:14 0
9 *2027:D *851:77 0
10 *2027:D *856:49 0
11 *2027:D *938:20 0.000209593
12 *2027:D *938:29 0.00038867
*RES
1 *1842:Y *2027:D 46.3712 
*END

*D_NET *177 0.000682659
*CONN
*I *2031:D I *D sg13g2_dfrbpq_1
*I *1846:Y O *D sg13g2_o21ai_1
*CAP
1 *2031:D 0
2 *1846:Y 0.000170269
3 *177:8 0.000170269
4 *177:8 *1845:B 0
5 *177:8 *728:14 0
6 *177:8 *1098:10 0
7 *177:8 *1124:46 0.000342122
*RES
1 *1846:Y *177:8 41.9888 
2 *177:8 *2031:D 40 
*END

*D_NET *178 0.000223461
*CONN
*I *2035:D I *D sg13g2_dfrbpq_1
*I *1850:Y O *D sg13g2_o21ai_1
*CAP
1 *2035:D 0.000111731
2 *1850:Y 0.000111731
3 *2035:D *1346:A 0
*RES
1 *1850:Y *2035:D 40.9328 
*END

*D_NET *179 0.000278816
*CONN
*I *2039:D I *D sg13g2_dfrbpq_1
*I *1851:X O *D sg13g2_mux2_1
*CAP
1 *2039:D 9.92893e-05
2 *1851:X 9.92893e-05
3 *2039:D *307:18 0
4 *2039:D *711:33 8.02379e-05
*RES
1 *1851:X *2039:D 40.968 
*END

*D_NET *180 0.00211168
*CONN
*I *1622:B1 I *D sg13g2_a21oi_1
*I *1621:Y O *D sg13g2_nor2_1
*CAP
1 *1622:B1 8.36225e-05
2 *1621:Y 0.000548256
3 *180:10 0.000631879
4 *1622:B1 *1137:29 7.99179e-05
5 *1622:B1 *1137:40 1.54008e-05
6 *180:10 *1621:A 0.000144866
7 *180:10 *1884:RESET_B 0
8 *180:10 *537:12 0.000607738
9 *180:10 *543:8 0
10 *180:10 *912:14 0
11 *180:10 *1148:8 0
*RES
1 *1621:Y *180:10 45.0864 
2 *180:10 *1622:B1 40.7568 
*END

*D_NET *181 0.00088983
*CONN
*I *1624:B1 I *D sg13g2_a21oi_1
*I *1623:Y O *D sg13g2_nor2_1
*CAP
1 *1624:B1 3.10717e-05
2 *1623:Y 0.000139878
3 *181:8 0.000170949
4 *1624:B1 *1624:A1 4.76243e-05
5 *181:8 *1536:A 0.000500307
6 *181:8 *699:8 0
*RES
1 *1623:Y *181:8 41.9888 
2 *181:8 *1624:B1 40.2728 
*END

*D_NET *182 0.000285875
*CONN
*I *1626:B1 I *D sg13g2_a21oi_1
*I *1625:Y O *D sg13g2_nor2_1
*CAP
1 *1626:B1 0.000142937
2 *1625:Y 0.000142937
3 *1626:B1 *1625:A 0
4 *1626:B1 *1134:47 0
5 *1626:B1 *1134:64 0
*RES
1 *1625:Y *1626:B1 41.3904 
*END

*D_NET *183 0.000655074
*CONN
*I *1628:B1 I *D sg13g2_a21oi_1
*I *1627:Y O *D sg13g2_nor2_1
*CAP
1 *1628:B1 3.13832e-05
2 *1627:Y 0.00010701
3 *183:8 0.000138393
4 *1628:B1 *1133:39 1.54008e-05
5 *183:8 *1542:A 0
6 *183:8 *1133:39 0.00018128
7 *183:8 *1133:50 0.000181608
*RES
1 *1627:Y *183:8 41.3552 
2 *183:8 *1628:B1 40.2728 
*END

*D_NET *184 0.00116776
*CONN
*I *1630:B1 I *D sg13g2_a21oi_1
*I *1629:Y O *D sg13g2_nor2_1
*CAP
1 *1630:B1 2.80214e-05
2 *1629:Y 0.000244386
3 *184:8 0.000272408
4 *1630:B1 *1535:A1 0
5 *1630:B1 *840:33 4.76456e-05
6 *184:8 *1630:A2 0.00044743
7 *184:8 *550:12 0
8 *184:8 *1133:28 0.000127867
*RES
1 *1629:Y *184:8 42.8336 
2 *184:8 *1630:B1 40.2728 
*END

*D_NET *185 0.000873378
*CONN
*I *1632:S I *D sg13g2_mux2_1
*I *1633:S I *D sg13g2_mux2_1
*I *1631:Y O *D sg13g2_inv_1
*CAP
1 *1632:S 0.000189727
2 *1633:S 0.000246962
3 *1631:Y 0.000436689
4 *1632:S *1632:A0 0
5 *1632:S *931:12 0
6 *1632:S *932:12 0
7 *1633:S *1631:A 0
8 *1633:S *931:12 0
*RES
1 *1631:Y *1633:S 42.1296 
2 *1631:Y *1632:S 41.3816 
*END

*D_NET *186 0.0010693
*CONN
*I *1635:B1 I *D sg13g2_a21oi_1
*I *1634:Y O *D sg13g2_nor2_1
*CAP
1 *1635:B1 3.2421e-05
2 *1634:Y 0.000227811
3 *186:8 0.000260232
4 *1635:B1 *1566:A1 0
5 *1635:B1 *1908:RESET_B 4.75265e-05
6 *186:8 *1635:A2 0.000235075
7 *186:8 *980:12 0
8 *186:8 *1127:38 0.000266236
*RES
1 *1634:Y *186:8 42.6224 
2 *186:8 *1635:B1 40.2728 
*END

*D_NET *187 0.00228811
*CONN
*I *1637:B1 I *D sg13g2_a21oi_1
*I *1636:Y O *D sg13g2_nor2_1
*CAP
1 *1637:B1 0.000305677
2 *1636:Y 0.000550031
3 *187:8 0.000855708
4 *1637:B1 *1637:A1 0
5 *1637:B1 *703:23 0
6 *1637:B1 *734:10 0
7 *187:8 *1570:A 0
8 *187:8 *1571:A2 0.000235154
9 *187:8 *576:8 0
10 *187:8 *712:14 0
11 *187:8 *963:12 7.56308e-05
12 *187:8 *1137:91 0.00026591
*RES
1 *1636:Y *187:8 45.5792 
2 *187:8 *1637:B1 42.42 
*END

*D_NET *188 0.00161494
*CONN
*I *1642:A I *D sg13g2_nor2_1
*I *1643:B1 I *D sg13g2_a21oi_2
*I *1638:Y O *D sg13g2_inv_1
*CAP
1 *1642:A 0
2 *1643:B1 6.94525e-05
3 *1638:Y 0.000576864
4 *188:8 0.000646316
5 *1643:B1 *193:12 0
6 *188:8 *1246:B1 0
7 *188:8 *1638:A 0
8 *188:8 *1641:A 0
9 *188:8 *1643:A2 0
10 *188:8 *1646:C 0
11 *188:8 *1647:A 6.48152e-05
12 *188:8 *192:6 0.000209746
13 *188:8 *193:12 0
14 *188:8 *354:6 0
15 *188:8 *1023:8 4.77425e-05
16 *188:8 *1023:14 0
*RES
1 *1638:Y *188:8 24.8224 
2 *188:8 *1643:B1 20.7216 
3 *188:8 *1642:A 20 
*END

*D_NET *189 0.000977206
*CONN
*I *1644:A I *D sg13g2_nand2_1
*I *1640:B I *D sg13g2_nor2_1
*I *1639:Y O *D sg13g2_a21oi_1
*CAP
1 *1644:A 0
2 *1640:B 0
3 *1639:Y 8.74518e-05
4 *189:18 0.000112663
5 *189:12 0.000266249
6 *189:8 0.000241037
7 *189:8 *1639:B1 0
8 *189:12 *1645:B 0.000144784
9 *189:12 *604:6 0
10 *189:18 *190:8 0
11 *189:18 *194:20 0
12 *189:18 *353:40 0.000125021
13 *189:18 *1097:69 0
*RES
1 *1639:Y *189:8 40.7216 
2 *189:8 *189:12 21.3816 
3 *189:12 *189:18 40.9328 
4 *189:18 *1640:B 20 
5 *189:12 *1644:A 20 
*END

*D_NET *190 0.0018118
*CONN
*I *1646:A I *D sg13g2_nor3_1
*I *1641:A I *D sg13g2_inv_1
*I *1640:Y O *D sg13g2_nor2_1
*CAP
1 *1646:A 0
2 *1641:A 0.000185943
3 *1640:Y 3.82991e-05
4 *190:18 0.000376043
5 *190:14 0.000407785
6 *190:8 0.000255985
7 *1641:A *1642:B 1.54008e-05
8 *1641:A *1646:B 0
9 *1641:A *192:6 0
10 *190:8 *194:20 7.33225e-05
11 *190:14 *353:32 0.000314079
12 *190:18 *1646:B 0
13 *190:18 *1646:C 0.000144942
14 *190:18 *1647:A 0
15 *134:12 *1641:A 0
16 *188:8 *1641:A 0
17 *189:18 *190:8 0
*RES
1 *1640:Y *190:8 40.2992 
2 *190:8 *190:14 42.3056 
3 *190:14 *190:18 21.5664 
4 *190:18 *1641:A 21.5664 
5 *190:18 *1646:A 20 
*END

*D_NET *191 0.000257123
*CONN
*I *1642:B I *D sg13g2_nor2_1
*I *1641:Y O *D sg13g2_inv_1
*CAP
1 *1642:B 0.000120861
2 *1641:Y 0.000120861
3 *1642:B *1647:A 0
4 *1641:A *1642:B 1.54008e-05
5 *134:12 *1642:B 0
*RES
1 *1641:Y *1642:B 41.2672 
*END

*D_NET *192 0.00135092
*CONN
*I *1647:A I *D sg13g2_nor2_1
*I *1797:A I *D sg13g2_inv_1
*I *1642:Y O *D sg13g2_nor2_1
*CAP
1 *1647:A 0.00037473
2 *1797:A 0
3 *1642:Y 0.000128771
4 *192:6 0.000503501
5 *1647:A *1646:C 6.93599e-05
6 *1641:A *192:6 0
7 *1642:B *1647:A 0
8 *188:8 *1647:A 6.48152e-05
9 *188:8 *192:6 0.000209746
10 *190:18 *1647:A 0
*RES
1 *1642:Y *192:6 21.1968 
2 *192:6 *1797:A 20 
3 *192:6 *1647:A 23.4672 
*END

*D_NET *193 0.00524833
*CONN
*I *1800:B I *D sg13g2_xnor2_1
*I *1648:A I *D sg13g2_nand2_1
*I *1656:A I *D sg13g2_nand2_2
*I *1646:B I *D sg13g2_nor3_1
*I *1643:Y O *D sg13g2_a21oi_2
*CAP
1 *1800:B 0
2 *1648:A 0.000166302
3 *1656:A 2.41194e-05
4 *1646:B 5.98674e-05
5 *1643:Y 0.000483805
6 *193:31 0.000444933
7 *193:27 0.00111108
8 *193:12 0.00140024
9 *1646:B *1646:C 8.01609e-05
10 *1648:A *201:8 0.000215371
11 *193:12 *196:8 7.34889e-05
12 *193:12 *353:10 0
13 *193:12 *615:20 2.24232e-05
14 *193:12 *1023:14 8.01612e-05
15 *193:12 *1023:22 4.77425e-05
16 *193:12 *1023:24 0
17 *193:12 *1097:69 0
18 *193:27 *1800:A 0
19 *193:27 *2004:CLK 0.000454902
20 *193:27 *2006:RESET_B 0
21 *193:27 *2006:CLK 0
22 *193:27 *196:8 0.000161447
23 *193:27 *353:8 0
24 *193:27 *690:10 0
25 *193:27 *1097:69 0
26 *193:27 *1194:8 0
27 *193:31 *1800:A 0.000291942
28 *193:31 *201:8 0.000130344
29 *1641:A *1646:B 0
30 *1643:B1 *193:12 0
31 *2006:D *193:27 0
32 *188:8 *193:12 0
33 *190:18 *1646:B 0
*RES
1 *1643:Y *193:12 43.8544 
2 *193:12 *1646:B 40.4576 
3 *193:12 *193:27 29.0464 
4 *193:27 *193:31 22.6224 
5 *193:31 *1656:A 40.2728 
6 *193:31 *1648:A 41.7776 
7 *193:27 *1800:B 20 
*END

*D_NET *194 0.00265979
*CONN
*I *1645:B I *D sg13g2_nor2_1
*I *1798:C I *D sg13g2_nand3_1
*I *1644:Y O *D sg13g2_nand2_1
*CAP
1 *1645:B 0.00020039
2 *1798:C 0
3 *1644:Y 0
4 *194:20 0.000735928
5 *194:4 0.000936318
6 *1645:B *1646:C 0
7 *1645:B *1811:B 0
8 *194:20 *1246:B1 0
9 *194:20 *1638:A 0.000232031
10 *194:20 *1639:B1 0
11 *194:20 *353:40 0
12 *194:20 *360:12 0
13 *194:20 *400:28 0
14 *194:20 *1023:14 0.000321618
15 *194:20 *1023:22 1.54008e-05
16 *194:20 *1089:8 0
17 *156:10 *194:20 0
18 *189:12 *1645:B 0.000144784
19 *189:18 *194:20 0
20 *190:8 *194:20 7.33225e-05
*RES
1 *1644:Y *194:4 20 
2 *194:4 *194:20 46.732 
3 *194:20 *1798:C 20 
4 *194:4 *1645:B 21.6808 
*END

*D_NET *195 0.00222652
*CONN
*I *1646:C I *D sg13g2_nor3_1
*I *1645:Y O *D sg13g2_nor2_1
*CAP
1 *1646:C 0.000829636
2 *1645:Y 0.000829636
3 *1646:C *1644:B 4.77425e-05
4 *1646:C *1647:B 0
5 *1646:C *354:6 0
6 *1646:C *1020:27 8.00842e-05
7 *1645:B *1646:C 0
8 *1646:B *1646:C 8.01609e-05
9 *1647:A *1646:C 6.93599e-05
10 *134:12 *1646:C 0.000144963
11 *188:8 *1646:C 0
12 *190:18 *1646:C 0.000144942
*RES
1 *1645:Y *1646:C 47.128 
*END

*D_NET *196 0.0011317
*CONN
*I *1647:B I *D sg13g2_nor2_1
*I *1646:Y O *D sg13g2_nor3_1
*CAP
1 *1647:B 0.000259421
2 *1646:Y 8.41476e-05
3 *196:8 0.000343568
4 *1647:B *2004:RESET_B 0
5 *1647:B *604:6 0
6 *196:8 *353:8 0
7 *1646:C *1647:B 0
8 *134:12 *1647:B 0.000209632
9 *193:12 *196:8 7.34889e-05
10 *193:27 *196:8 0.000161447
*RES
1 *1646:Y *196:8 40.9328 
2 *196:8 *1647:B 42.4728 
*END

*D_NET *197 0.0111218
*CONN
*I *1654:A2 I *D sg13g2_a21oi_1
*I *1653:B I *D sg13g2_nor2_1
*I *1795:A2 I *D sg13g2_a21oi_1
*I *1794:B I *D sg13g2_nor2_1
*I *1650:A2 I *D sg13g2_a21oi_1
*I *1649:B I *D sg13g2_nor2_1
*I *1652:A2 I *D sg13g2_a21oi_1
*I *1651:B I *D sg13g2_nor2_1
*I *1648:Y O *D sg13g2_nand2_1
*CAP
1 *1654:A2 0.000277333
2 *1653:B 0
3 *1795:A2 0.000270611
4 *1794:B 2.77984e-05
5 *1650:A2 0.000370134
6 *1649:B 9.92282e-05
7 *1652:A2 0
8 *1651:B 0
9 *1648:Y 0.000439019
10 *197:82 0.00030888
11 *197:62 0.000371978
12 *197:46 0.000976542
13 *197:40 0.00161605
14 *197:29 0.00142894
15 *197:23 0.00078267
16 *197:14 0.000409722
17 *197:10 0.000491257
18 *1649:B *1649:A 1.53453e-05
19 *1649:B *1650:B1 0.000111175
20 *1649:B *951:55 0
21 *1649:B *1104:62 1.54449e-05
22 *1649:B *1104:82 0.000161509
23 *1650:A2 *1650:A1 0.000336949
24 *1650:A2 *1650:B1 0.000289347
25 *1650:A2 *1104:82 0.000436227
26 *1650:A2 *1104:97 0.000259171
27 *1654:A2 *1654:B1 0
28 *1654:A2 *1660:A 0
29 *1654:A2 *367:12 1.54008e-05
30 *1794:B *1794:A 0
31 *1795:A2 *1273:A 0
32 *1795:A2 *1273:B 0.000112558
33 *1795:A2 *1795:B1 0
34 *197:10 *1651:A 0
35 *197:10 *1658:A 0
36 *197:10 *2289:A 0
37 *197:10 *202:10 0
38 *197:10 *329:10 7.96263e-05
39 *197:10 *657:14 0.000435769
40 *197:10 *1019:8 0
41 *197:14 *1651:A 0
42 *197:14 *1652:B1 4.79124e-05
43 *197:23 *1651:A 0
44 *197:23 *1652:B1 0
45 *197:23 *202:32 0
46 *197:23 *655:10 0
47 *197:29 *1259:A 0
48 *197:29 *1652:B1 0
49 *197:29 *1654:B1 0.000274397
50 *197:29 *368:8 0
51 *197:40 *1652:A1 1.54008e-05
52 *197:40 *1652:B1 0
53 *197:40 *1794:A 0.00033942
54 *197:40 *1873:RESET_B 0
55 *197:40 *2003:RESET_B 0
56 *197:40 *367:12 0
57 *197:40 *657:14 0
58 *197:40 *1144:26 0
59 *197:40 *1144:32 0
60 *197:46 *1280:B 0
61 *197:46 *382:8 0
62 *197:46 *389:10 0.000290568
63 *197:46 *510:59 0
64 *197:46 *951:59 0
65 *197:62 *1273:B 1.54008e-05
66 *197:62 *1794:A 0
67 *197:62 *1144:10 0
68 *197:62 *1144:26 0
69 *1873:D *197:29 0
70 *1873:D *197:40 0
71 *2290:A *197:14 0
72 *2290:A *197:23 0
73 *2297:A *197:23 0
74 *2297:A *197:82 0
75 *136:10 *197:29 0
76 *153:10 *197:40 0
*RES
1 *1648:Y *197:10 44.268 
2 *197:10 *197:14 20.4576 
3 *197:14 *1651:B 20 
4 *197:14 *197:23 3.3704 
5 *197:23 *197:29 3.5112 
6 *197:29 *1652:A2 20 
7 *197:29 *197:40 8.6856 
8 *197:40 *197:46 44.9456 
9 *197:46 *1649:B 21.012 
10 *197:46 *1650:A2 23.9688 
11 *197:40 *197:62 0.6424 
12 *197:62 *1794:B 20.2992 
13 *197:62 *1795:A2 22.3232 
14 *197:23 *197:82 0.6424 
15 *197:82 *1653:B 20 
16 *197:82 *1654:A2 22.2352 
*END

*D_NET *198 0.00168384
*CONN
*I *1650:B1 I *D sg13g2_a21oi_1
*I *1649:Y O *D sg13g2_nor2_1
*CAP
1 *1650:B1 0.000641657
2 *1649:Y 0.000641657
3 *1650:B1 *1272:A 0
4 *1650:B1 *1281:A1 0
5 *1650:B1 *1650:A1 0
6 *1650:B1 *389:10 0
7 *1650:B1 *951:55 0
8 *1649:B *1650:B1 0.000111175
9 *1650:A2 *1650:B1 0.000289347
*RES
1 *1649:Y *1650:B1 45.632 
*END

*D_NET *199 0.00187453
*CONN
*I *1652:B1 I *D sg13g2_a21oi_1
*I *1651:Y O *D sg13g2_nor2_1
*CAP
1 *1652:B1 0.000768299
2 *1651:Y 0.000768299
3 *1652:B1 *1210:A 0
4 *1652:B1 *1259:A 0
5 *1652:B1 *1651:A 4.79124e-05
6 *1652:B1 *657:14 0
7 *136:10 *1652:B1 0.00024211
8 *197:14 *1652:B1 4.79124e-05
9 *197:23 *1652:B1 0
10 *197:29 *1652:B1 0
11 *197:40 *1652:B1 0
*RES
1 *1651:Y *1652:B1 46.9784 
*END

*D_NET *200 0.000737069
*CONN
*I *1654:B1 I *D sg13g2_a21oi_1
*I *1653:Y O *D sg13g2_nor2_1
*CAP
1 *1654:B1 0.000231336
2 *1653:Y 0.000231336
3 *1654:A2 *1654:B1 0
4 *197:29 *1654:B1 0.000274397
*RES
1 *1653:Y *1654:B1 42.1384 
*END

*D_NET *201 0.00147163
*CONN
*I *1656:B I *D sg13g2_nand2_2
*I *1800:A I *D sg13g2_xnor2_1
*I *1655:Y O *D sg13g2_inv_1
*CAP
1 *1656:B 3.20359e-05
2 *1800:A 0.000233762
3 *1655:Y 0.000103418
4 *201:8 0.000369216
5 *1656:B *202:10 1.54008e-05
6 *1800:A *2006:RESET_B 8.01447e-05
7 *1648:A *201:8 0.000215371
8 *193:27 *1800:A 0
9 *193:31 *1800:A 0.000291942
10 *193:31 *201:8 0.000130344
*RES
1 *1655:Y *201:8 41.3552 
2 *201:8 *1800:A 42.8952 
3 *201:8 *1656:B 40.2728 
*END

*D_NET *202 0.00943668
*CONN
*I *1661:A2 I *D sg13g2_a21oi_1
*I *1657:S I *D sg13g2_mux2_1
*I *1793:S I *D sg13g2_mux2_1
*I *1660:B I *D sg13g2_nor2_1
*I *1659:A2 I *D sg13g2_a21oi_1
*I *1658:B I *D sg13g2_nor2_1
*I *1656:Y O *D sg13g2_nand2_2
*CAP
1 *1661:A2 0.000316747
2 *1657:S 0.000108019
3 *1793:S 0.000327555
4 *1660:B 0
5 *1659:A2 0
6 *1658:B 0
7 *1656:Y 0.000623877
8 *202:41 0.000435574
9 *202:39 0.000800629
10 *202:32 0.00128734
11 *202:21 0.000924565
12 *202:10 0.000744986
13 *1657:S *951:8 0
14 *1657:S *1107:39 0.000288688
15 *1661:A2 *1661:A1 0.000255902
16 *1661:A2 *951:55 0
17 *1661:A2 *1107:30 4.76661e-05
18 *1661:A2 *1144:26 0
19 *1793:S *1274:A2 0.000235141
20 *1793:S *946:10 0.000607373
21 *1793:S *1104:12 0
22 *202:10 *2006:RESET_B 0
23 *202:10 *329:10 0
24 *202:10 *1146:45 0
25 *202:21 *365:20 7.49652e-05
26 *202:32 *1871:D 0.000175608
27 *202:32 *2296:A 0.000240258
28 *202:32 *365:39 0
29 *202:32 *654:24 0
30 *202:32 *655:10 0
31 *202:32 *1163:20 0
32 *202:39 *1661:A1 0.000433456
33 *202:39 *1107:30 0.00020816
34 *1656:B *202:10 1.54008e-05
35 *2290:A *202:32 0.000207804
36 *2297:A *1661:A2 0.00022515
37 *2297:A *202:32 0
38 *2297:A *202:39 0.000851813
39 *153:10 *1793:S 0
40 *197:10 *202:10 0
41 *197:23 *202:32 0
*RES
1 *1656:Y *202:10 45.8256 
2 *202:10 *1658:B 40 
3 *202:10 *202:21 21.144 
4 *202:21 *1659:A2 20 
5 *202:21 *202:32 7.3392 
6 *202:32 *1660:B 20 
7 *202:32 *202:39 4.8928 
8 *202:39 *202:41 20 
9 *202:41 *1793:S 43.8896 
10 *202:41 *1657:S 41.3552 
11 *202:39 *1661:A2 23.2736 
*END

*D_NET *203 0.000501313
*CONN
*I *2289:A I *D sg13g2_dlygate4sd3_1
*I *1658:Y O *D sg13g2_nor2_1
*CAP
1 *2289:A 0.000250656
2 *1658:Y 0.000250656
3 *2289:A *655:10 0
4 *2289:A *657:14 0
5 *197:10 *2289:A 0
*RES
1 *1658:Y *2289:A 42.1384 
*END

*D_NET *204 0.000740986
*CONN
*I *2296:A I *D sg13g2_dlygate4sd3_1
*I *1660:Y O *D sg13g2_nor2_1
*CAP
1 *2296:A 0.000130235
2 *1660:Y 0.000130235
3 *2297:A *2296:A 0.000240258
4 *202:32 *2296:A 0.000240258
*RES
1 *1660:Y *2296:A 41.3816 
*END

*D_NET *205 0.00989312
*CONN
*I *1667:S I *D sg13g2_mux2_1
*I *1664:S I *D sg13g2_mux2_1
*I *2254:A I *D sg13g2_buf_1
*I *1662:Y O *D sg13g2_nand3_1
*CAP
1 *1667:S 0
2 *1664:S 2.82753e-05
3 *2254:A 0
4 *1662:Y 0.00274194
5 *205:28 0.000182682
6 *205:22 0.000889324
7 *205:14 0.000818044
8 *205:10 0.00288162
9 *1664:S *1664:A0 0
10 *1664:S *410:16 0
11 *205:10 *1557:B1 0
12 *205:10 *1564:B2 0.000143577
13 *205:10 *1564:C1 0
14 *205:10 *1564:A2 0
15 *205:10 *1710:A2 8.00842e-05
16 *205:10 *2021:CLK 0.000274452
17 *205:10 *2037:CLK 0.000274463
18 *205:10 *2046:RESET_B 0
19 *205:10 *2079:CLK 0
20 *205:10 *564:34 0
21 *205:10 *569:25 0
22 *205:10 *571:12 0
23 *205:10 *717:39 0
24 *205:10 *725:16 0
25 *205:10 *725:25 0
26 *205:10 *725:40 0
27 *205:10 *726:8 0
28 *205:10 *940:8 0
29 *205:10 *940:36 0
30 *205:10 *940:40 0
31 *205:10 *940:42 0
32 *205:10 *940:50 0
33 *205:14 *349:27 0
34 *205:14 *710:10 0.000340704
35 *205:14 *1113:109 0.000554279
36 *205:14 *1125:38 0
37 *205:22 *1664:A0 0
38 *205:22 *410:16 0
39 *205:22 *722:6 0
40 *205:22 *722:10 0
41 *205:22 *1113:109 0.000182519
42 *205:28 *413:8 0.000501155
43 *205:28 *702:16 0
*RES
1 *1662:Y *205:10 43.2056 
2 *205:10 *205:14 22.2 
3 *205:14 *205:22 26.0984 
4 *205:22 *205:28 41.9888 
5 *205:28 *2254:A 20 
6 *205:22 *1664:S 20.2728 
7 *205:14 *1667:S 40 
*END

*D_NET *207 0.000411721
*CONN
*I *1669:B1 I *D sg13g2_a21oi_1
*I *1668:Y O *D sg13g2_nor2_1
*CAP
1 *1669:B1 0.000205861
2 *1668:Y 0.000205861
3 *1669:B1 intr_gpio_o[1] 0
*RES
1 *1668:Y *1669:B1 41.892 
*END

*D_NET *208 0.000426052
*CONN
*I *1671:B1 I *D sg13g2_a21oi_1
*I *1670:Y O *D sg13g2_nor2_1
*CAP
1 *1671:B1 0.000213026
2 *1670:Y 0.000213026
3 *1671:B1 *285:14 0
4 *1671:B1 *1122:82 0
*RES
1 *1670:Y *1671:B1 41.6808 
*END

*D_NET *209 0.000892112
*CONN
*I *1677:A I *D sg13g2_nor2_1
*I *1693:A1 I *D sg13g2_a21o_1
*I *1675:Y O *D sg13g2_inv_1
*CAP
1 *1677:A 0.00018885
2 *1693:A1 0.000105528
3 *1675:Y 5.80863e-05
4 *209:6 0.000352465
5 *1677:A *1693:A2 0.000187183
6 *1677:A *211:36 0
7 *1677:A *280:16 0
8 *1693:A1 *2056:CLK 0
*RES
1 *1675:Y *209:6 20.5104 
2 *209:6 *1693:A1 20.968 
3 *209:6 *1677:A 21.936 
*END

*D_NET *210 0.00248553
*CONN
*I *1689:B I *D sg13g2_nand2_1
*I *1677:B I *D sg13g2_nor2_1
*I *1693:A2 I *D sg13g2_a21o_1
*I *1676:Y O *D sg13g2_nand2_1
*CAP
1 *1689:B 0.000274449
2 *1677:B 6.6327e-05
3 *1693:A2 0.000200807
4 *1676:Y 0.000174063
5 *210:14 0.000436493
6 *210:8 0.000617871
7 *1677:B *280:16 3.83279e-05
8 *1689:B *1688:A_N 8.00842e-05
9 *1689:B *1689:A 0
10 *1689:B *1690:A1 0
11 *1689:B *280:16 0.00011226
12 *1693:A2 *211:36 0
13 *1693:A2 *212:15 7.48072e-05
14 *1693:A2 *895:8 0
15 *210:14 *212:15 0.000143413
16 *210:14 *280:16 7.94418e-05
17 *210:14 *895:8 0
18 *1677:A *1693:A2 0.000187183
*RES
1 *1676:Y *210:8 41.5664 
2 *210:8 *210:14 21.5224 
3 *210:14 *1693:A2 21.9492 
4 *210:14 *1677:B 20.8448 
5 *210:8 *1689:B 42.42 
*END

*D_NET *211 0.0023207
*CONN
*I *1694:A2 I *D sg13g2_a21oi_1
*I *1678:A I *D sg13g2_nand2_1
*I *1782:A I *D sg13g2_inv_1
*I *1677:Y O *D sg13g2_nor2_1
*CAP
1 *1694:A2 0
2 *1678:A 0
3 *1782:A 0.000203922
4 *1677:Y 0.000125309
5 *211:36 0.000348844
6 *211:21 0.000348844
7 *211:10 0.00032923
8 *1782:A *214:22 0.000341205
9 *211:10 *1784:A1 0
10 *211:10 *280:16 0.000340791
11 *211:36 *1694:A1 4.79124e-05
12 *211:36 *2056:CLK 0
13 *211:36 *214:35 0.00023464
14 *211:36 *895:27 0
15 *1677:A *211:36 0
16 *1693:A2 *211:36 0
*RES
1 *1677:Y *211:10 41.628 
2 *211:10 *1782:A 42.2 
3 *211:10 *211:21 20 
4 *211:21 *1678:A 20 
5 *211:21 *211:36 43.0096 
6 *211:36 *1694:A2 20 
*END

*D_NET *212 0.00224614
*CONN
*I *1784:B1 I *D sg13g2_o21ai_1
*I *1690:A1 I *D sg13g2_a21oi_1
*I *1681:A1 I *D sg13g2_a21oi_1
*I *1678:Y O *D sg13g2_nand2_1
*CAP
1 *1784:B1 0
2 *1690:A1 0.000219098
3 *1681:A1 0.000283482
4 *1678:Y 0
5 *212:15 0.000432137
6 *212:4 0.000496521
7 *1681:A1 *1681:A2 0.000209637
8 *1681:A1 *1784:A2 0
9 *1681:A1 *214:14 0
10 *1681:A1 *895:8 0.000306963
11 *1690:A1 *1681:A2 0
12 *1690:A1 *1784:A2 8.00842e-05
13 *212:15 *280:16 0
14 *1689:B *1690:A1 0
15 *1693:A2 *212:15 7.48072e-05
16 *210:14 *212:15 0.000143413
*RES
1 *1678:Y *212:4 20 
2 *212:4 *1681:A1 22.86 
3 *212:4 *212:15 2.7368 
4 *212:15 *1690:A1 21.9536 
5 *212:15 *1784:B1 20 
*END

*D_NET *213 0.000821435
*CONN
*I *1680:A I *D sg13g2_inv_2
*I *1679:Y O *D sg13g2_xnor2_1
*CAP
1 *1680:A 0
2 *1679:Y 0.000306196
3 *213:10 0.000306196
4 *213:10 *387:36 0.000209043
5 *213:10 *392:24 0
6 *213:10 *896:10 0
*RES
1 *1679:Y *213:10 42.552 
2 *213:10 *1680:A 40 
*END

*D_NET *214 0.00476403
*CONN
*I *1690:B1 I *D sg13g2_a21oi_1
*I *1681:B1 I *D sg13g2_a21oi_1
*I *1693:B1 I *D sg13g2_a21o_1
*I *1783:B1 I *D sg13g2_a21oi_1
*I *1680:Y O *D sg13g2_inv_2
*CAP
1 *1690:B1 0.000118792
2 *1681:B1 0
3 *1693:B1 0
4 *1783:B1 0
5 *1680:Y 0.000432882
6 *214:35 0.000273266
7 *214:22 0.000172354
8 *214:14 0.00086912
9 *214:10 0.0004235
10 *214:8 0.000551673
11 *214:14 *2056:RESET_B 0
12 *214:14 *2056:CLK 0.00037174
13 *214:14 *218:8 0
14 *214:14 *895:8 0
15 *214:14 *895:27 1.54008e-05
16 *214:22 *1785:A 0
17 *214:22 *2056:RESET_B 4.78192e-05
18 *214:22 *280:16 0.000606278
19 *214:22 *891:8 0
20 *214:35 *1694:A1 0
21 *214:35 *2056:CLK 0.000241088
22 *214:35 *219:8 0
23 *214:35 *280:16 0
24 *214:35 *831:32 0
25 *214:35 *895:27 6.42754e-05
26 *1681:A1 *214:14 0
27 *1782:A *214:22 0.000341205
28 *211:36 *214:35 0.00023464
*RES
1 *1680:Y *214:8 44.5232 
2 *214:8 *214:10 20 
3 *214:10 *214:14 3.8984 
4 *214:14 *214:22 42.684 
5 *214:22 *1783:B1 20 
6 *214:14 *214:35 42.7368 
7 *214:35 *1693:B1 20 
8 *214:10 *1681:B1 20 
9 *214:8 *1690:B1 41.144 
*END

*D_NET *215 0.00149633
*CONN
*I *1688:B I *D sg13g2_nand2b_1
*I *1784:A1 I *D sg13g2_o21ai_1
*I *1687:Y O *D sg13g2_inv_1
*CAP
1 *1688:B 0
2 *1784:A1 0.000137767
3 *1687:Y 0.000162267
4 *215:8 0.000300034
5 *1784:A1 *1139:30 0.000393769
6 *215:8 *1926:CLK 0.00023575
7 *215:8 *1101:49 0
8 *215:8 *1139:30 0.000266746
9 *211:10 *1784:A1 0
*RES
1 *1687:Y *215:8 41.9888 
2 *215:8 *1784:A1 41.5664 
3 *215:8 *1688:B 40 
*END

*D_NET *216 0.000353703
*CONN
*I *1689:A I *D sg13g2_nand2_1
*I *1688:Y O *D sg13g2_nand2b_1
*CAP
1 *1689:A 0.000176852
2 *1688:Y 0.000176852
3 *1689:A *1139:26 0
4 *1689:B *1689:A 0
*RES
1 *1688:Y *1689:A 41.496 
*END

*D_NET *217 0.000236127
*CONN
*I *1690:A2 I *D sg13g2_a21oi_1
*I *1689:Y O *D sg13g2_nand2_1
*CAP
1 *1690:A2 0
2 *1689:Y 0.000118063
3 *217:8 0.000118063
*RES
1 *1689:Y *217:8 41.144 
2 *217:8 *1690:A2 40 
*END

*D_NET *218 0.00105615
*CONN
*I *1694:A1 I *D sg13g2_a21oi_1
*I *1783:A2 I *D sg13g2_a21oi_1
*I *1692:Y O *D sg13g2_inv_1
*CAP
1 *1694:A1 0.00015316
2 *1783:A2 0.000187657
3 *1692:Y 0.000120614
4 *218:8 0.00046143
5 *1694:A1 *1694:B1 0
6 *1694:A1 *2056:RESET_B 0
7 *1694:A1 *895:27 2.21754e-05
8 *1783:A2 *1783:A1 1.54556e-05
9 *1783:A2 *2056:RESET_B 0
10 *218:8 *1783:A1 0
11 *218:8 *895:27 4.77425e-05
12 *211:36 *1694:A1 4.79124e-05
13 *214:14 *218:8 0
14 *214:35 *1694:A1 0
*RES
1 *1692:Y *218:8 21.3376 
2 *218:8 *1783:A2 21.936 
3 *218:8 *1694:A1 21.496 
*END

*D_NET *219 0.000517374
*CONN
*I *1694:B1 I *D sg13g2_a21oi_1
*I *1693:X O *D sg13g2_a21o_1
*CAP
1 *1694:B1 5.14033e-05
2 *1693:X 0.000207284
3 *219:8 0.000258687
4 *1694:B1 *2056:RESET_B 0
5 *1694:B1 *2056:CLK 0
6 *1694:B1 *833:38 0
7 *219:8 *831:32 0
8 *219:8 *890:8 0
9 *1694:A1 *1694:B1 0
10 *214:35 *219:8 0
*RES
1 *1693:X *219:8 41.7776 
2 *219:8 *1694:B1 40.4576 
*END

*D_NET *220 0.00033613
*CONN
*I *1696:B1 I *D sg13g2_a21oi_1
*I *1695:Y O *D sg13g2_nor2_1
*CAP
1 *1696:B1 0.000168065
2 *1695:Y 0.000168065
3 *1696:B1 *1514:B 0
4 *1696:B1 *1515:A2 0
*RES
1 *1695:Y *1696:B1 41.6896 
*END

*D_NET *221 0.00048631
*CONN
*I *1698:B1 I *D sg13g2_a21oi_1
*I *1697:Y O *D sg13g2_nor2_1
*CAP
1 *1698:B1 0.000243155
2 *1697:Y 0.000243155
3 *1698:B1 *1554:A 0
4 *1698:B1 *1698:A1 0
5 *1698:B1 *1698:A2 0
6 *1698:B1 *1109:46 0
*RES
1 *1697:Y *1698:B1 42.3408 
*END

*D_NET *222 0.00262062
*CONN
*I *1704:A2 I *D sg13g2_a21oi_1
*I *1807:A1 I *D sg13g2_o21ai_1
*I *1702:Y O *D sg13g2_inv_1
*CAP
1 *1704:A2 0.000277603
2 *1807:A1 8.69617e-05
3 *1702:Y 0.000327279
4 *222:10 0.000691843
5 *1704:A2 *519:36 0
6 *1704:A2 *519:42 0
7 *1704:A2 *762:8 0
8 *1704:A2 *1126:26 0
9 *1807:A1 *1807:A2 4.77425e-05
10 *1807:A1 *342:8 0.000234224
11 *222:10 *1702:A 0.000144767
12 *222:10 *342:8 0.00012816
13 *222:10 *519:51 0
14 *222:10 *519:85 0
15 *222:10 *762:8 0.000500843
16 *161:8 *1807:A1 0.000181192
*RES
1 *1702:Y *222:10 43.3704 
2 *222:10 *1807:A1 41.2056 
3 *222:10 *1704:A2 42.0504 
*END

*D_NET *223 0.000596273
*CONN
*I *1704:B1 I *D sg13g2_a21oi_1
*I *1703:Y O *D sg13g2_nor2_1
*CAP
1 *1704:B1 0.000290436
2 *1703:Y 0.000290436
3 *1704:B1 *1864:CLK 1.54008e-05
4 *1704:B1 *519:36 0
5 *81:10 *1704:B1 0
*RES
1 *1703:Y *1704:B1 42.9568 
*END

*D_NET *224 0.000825961
*CONN
*I *1707:A1 I *D sg13g2_a21oi_1
*I *1708:B I *D sg13g2_nor2_1
*I *1706:Y O *D sg13g2_inv_1
*CAP
1 *1707:A1 4.87235e-05
2 *1708:B 0
3 *1706:Y 0.00010562
4 *224:14 0.000165306
5 *224:6 0.00031965
6 *1707:A1 *1564:A2 0
7 *1707:A1 *1707:A2 1.54556e-05
8 *1707:A1 *1123:71 0
9 *224:6 *1564:A2 0
10 *224:6 *569:33 1.54008e-05
11 *224:6 *1106:88 0
12 *224:14 *1564:A2 8.02598e-05
13 *224:14 *1707:B1 7.55443e-05
14 *224:14 *1708:A 0
15 *224:14 *225:8 0
16 *224:14 *569:25 0
17 *224:14 *842:54 0
18 *224:14 *843:25 0
*RES
1 *1706:Y *224:6 20.8272 
2 *224:6 *224:14 41.3904 
3 *224:14 *1708:B 20 
4 *224:6 *1707:A1 20.4576 
*END

*D_NET *225 0.00125252
*CONN
*I *1710:A2 I *D sg13g2_a21oi_1
*I *1707:Y O *D sg13g2_a21oi_1
*CAP
1 *1710:A2 5.2374e-05
2 *1707:Y 0.000319335
3 *225:8 0.000371709
4 *1710:A2 *725:48 1.54008e-05
5 *1710:A2 *726:8 0
6 *225:8 *226:12 0.000128112
7 *225:8 *842:33 0.000285508
8 *205:10 *1710:A2 8.00842e-05
9 *224:14 *225:8 0
*RES
1 *1707:Y *225:8 42.6224 
2 *225:8 *1710:A2 40.4576 
*END

*D_NET *226 0.00111121
*CONN
*I *1709:B I *D sg13g2_nor3_1
*I *1708:Y O *D sg13g2_nor2_1
*CAP
1 *1709:B 0
2 *1708:Y 0.00037423
3 *226:12 0.00037423
4 *226:12 *1707:B1 0
5 *226:12 *725:48 0.00023464
6 *226:12 *843:25 0
7 *225:8 *226:12 0.000128112
*RES
1 *1708:Y *226:12 43.6168 
2 *226:12 *1709:B 40 
*END

*D_NET *227 0.000267743
*CONN
*I *1710:B1 I *D sg13g2_a21oi_1
*I *1709:Y O *D sg13g2_nor3_1
*CAP
1 *1710:B1 9.3758e-05
2 *1709:Y 9.3758e-05
3 *1710:B1 *362:6 0
4 *1710:B1 *725:40 0
5 *1710:B1 *726:8 8.02269e-05
*RES
1 *1709:Y *1710:B1 40.968 
*END

*D_NET *228 0.0036015
*CONN
*I *1715:A1 I *D sg13g2_a21oi_1
*I *1716:B I *D sg13g2_nor2_1
*I *1714:Y O *D sg13g2_inv_1
*CAP
1 *1715:A1 0.000678696
2 *1716:B 0.000316045
3 *1714:Y 0.000151798
4 *228:8 0.00114654
5 *1715:A1 *1303:A1 0
6 *1715:A1 *1715:A2 0.000122072
7 *1715:A1 *1715:B1 0
8 *1715:A1 *410:16 0.000241395
9 *1715:A1 *727:20 0.000555889
10 *1716:B *1364:B1 4.77425e-05
11 *1716:B *1717:B 0
12 *1716:B *458:16 0
13 *1716:B *727:20 0.000144726
14 *228:8 *1125:10 0
15 *14:10 *1715:A1 0.000181192
16 *14:10 *1716:B 1.54008e-05
*RES
1 *1714:Y *228:8 41.144 
2 *228:8 *1716:B 42.508 
3 *228:8 *1715:A1 46.028 
*END

*D_NET *229 0.000379318
*CONN
*I *1718:A2 I *D sg13g2_a21oi_1
*I *1715:Y O *D sg13g2_a21oi_1
*CAP
1 *1718:A2 0.000133446
2 *1715:Y 0.000133446
3 *1718:A2 *1715:B1 0.000112426
4 *1718:A2 *1717:B 0
5 *1718:A2 *2095:A 0
6 *1718:A2 *727:20 0
*RES
1 *1715:Y *1718:A2 41.1968 
*END

*D_NET *230 0.00264126
*CONN
*I *1717:B I *D sg13g2_nor3_1
*I *1716:Y O *D sg13g2_nor2_1
*CAP
1 *1717:B 0.00111235
2 *1716:Y 0.00111235
3 *1717:B *1303:S 0
4 *1717:B *1717:A 1.54008e-05
5 *1717:B *458:16 0.000231812
6 *1717:B *727:20 0
7 *1717:B *1113:83 0.00012193
8 *1717:B *1113:109 0
9 *1717:B *1123:36 0
10 *1717:B *1125:10 4.74145e-05
11 *1716:B *1717:B 0
12 *1718:A2 *1717:B 0
13 *14:10 *1717:B 0
*RES
1 *1716:Y *1717:B 49.0464 
*END

*D_NET *231 0.000232591
*CONN
*I *1718:B1 I *D sg13g2_a21oi_1
*I *1717:Y O *D sg13g2_nor3_1
*CAP
1 *1718:B1 0.000116296
2 *1717:Y 0.000116296
*RES
1 *1717:Y *1718:B1 41.056 
*END

*D_NET *232 0.000772797
*CONN
*I *1721:A I *D sg13g2_nor2_1
*I *1719:Y O *D sg13g2_inv_1
*CAP
1 *1721:A 0.000257594
2 *1719:Y 0.000257594
3 *1721:A *1705:A0 0
4 *1721:A *1719:A 2.47016e-05
5 *1721:A *1721:B 0
6 *1721:A *234:10 0.000232908
*RES
1 *1719:Y *1721:A 42.5608 
*END

*D_NET *233 0.00186738
*CONN
*I *1721:B I *D sg13g2_nor2_1
*I *1767:A2 I *D sg13g2_o21ai_1
*I *1720:Y O *D sg13g2_inv_1
*CAP
1 *1721:B 0.000425833
2 *1767:A2 0
3 *1720:Y 0
4 *233:12 0.000185531
5 *233:4 0.000611364
6 *1721:B *1720:A 0
7 *1721:B *1738:A2 0
8 *1721:B *2260:A 0
9 *1721:B *234:10 0.000144942
10 *1721:B *238:19 0
11 *1721:B *853:10 4.7813e-05
12 *1721:B *856:49 4.77425e-05
13 *1721:B *1115:44 0
14 *233:12 *1720:A 0.000112651
15 *233:12 *1738:A2 0
16 *233:12 *310:14 0.000291502
17 *1721:A *1721:B 0
*RES
1 *1720:Y *233:4 20 
2 *233:4 *233:12 41.7864 
3 *233:12 *1767:A2 20 
4 *233:4 *1721:B 23.7576 
*END

*D_NET *234 0.00385309
*CONN
*I *1728:A2 I *D sg13g2_o21ai_1
*I *1722:A I *D sg13g2_nand2_1
*I *1721:Y O *D sg13g2_nor2_1
*CAP
1 *1728:A2 0
2 *1722:A 0.000225754
3 *1721:Y 0.000939635
4 *234:12 0.000225754
5 *234:10 0.000939635
6 *1722:A *1722:B 0.000144942
7 *1722:A *1728:B1 0
8 *1722:A *1728:A1 8.03692e-05
9 *1722:A *240:8 0
10 *1722:A *859:18 8.02269e-05
11 *234:10 *1719:A 0
12 *234:10 *1720:A 0.000274594
13 *234:10 *1726:A1 0
14 *234:10 *1726:B1 0.000242281
15 *234:10 *1737:B 6.48039e-05
16 *234:10 *1738:B1 0
17 *234:10 *235:8 0
18 *234:10 *236:27 8.00842e-05
19 *234:10 *238:19 0
20 *234:10 *245:8 0
21 *234:10 *268:10 0.000177164
22 *1721:A *234:10 0.000232908
23 *1721:B *234:10 0.000144942
*RES
1 *1721:Y *234:10 48.36 
2 *234:10 *234:12 20 
3 *234:12 *1722:A 22.1648 
4 *234:12 *1728:A2 20 
*END

*D_NET *235 0.000970982
*CONN
*I *1726:A1 I *D sg13g2_a21oi_1
*I *1727:A I *D sg13g2_inv_1
*I *1722:Y O *D sg13g2_nand2_1
*CAP
1 *1726:A1 0.000154381
2 *1727:A 0
3 *1722:Y 6.90807e-05
4 *235:8 0.000223462
5 *1726:A1 *236:12 0
6 *1726:A1 *859:8 0.000289003
7 *1726:A1 *859:18 0.000159839
8 *235:8 *859:18 7.52158e-05
9 *234:10 *1726:A1 0
10 *234:10 *235:8 0
*RES
1 *1722:Y *235:8 40.7216 
2 *235:8 *1727:A 40 
3 *235:8 *1726:A1 41.7776 
*END

*D_NET *236 0.00263555
*CONN
*I *1729:A2 I *D sg13g2_a21oi_1
*I *1726:A2 I *D sg13g2_a21oi_1
*I *1723:Y O *D sg13g2_inv_1
*CAP
1 *1729:A2 0
2 *1726:A2 0
3 *1723:Y 0
4 *236:27 0.000500309
5 *236:12 0.000201682
6 *236:4 0.000701991
7 *236:12 *2078:RESET_B 0
8 *236:12 *2078:D 0
9 *236:12 *859:8 0
10 *236:27 *1726:B1 0
11 *236:27 *1728:B1 0.00027437
12 *236:27 *239:8 0.000209681
13 *236:27 *239:23 0.00066743
14 *236:27 *854:10 0
15 *1726:A1 *236:12 0
16 *234:10 *236:27 8.00842e-05
*RES
1 *1723:Y *236:4 20 
2 *236:4 *236:12 41.6016 
3 *236:12 *1726:A2 20 
4 *236:4 *236:27 44.6992 
5 *236:27 *1729:A2 20 
*END

*D_NET *237 0.00172003
*CONN
*I *1725:A I *D sg13g2_inv_1
*I *1728:B1 I *D sg13g2_o21ai_1
*I *1724:Y O *D sg13g2_xnor2_1
*CAP
1 *1725:A 0
2 *1728:B1 0.000269082
3 *1724:Y 0.000130297
4 *237:21 0.000193397
5 *237:6 0.000592776
6 *1728:B1 *240:8 0
7 *1728:B1 *854:10 0
8 *237:6 *1724:B 0
9 *237:6 *1767:B1 0
10 *237:6 *856:14 0
11 *237:21 *240:16 0.000130055
12 *237:21 *268:10 0.000130055
13 *1722:A *1728:B1 0
14 *236:27 *1728:B1 0.00027437
*RES
1 *1724:Y *237:6 21.1968 
2 *237:6 *1728:B1 22.2352 
3 *237:6 *237:21 41.7776 
4 *237:21 *1725:A 20 
*END

*D_NET *238 0.00160446
*CONN
*I *1738:B1 I *D sg13g2_a21oi_1
*I *1739:B1 I *D sg13g2_a21oi_1
*I *1726:B1 I *D sg13g2_a21oi_1
*I *1725:Y O *D sg13g2_inv_1
*CAP
1 *1738:B1 0.000204711
2 *1739:B1 0
3 *1726:B1 0.000350966
4 *1725:Y 0
5 *238:19 0.000330123
6 *238:4 0.000476379
7 *1726:B1 *859:18 0
8 *1738:B1 *1738:A1 0
9 *1738:B1 *245:31 0
10 *238:19 *2075:D 0
11 *238:19 *245:31 0
12 *1721:B *238:19 0
13 *234:10 *1726:B1 0.000242281
14 *234:10 *1738:B1 0
15 *234:10 *238:19 0
16 *236:27 *1726:B1 0
*RES
1 *1725:Y *238:4 20 
2 *238:4 *1726:B1 23.1592 
3 *238:4 *238:19 1.2408 
4 *238:19 *1739:B1 20 
5 *238:19 *1738:B1 21.5664 
*END

*D_NET *239 0.00202417
*CONN
*I *1729:A1 I *D sg13g2_a21oi_1
*I *1736:A I *D sg13g2_nand2_1
*I *1727:Y O *D sg13g2_inv_1
*CAP
1 *1729:A1 0
2 *1736:A 0
3 *1727:Y 0.000189916
4 *239:23 0.000375912
5 *239:8 0.000565828
6 *239:8 *859:18 0
7 *239:23 *240:16 0
8 *239:23 *245:8 1.54008e-05
9 *239:23 *854:10 0
10 *236:27 *239:8 0.000209681
11 *236:27 *239:23 0.00066743
*RES
1 *1727:Y *239:8 21.7072 
2 *239:8 *1736:A 20 
3 *239:8 *239:23 43.5904 
4 *239:23 *1729:A1 20 
*END

*D_NET *240 0.00188792
*CONN
*I *1768:A_N I *D sg13g2_nand3b_1
*I *1729:B1 I *D sg13g2_a21oi_1
*I *1728:Y O *D sg13g2_o21ai_1
*CAP
1 *1768:A_N 3.34444e-05
2 *1729:B1 0
3 *1728:Y 0.000293318
4 *240:16 0.000132224
5 *240:8 0.000458986
6 *1768:A_N *1768:C 4.77425e-05
7 *240:8 *1768:C 0.0002913
8 *240:8 *859:18 0.000155244
9 *240:16 *1724:B 0
10 *240:16 *269:8 0.000345607
11 *1722:A *240:8 0
12 *1728:B1 *240:8 0
13 *237:21 *240:16 0.000130055
14 *239:23 *240:16 0
*RES
1 *1728:Y *240:8 22.6312 
2 *240:8 *240:16 41.628 
3 *240:16 *1729:B1 20 
4 *240:8 *1768:A_N 20.2728 
*END

*D_NET *241 0.00117578
*CONN
*I *1733:B I *D sg13g2_nor2_1
*I *1732:A1 I *D sg13g2_a21oi_1
*I *1731:Y O *D sg13g2_inv_1
*CAP
1 *1733:B 0.00017202
2 *1732:A1 6.328e-05
3 *1731:Y 9.01402e-05
4 *241:10 0.0002353
5 *241:8 9.01402e-05
6 *1732:A1 *1732:A2 0
7 *1732:A1 *1732:B1 8.02595e-05
8 *1732:A1 *825:29 4.77425e-05
9 *1732:A1 *829:12 0
10 *1732:A1 *904:20 0
11 *1733:B *1732:B1 0
12 *1733:B *243:14 7.95529e-05
13 *1733:B *825:29 0.00024222
14 *1733:B *829:12 0
15 *1733:B *1123:27 0
16 *241:8 *825:29 7.51285e-05
17 *241:8 *849:10 0
*RES
1 *1731:Y *241:8 40.9328 
2 *241:8 *241:10 20 
3 *241:10 *1732:A1 20.6424 
4 *241:10 *1733:B 21.6808 
*END

*D_NET *242 0.00101591
*CONN
*I *1735:A2 I *D sg13g2_a21oi_1
*I *1732:Y O *D sg13g2_a21oi_1
*CAP
1 *1735:A2 6.02538e-05
2 *1732:Y 0.00022935
3 *242:10 0.000289604
4 *1735:A2 *1735:A1 4.77425e-05
5 *1735:A2 *716:34 4.77534e-05
6 *242:10 *1299:A0 0
7 *242:10 *1732:B1 0
8 *242:10 *243:14 0
9 *242:10 *716:42 0.000341205
10 *242:10 *1123:10 0
11 *242:10 *1123:27 0
*RES
1 *1732:Y *242:10 42.0768 
2 *242:10 *1735:A2 40.4576 
*END

*D_NET *243 0.000745406
*CONN
*I *1734:B I *D sg13g2_nor3_1
*I *1733:Y O *D sg13g2_nor2_1
*CAP
1 *1734:B 4.256e-05
2 *1733:Y 0.00024366
3 *243:14 0.000286219
4 *1734:B *716:42 1.38607e-05
5 *243:14 *716:42 0
6 *243:14 *1123:27 7.95529e-05
7 *1733:B *243:14 7.95529e-05
8 *242:10 *243:14 0
*RES
1 *1733:Y *243:14 42.3056 
2 *243:14 *1734:B 40.2728 
*END

*D_NET *244 0.000567279
*CONN
*I *1735:B1 I *D sg13g2_a21oi_1
*I *1734:Y O *D sg13g2_nor3_1
*CAP
1 *1735:B1 0
2 *1734:Y 0.000139968
3 *244:8 0.000139968
4 *244:8 *716:42 0.000287343
5 *244:8 *728:14 0
6 *244:8 *829:12 0
*RES
1 *1734:Y *244:8 41.5664 
2 *244:8 *1735:B1 40 
*END

*D_NET *245 0.00235764
*CONN
*I *1738:A1 I *D sg13g2_a21oi_1
*I *1739:A1 I *D sg13g2_a21oi_1
*I *1767:B1 I *D sg13g2_o21ai_1
*I *1736:Y O *D sg13g2_nand2_1
*CAP
1 *1738:A1 0.000187784
2 *1739:A1 0
3 *1767:B1 0.000266027
4 *1736:Y 0.000114961
5 *245:31 0.000446771
6 *245:8 0.000639975
7 *1738:A1 *1738:A2 1.54446e-05
8 *1738:A1 *1739:A2 0.000209681
9 *1738:A1 *856:49 0
10 *1767:B1 *1768:B 4.77425e-05
11 *1767:B1 *268:10 0.000177164
12 *1767:B1 *856:14 0
13 *245:8 *1768:C 0.000144992
14 *245:31 *1739:A2 1.54556e-05
15 *245:31 *2075:D 0
16 *245:31 *269:8 7.62389e-05
17 *1738:B1 *1738:A1 0
18 *1738:B1 *245:31 0
19 *234:10 *245:8 0
20 *237:6 *1767:B1 0
21 *238:19 *245:31 0
22 *239:23 *245:8 1.54008e-05
*RES
1 *1736:Y *245:8 21.133 
2 *245:8 *1767:B1 22.3034 
3 *245:8 *245:31 42.508 
4 *245:31 *1739:A1 20 
5 *245:31 *1738:A1 21.5664 
*END

*D_NET *246 0.000708008
*CONN
*I *1738:A2 I *D sg13g2_a21oi_1
*I *1737:Y O *D sg13g2_xnor2_1
*CAP
1 *1738:A2 0.000282455
2 *1737:Y 0.000282455
3 *1738:A2 *2076:D 0
4 *1738:A2 *853:10 4.74145e-05
5 *1738:A2 *856:49 8.02379e-05
6 *1721:B *1738:A2 0
7 *1738:A1 *1738:A2 1.54446e-05
8 *233:12 *1738:A2 0
*RES
1 *1737:Y *1738:A2 42.3496 
*END

*D_NET *247 0.00146194
*CONN
*I *1745:A I *D sg13g2_nor2_1
*I *1752:A1 I *D sg13g2_a21oi_1
*I *1740:Y O *D sg13g2_inv_1
*CAP
1 *1745:A 0.000185637
2 *1752:A1 0.000148072
3 *1740:Y 0.000248018
4 *247:14 0.000311675
5 *247:8 0.000225984
6 *1745:A *1771:B 0
7 *1745:A *1772:S 0
8 *1745:A *251:29 0
9 *1752:A1 *1750:A2 0
10 *1752:A1 *1752:B1 0
11 *1752:A1 *1753:A 0
12 *1752:A1 *2070:D 1.54556e-05
13 *1752:A1 *251:14 0.0001441
14 *247:8 *1771:A 0
15 *247:8 *870:8 0.000183
*RES
1 *1740:Y *247:8 40.7216 
2 *247:8 *247:14 41.7512 
3 *247:14 *1752:A1 41.1968 
4 *1740:Y *1745:A 41.496 
*END

*D_NET *248 0.000711232
*CONN
*I *1743:A I *D sg13g2_nor2_1
*I *1741:Y O *D sg13g2_inv_1
*CAP
1 *1743:A 0.000129628
2 *1741:Y 0.000129628
3 *1743:A *249:8 0.000242181
4 *1743:A *869:38 0.000209796
*RES
1 *1741:Y *1743:A 41.3816 
*END

*D_NET *249 0.00163957
*CONN
*I *1743:B I *D sg13g2_nor2_1
*I *1770:A2 I *D sg13g2_a22oi_1
*I *1742:Y O *D sg13g2_inv_1
*CAP
1 *1743:B 0
2 *1770:A2 0
3 *1742:Y 0.000401105
4 *249:14 0.000102478
5 *249:8 0.000503583
6 *249:8 *1755:B 8.03692e-05
7 *249:8 *256:35 0
8 *249:8 *259:10 0
9 *249:8 *869:23 0
10 *249:8 *869:38 0
11 *249:14 *251:14 0
12 *249:14 *253:8 0
13 *249:14 *256:35 0
14 *249:14 *869:38 0.000128576
15 *249:14 *871:25 0.00018128
16 *249:14 *1069:8 0
17 *1743:A *249:8 0.000242181
*RES
1 *1742:Y *249:8 23.344 
2 *249:8 *249:14 41.3552 
3 *249:14 *1770:A2 20 
4 *249:8 *1743:B 20 
*END

*D_NET *250 0.000842826
*CONN
*I *1744:A I *D sg13g2_inv_1
*I *1743:Y O *D sg13g2_nor2_1
*CAP
1 *1744:A 0.000398228
2 *1743:Y 0.000398228
3 *1744:A *1338:A 0
4 *1744:A *1392:A 0
5 *1744:A *1771:C 0
6 *1744:A *251:14 0
7 *1744:A *251:29 4.63695e-05
*RES
1 *1743:Y *1744:A 43.52 
*END

*D_NET *251 0.00308359
*CONN
*I *1745:B I *D sg13g2_nor2_1
*I *1752:A2 I *D sg13g2_a21oi_1
*I *1744:Y O *D sg13g2_inv_1
*CAP
1 *1745:B 0
2 *1752:A2 0
3 *1744:Y 0
4 *251:29 0.000408831
5 *251:14 0.000637125
6 *251:4 0.00104596
7 *251:14 *1338:A 0.000145053
8 *251:14 *1750:A2 0.000144076
9 *251:14 *1771:A 0
10 *251:14 *1771:B 0
11 *251:14 *1771:C 0
12 *251:14 *1772:S 0
13 *251:14 *252:26 0
14 *251:29 *1338:A 0.000112552
15 *251:29 *1772:S 0
16 *251:29 *252:12 0
17 *251:29 *844:107 0.000399531
18 *1744:A *251:14 0
19 *1744:A *251:29 4.63695e-05
20 *1745:A *251:29 0
21 *1752:A1 *251:14 0.0001441
22 *249:14 *251:14 0
*RES
1 *1744:Y *251:4 20 
2 *251:4 *251:14 45.148 
3 *251:14 *1752:A2 20 
4 *251:4 *251:29 43.7752 
5 *251:29 *1745:B 20 
*END

*D_NET *252 0.00400455
*CONN
*I *1754:A2 I *D sg13g2_a21oi_1
*I *1770:B2 I *D sg13g2_a22oi_1
*I *1746:A I *D sg13g2_inv_1
*I *1755:A I *D sg13g2_nand2_1
*I *1745:Y O *D sg13g2_nor2_1
*CAP
1 *1754:A2 0
2 *1770:B2 0
3 *1746:A 0
4 *1755:A 7.56521e-05
5 *1745:Y 0.000379829
6 *252:28 0.000289077
7 *252:26 0.000569614
8 *252:16 0.000591469
9 *252:12 0.000615108
10 *1755:A *1755:B 0
11 *252:12 *1772:S 0
12 *252:12 *2070:D 4.77425e-05
13 *252:12 *844:107 0.000150755
14 *252:12 *870:8 0.000181396
15 *252:16 *2070:D 7.97219e-05
16 *252:16 *254:10 1.54008e-05
17 *252:16 *937:38 0
18 *252:26 *1750:A2 0.000208327
19 *252:26 *1771:C 9.70363e-05
20 *252:26 *254:10 0.000208327
21 *252:26 *871:25 0.000447241
22 *252:28 *1752:B1 0
23 *252:28 *1755:B 0
24 *252:28 *1771:C 4.78521e-05
25 *252:28 *256:35 0
26 *251:14 *252:26 0
27 *251:29 *252:12 0
*RES
1 *1745:Y *252:12 43.3528 
2 *252:12 *252:16 21.7512 
3 *252:16 *252:26 43.6168 
4 *252:26 *252:28 1.7512 
5 *252:28 *1755:A 20.7216 
6 *252:28 *1746:A 20 
7 *252:26 *1770:B2 20 
8 *252:16 *1754:A2 20 
*END

*D_NET *253 0.000286488
*CONN
*I *1750:A1 I *D sg13g2_a21oi_1
*I *1746:Y O *D sg13g2_inv_1
*CAP
1 *1750:A1 0
2 *1746:Y 7.89133e-05
3 *253:8 7.89133e-05
4 *253:8 *256:35 0.000128662
5 *253:8 *871:25 0
6 *253:8 *1117:100 0
7 *249:14 *253:8 0
*RES
1 *1746:Y *253:8 40.9328 
2 *253:8 *1750:A1 40 
*END

*D_NET *254 0.00256021
*CONN
*I *1754:A1 I *D sg13g2_a21oi_1
*I *1750:A2 I *D sg13g2_a21oi_1
*I *1771:A I *D sg13g2_nor3_1
*I *1747:Y O *D sg13g2_inv_1
*CAP
1 *1754:A1 0
2 *1750:A2 0.000417172
3 *1771:A 0.000260807
4 *1747:Y 0.000170075
5 *254:21 0.000417172
6 *254:10 0.000430882
7 *1750:A2 *1752:B1 0
8 *1750:A2 *2070:D 7.99455e-05
9 *1750:A2 *937:38 0
10 *1771:A *844:107 0
11 *1771:A *870:8 0
12 *1771:A *1069:8 0
13 *254:10 *937:38 0.000208027
14 *1752:A1 *1750:A2 0
15 *247:8 *1771:A 0
16 *251:14 *1750:A2 0.000144076
17 *251:14 *1771:A 0
18 *252:16 *254:10 1.54008e-05
19 *252:26 *1750:A2 0.000208327
20 *252:26 *254:10 0.000208327
*RES
1 *1747:Y *254:10 41.7072 
2 *254:10 *1771:A 42.2 
3 *254:10 *254:21 20 
4 *254:21 *1750:A2 23.7136 
5 *254:21 *1754:A1 20 
*END

*D_NET *255 0.00108991
*CONN
*I *1749:A I *D sg13g2_inv_2
*I *1748:Y O *D sg13g2_xnor2_1
*CAP
1 *1749:A 0
2 *1748:Y 0.000214752
3 *255:10 0.000214752
4 *255:10 *1748:B 7.99179e-05
5 *255:10 *401:12 0
6 *255:10 *721:16 0.000500576
7 *255:10 *1117:78 7.99179e-05
*RES
1 *1748:Y *255:10 42.4464 
2 *255:10 *1749:A 40 
*END

*D_NET *256 0.00463355
*CONN
*I *1758:B1 I *D sg13g2_a21oi_1
*I *1752:B1 I *D sg13g2_a21oi_1
*I *1750:B1 I *D sg13g2_a21oi_1
*I *1757:B1 I *D sg13g2_a21oi_1
*I *1749:Y O *D sg13g2_inv_2
*CAP
1 *1758:B1 2.82543e-05
2 *1752:B1 0.000223931
3 *1750:B1 0
4 *1757:B1 0.000142152
5 *1749:Y 0.000184744
6 *256:35 0.000602087
7 *256:27 0.000992645
8 *256:8 0.000913132
9 *1757:B1 *2069:D 0
10 *1757:B1 *721:16 0.000287758
11 *1757:B1 *1095:37 8.01609e-05
12 *1758:B1 *1758:A1 0
13 *1758:B1 *721:59 0
14 *256:8 *399:12 0
15 *256:8 *721:16 0.000641276
16 *256:27 *1756:A 0.000241847
17 *256:27 *1757:A2 0
18 *256:27 *1758:A1 0.000166897
19 *256:27 *2069:CLK 0
20 *256:27 *721:59 0
21 *256:27 *869:23 0
22 *256:35 *1757:A1 0
23 *256:35 *259:10 0
24 *256:35 *869:38 0
25 *256:35 *1117:8 0
26 *1750:A2 *1752:B1 0
27 *1752:A1 *1752:B1 0
28 *249:8 *256:35 0
29 *249:14 *256:35 0
30 *252:28 *1752:B1 0
31 *252:28 *256:35 0
32 *253:8 *256:35 0.000128662
*RES
1 *1749:Y *256:8 42.6224 
2 *256:8 *1757:B1 41.6016 
3 *256:8 *256:27 24.9368 
4 *256:27 *256:35 43.74 
5 *256:35 *1750:B1 20 
6 *256:35 *1752:B1 21.936 
7 *256:27 *1758:B1 20.2728 
*END

*D_NET *257 0.000423167
*CONN
*I *1753:A I *D sg13g2_inv_1
*I *1752:Y O *D sg13g2_a21oi_1
*CAP
1 *1753:A 0.000211584
2 *1752:Y 0.000211584
3 *1753:A *1754:B1 0
4 *1753:A *1771:B 0
5 *1753:A *1771:C 0
6 *1753:A *2070:D 0
7 *1752:A1 *1753:A 0
*RES
1 *1752:Y *1753:A 41.7072 
*END

*D_NET *258 0.000529141
*CONN
*I *1754:B1 I *D sg13g2_a21oi_1
*I *1771:B I *D sg13g2_nor3_1
*I *1753:Y O *D sg13g2_inv_1
*CAP
1 *1754:B1 7.67671e-05
2 *1771:B 0.000132262
3 *1753:Y 0
4 *258:4 0.000209029
5 *1754:B1 *2070:D 8.02269e-05
6 *1771:B *1771:C 1.54008e-05
7 *1771:B *1772:S 1.54556e-05
8 *1745:A *1771:B 0
9 *1753:A *1754:B1 0
10 *1753:A *1771:B 0
11 *251:14 *1771:B 0
*RES
1 *1753:Y *258:4 20 
2 *258:4 *1771:B 21.3904 
3 *258:4 *1754:B1 20.968 
*END

*D_NET *259 0.0035892
*CONN
*I *1758:A1 I *D sg13g2_a21oi_1
*I *1757:A1 I *D sg13g2_a21oi_1
*I *1755:Y O *D sg13g2_nand2_1
*CAP
1 *1758:A1 0.000188023
2 *1757:A1 0.000468009
3 *1755:Y 0.000259527
4 *259:10 0.000915559
5 *1757:A1 *1756:A 0
6 *1757:A1 *1756:B 4.78356e-05
7 *1757:A1 *1757:A2 0.000501233
8 *1757:A1 *1095:37 0.000274375
9 *1757:A1 *1095:53 0
10 *1757:A1 *1117:14 0.000234224
11 *1758:A1 *868:8 1.54556e-05
12 *1758:A1 *868:19 0.000177273
13 *259:10 *2071:D 0
14 *259:10 *1117:8 0.000128663
15 *259:10 *1117:14 0.000212127
16 *1758:B1 *1758:A1 0
17 *249:8 *259:10 0
18 *256:27 *1758:A1 0.000166897
19 *256:35 *1757:A1 0
20 *256:35 *259:10 0
*RES
1 *1755:Y *259:10 42.552 
2 *259:10 *1757:A1 44.532 
3 *259:10 *1758:A1 41.7688 
*END

*D_NET *260 0.00147026
*CONN
*I *1757:A2 I *D sg13g2_a21oi_1
*I *1756:Y O *D sg13g2_xnor2_1
*CAP
1 *1757:A2 0.000313149
2 *1756:Y 9.89574e-05
3 *260:8 0.000412106
4 *1757:A2 *1756:A 0.000144816
5 *260:8 *1756:A 0
6 *260:8 *1756:B 0
7 *1757:A1 *1757:A2 0.000501233
8 *256:27 *1757:A2 0
*RES
1 *1756:Y *260:8 40.7216 
2 *260:8 *1757:A2 42.86 
*END

*D_NET *261 0.000486568
*CONN
*I *1761:A I *D sg13g2_nor2_1
*I *1773:A1 I *D sg13g2_a21o_1
*I *1759:Y O *D sg13g2_inv_1
*CAP
1 *1761:A 0
2 *1773:A1 6.69414e-05
3 *1759:Y 0.000176343
4 *261:8 0.000243284
5 *1773:A1 *1778:B1 0
6 *1773:A1 *1852:A 0
7 *1773:A1 *1852:B 0
8 *261:8 *1759:A 0
9 *261:8 *1761:B 0
10 *261:8 *1852:A 0
11 *261:8 *267:38 0
*RES
1 *1759:Y *261:8 21.6808 
2 *261:8 *1773:A1 20.7216 
3 *261:8 *1761:A 20 
*END

*D_NET *262 0.00239131
*CONN
*I *1761:B I *D sg13g2_nor2_1
*I *1773:A2 I *D sg13g2_a21o_1
*I *1778:A1 I *D sg13g2_a22oi_1
*I *1760:Y O *D sg13g2_nand2_1
*CAP
1 *1761:B 0.000210992
2 *1773:A2 0.000112838
3 *1778:A1 1.9883e-05
4 *1760:Y 0.000141808
5 *262:14 0.000288524
6 *262:8 0.000508603
7 *1761:B *1777:A_N 1.54008e-05
8 *1761:B *1778:A2 0.00011233
9 *1761:B *1852:A 0
10 *1761:B *263:6 0
11 *1761:B *273:12 0
12 *1761:B *275:10 0
13 *1773:A2 *1852:A 3.23417e-05
14 *1773:A2 *263:6 0
15 *1778:A1 *1852:A 3.16237e-05
16 *262:8 *1777:A_N 0.00050063
17 *262:8 *273:8 0.000288174
18 *262:8 *1106:43 0
19 *262:14 *263:17 0
20 *262:14 *276:25 0.00012816
21 *262:14 *1106:43 0
22 *261:8 *1761:B 0
*RES
1 *1760:Y *262:8 42.2 
2 *262:8 *262:14 21.4168 
3 *262:14 *1778:A1 20.1804 
4 *262:14 *1773:A2 20.8844 
5 *262:8 *1761:B 41.8656 
*END

*D_NET *263 0.0019053
*CONN
*I *1776:A1 I *D sg13g2_a21oi_1
*I *1762:A I *D sg13g2_inv_1
*I *1774:A2 I *D sg13g2_a21oi_1
*I *1778:B2 I *D sg13g2_a22oi_1
*I *1761:Y O *D sg13g2_nor2_1
*CAP
1 *1776:A1 4.99561e-05
2 *1762:A 2.59801e-05
3 *1774:A2 0
4 *1778:B2 7.57176e-05
5 *1761:Y 0.000100622
6 *263:31 0.000146685
7 *263:23 0.00042067
8 *263:17 0.000461013
9 *263:6 0.000339391
10 *1762:A *1852:A 0
11 *1762:A *385:24 0
12 *1776:A1 *1776:A2 1.54556e-05
13 *1776:A1 *1852:A 1.54008e-05
14 *1776:A1 *273:24 1.54556e-05
15 *1776:A1 *385:24 0
16 *1778:B2 *1777:A_N 0
17 *1778:B2 *1778:A2 8.00842e-05
18 *1778:B2 *1852:A 0
19 *1778:B2 *276:25 1.54008e-05
20 *263:6 *1778:A2 4.77347e-05
21 *263:6 *1852:A 0
22 *263:23 *1852:A 0
23 *263:23 *267:38 0
24 *263:23 *276:25 0
25 *263:23 *385:24 0
26 *263:23 *936:59 0
27 *263:31 *1774:A1 4.79124e-05
28 *263:31 *267:38 0
29 *263:31 *277:10 0
30 *263:31 *385:24 4.78195e-05
31 *1761:B *263:6 0
32 *1773:A2 *263:6 0
33 *262:14 *263:17 0
*RES
1 *1761:Y *263:6 20.8272 
2 *263:6 *1778:B2 20.6424 
3 *263:6 *263:17 21.3552 
4 *263:17 *263:23 22.156 
5 *263:23 *263:31 41.2056 
6 *263:31 *1774:A2 20 
7 *263:23 *1762:A 20.2728 
8 *263:17 *1776:A1 40.4576 
*END

*D_NET *264 0.00110988
*CONN
*I *1766:A1 I *D sg13g2_a21oi_1
*I *1762:Y O *D sg13g2_inv_1
*CAP
1 *1766:A1 9.2858e-05
2 *1762:Y 0.000228005
3 *264:8 0.000320863
4 *1766:A1 *1766:A2 1.00461e-05
5 *1766:A1 *2063:RESET_B 0
6 *1766:A1 *267:12 0
7 *1766:A1 *879:10 1.00105e-05
8 *264:8 *267:38 0
9 *264:8 *272:8 0.0004481
10 *264:8 *517:16 0
11 *264:8 *878:10 0
*RES
1 *1762:Y *264:8 42.4112 
2 *264:8 *1766:A1 40.6116 
*END

*D_NET *265 0.000981279
*CONN
*I *1774:A1 I *D sg13g2_a21oi_1
*I *1766:A2 I *D sg13g2_a21oi_1
*I *1763:Y O *D sg13g2_inv_1
*CAP
1 *1774:A1 0.000179582
2 *1766:A2 0.000185594
3 *1763:Y 0
4 *265:4 0.000365176
5 *1766:A2 *1853:A 0
6 *1766:A2 *2063:RESET_B 0.000145056
7 *1766:A2 *879:10 0
8 *1766:A2 *883:6 0
9 *1774:A1 *2063:RESET_B 0
10 *1774:A1 *385:24 0
11 *1774:A1 *878:10 4.79124e-05
12 *1766:A1 *1766:A2 1.00461e-05
13 *263:31 *1774:A1 4.79124e-05
*RES
1 *1763:Y *265:4 20 
2 *265:4 *1766:A2 21.7072 
3 *265:4 *1774:A1 21.8832 
*END

*D_NET *266 0.00049822
*CONN
*I *1765:A I *D sg13g2_inv_1
*I *1764:Y O *D sg13g2_xnor2_1
*CAP
1 *1765:A 0.000225216
2 *1764:Y 0.000225216
3 *1765:A *1147:77 4.77866e-05
*RES
1 *1764:Y *1765:A 42.2616 
*END

*D_NET *267 0.00567421
*CONN
*I *1773:B1 I *D sg13g2_a21o_1
*I *1852:A I *D sg13g2_nor2_1
*I *1766:B1 I *D sg13g2_a21oi_1
*I *1853:A I *D sg13g2_nor2_1
*I *1765:Y O *D sg13g2_inv_1
*CAP
1 *1773:B1 0
2 *1852:A 0.000611331
3 *1766:B1 0
4 *1853:A 0.000479033
5 *1765:Y 0.000187914
6 *267:38 0.0010235
7 *267:14 0.000505621
8 *267:12 0.000568074
9 *267:8 0.000317233
10 *1852:A *1776:A2 0.000240405
11 *1852:A *1778:B1 0.000177142
12 *1852:A *1852:B 0
13 *1852:A *936:59 0
14 *1853:A *1763:A 0
15 *1853:A *1853:B 0
16 *1853:A *385:24 0
17 *1853:A *387:36 0.000564836
18 *1853:A *879:10 4.78356e-05
19 *1853:A *883:6 0
20 *1853:A *883:12 0
21 *1853:A *936:44 0
22 *267:8 *278:8 0
23 *267:8 *879:10 0
24 *267:8 *1147:77 0
25 *267:12 *2063:RESET_B 0
26 *267:12 *387:36 0.000194307
27 *267:14 *387:36 3.24022e-05
28 *267:14 *879:10 1.54008e-05
29 *267:38 *272:8 0.000554994
30 *267:38 *277:10 0
31 *267:38 *385:24 0
32 *267:38 *517:16 0
33 *267:38 *878:10 0
34 *267:38 *879:10 7.48178e-05
35 *267:38 *936:44 0
36 *1761:B *1852:A 0
37 *1762:A *1852:A 0
38 *1766:A1 *267:12 0
39 *1766:A2 *1853:A 0
40 *1773:A2 *1852:A 3.23417e-05
41 *1773:A1 *1852:A 0
42 *1776:A1 *1852:A 1.54008e-05
43 *1778:B2 *1852:A 0
44 *1778:A1 *1852:A 3.16237e-05
45 *261:8 *1852:A 0
46 *261:8 *267:38 0
47 *263:6 *1852:A 0
48 *263:23 *1852:A 0
49 *263:23 *267:38 0
50 *263:31 *267:38 0
51 *264:8 *267:38 0
*RES
1 *1765:Y *267:8 41.5664 
2 *267:8 *267:12 21.1968 
3 *267:12 *267:14 0.2728 
4 *267:14 *1853:A 24.6464 
5 *267:14 *1766:B1 20 
6 *267:12 *267:38 44.1624 
7 *267:38 *1852:A 25.28 
8 *267:38 *1773:B1 20 
*END

*D_NET *268 0.000880725
*CONN
*I *1768:B I *D sg13g2_nand3b_1
*I *1767:Y O *D sg13g2_o21ai_1
*CAP
1 *1768:B 2.84713e-05
2 *1767:Y 0.000138129
3 *268:10 0.0001666
4 *1768:B *1768:C 1.54008e-05
5 *1767:B1 *1768:B 4.77425e-05
6 *1767:B1 *268:10 0.000177164
7 *234:10 *268:10 0.000177164
8 *237:21 *268:10 0.000130055
*RES
1 *1767:Y *268:10 41.5224 
2 *268:10 *1768:B 40.2728 
*END

*D_NET *269 0.00211329
*CONN
*I *1769:S I *D sg13g2_mux2_1
*I *1768:Y O *D sg13g2_nand3b_1
*CAP
1 *1769:S 0.000520063
2 *1768:Y 0.000325658
3 *269:8 0.000845721
4 *1769:S *1724:B 0
5 *1769:S *1769:A0 0
6 *269:8 *854:10 0
7 *240:16 *269:8 0.000345607
8 *245:31 *269:8 7.62389e-05
*RES
1 *1768:Y *269:8 43.256 
2 *269:8 *1769:S 44.5584 
*END

*D_NET *270 0.000810498
*CONN
*I *1771:C I *D sg13g2_nor3_1
*I *1770:Y O *D sg13g2_a22oi_1
*CAP
1 *1771:C 0.000261136
2 *1770:Y 0.000261136
3 *1771:C *1755:B 4.78521e-05
4 *1771:C *871:25 8.00842e-05
5 *1744:A *1771:C 0
6 *1753:A *1771:C 0
7 *1771:B *1771:C 1.54008e-05
8 *251:14 *1771:C 0
9 *252:26 *1771:C 9.70363e-05
10 *252:28 *1771:C 4.78521e-05
*RES
1 *1770:Y *1771:C 42.3232 
*END

*D_NET *271 0.00182258
*CONN
*I *1772:S I *D sg13g2_mux2_1
*I *1771:Y O *D sg13g2_nor3_1
*CAP
1 *1772:S 0.000652897
2 *1771:Y 0.000652897
3 *1772:S *1338:A 0.000501332
4 *1772:S *1339:A 0
5 *1772:S *1740:A 0
6 *1772:S *2070:D 0
7 *1772:S *438:6 0
8 *1772:S *844:107 0
9 *1745:A *1772:S 0
10 *1771:B *1772:S 1.54556e-05
11 *251:14 *1772:S 0
12 *251:29 *1772:S 0
13 *252:12 *1772:S 0
*RES
1 *1771:Y *1772:S 46.1248 
*END

*D_NET *272 0.00147043
*CONN
*I *1774:B1 I *D sg13g2_a21oi_1
*I *1773:X O *D sg13g2_a21o_1
*CAP
1 *1774:B1 4.27252e-05
2 *1773:X 0.00011075
3 *272:8 0.000153475
4 *1774:B1 *2063:RESET_B 8.01938e-05
5 *1774:B1 *878:10 8.01938e-05
6 *272:8 *517:16 0
7 *264:8 *272:8 0.0004481
8 *267:38 *272:8 0.000554994
*RES
1 *1773:X *272:8 42.2 
2 *272:8 *1774:B1 40.4576 
*END

*D_NET *273 0.00230412
*CONN
*I *1777:B I *D sg13g2_nand2b_1
*I *1776:B1 I *D sg13g2_a21oi_1
*I *1775:Y O *D sg13g2_inv_1
*CAP
1 *1777:B 0
2 *1776:B1 0
3 *1775:Y 9.42926e-05
4 *273:24 0.000734428
5 *273:12 0.000764761
6 *273:8 0.000124625
7 *273:8 *275:10 0
8 *273:24 *1775:A 0
9 *273:24 *1776:A2 0
10 *273:24 *1777:A_N 4.77425e-05
11 *273:24 *1778:B1 0.000106064
12 *273:24 *1779:A 0
13 *273:24 *1852:B 0
14 *273:24 *276:25 0
15 *273:24 *880:6 0
16 *273:24 *883:12 0.000128576
17 *273:24 *936:59 0
18 *273:24 *936:70 0
19 *273:24 *936:85 0
20 *273:24 *1106:43 0
21 *1761:B *273:12 0
22 *1776:A1 *273:24 1.54556e-05
23 *262:8 *273:8 0.000288174
*RES
1 *1775:Y *273:8 41.144 
2 *273:8 *273:12 20.2728 
3 *273:12 *273:24 45.8432 
4 *273:24 *1776:B1 20 
5 *273:12 *1777:B 20 
*END

*D_NET *274 0.00145406
*CONN
*I *1779:A I *D sg13g2_nor2_1
*I *1853:B I *D sg13g2_nor2_1
*I *1776:Y O *D sg13g2_a21oi_1
*CAP
1 *1779:A 8.19568e-05
2 *1853:B 0.000289557
3 *1776:Y 9.97283e-05
4 *274:8 0.000471242
5 *1779:A *277:10 4.78356e-05
6 *1779:A *385:24 0
7 *1853:B *385:18 4.79124e-05
8 *1853:B *385:24 0
9 *1853:B *883:12 0
10 *1853:B *936:59 0.000234224
11 *1853:B *1106:43 0
12 *274:8 *936:59 0.000181608
13 *274:8 *1106:43 0
14 *1853:A *1853:B 0
15 *273:24 *1779:A 0
*RES
1 *1776:Y *274:8 40.9328 
2 *274:8 *1853:B 42.3144 
3 *274:8 *1779:A 40.6424 
*END

*D_NET *275 0.000731448
*CONN
*I *1778:A2 I *D sg13g2_a22oi_1
*I *1777:Y O *D sg13g2_nand2b_1
*CAP
1 *1778:A2 6.53201e-05
2 *1777:Y 0.00018033
3 *275:10 0.00024565
4 *1761:B *1778:A2 0.00011233
5 *1761:B *275:10 0
6 *1778:B2 *1778:A2 8.00842e-05
7 *263:6 *1778:A2 4.77347e-05
8 *273:8 *275:10 0
*RES
1 *1777:Y *275:10 41.4168 
2 *275:10 *1778:A2 40.6424 
*END

*D_NET *276 0.00186893
*CONN
*I *1779:B I *D sg13g2_nor2_1
*I *1852:B I *D sg13g2_nor2_1
*I *1778:Y O *D sg13g2_a22oi_1
*CAP
1 *1779:B 0
2 *1852:B 0.000404941
3 *1778:Y 0
4 *276:25 0.000288876
5 *276:4 0.000693817
6 *1852:B *1778:B1 0.000182322
7 *1852:B *2061:CLK 0
8 *276:25 *1778:B1 3.23636e-05
9 *276:25 *277:10 4.78356e-05
10 *276:25 *936:59 7.52149e-05
11 *1773:A1 *1852:B 0
12 *1778:B2 *276:25 1.54008e-05
13 *1852:A *1852:B 0
14 *262:14 *276:25 0.00012816
15 *263:23 *276:25 0
16 *273:24 *1852:B 0
17 *273:24 *276:25 0
*RES
1 *1778:Y *276:4 20 
2 *276:4 *1852:B 23.432 
3 *276:4 *276:25 42.5344 
4 *276:25 *1779:B 20 
*END

*D_NET *277 0.00171633
*CONN
*I *1780:C I *D sg13g2_nand3_1
*I *1779:Y O *D sg13g2_nor2_1
*CAP
1 *1780:C 0.000185116
2 *1779:Y 0.000561131
3 *277:10 0.000746247
4 *1780:C *392:16 0
5 *1780:C *1147:6 0
6 *1780:C *1147:13 0
7 *277:10 *2064:D 0
8 *277:10 *879:10 0
9 *277:10 *936:34 0
10 *277:10 *936:44 0.00012816
11 *277:10 *936:59 0
12 *1779:A *277:10 4.78356e-05
13 *263:31 *277:10 0
14 *267:38 *277:10 0
15 *276:25 *277:10 4.78356e-05
*RES
1 *1779:Y *277:10 44.3736 
2 *277:10 *1780:C 41.5664 
*END

*D_NET *278 0.00298768
*CONN
*I *1781:S I *D sg13g2_mux2_1
*I *1780:Y O *D sg13g2_nand3_1
*CAP
1 *1781:S 0.000853118
2 *1780:Y 0.000487022
3 *278:8 0.00134014
4 *1781:S *1781:A0 0
5 *1781:S *834:12 0.000307397
6 *1781:S *897:8 0
7 *1781:S *1100:64 0
8 *278:8 *2064:D 0
9 *278:8 *879:10 0
10 *278:8 *885:23 0
11 *278:8 *1147:21 0
12 *278:8 *1147:77 0
13 *267:8 *278:8 0
*RES
1 *1780:Y *278:8 43.8896 
2 *278:8 *1781:S 46.4856 
*END

*D_NET *279 0.000357961
*CONN
*I *1783:A1 I *D sg13g2_a21oi_1
*I *1782:Y O *D sg13g2_inv_1
*CAP
1 *1783:A1 0.000131068
2 *1782:Y 0.000131068
3 *1783:A1 *2056:RESET_B 8.03692e-05
4 *1783:A2 *1783:A1 1.54556e-05
5 *218:8 *1783:A1 0
*RES
1 *1782:Y *1783:A1 41.3904 
*END

*D_NET *280 0.00326699
*CONN
*I *1785:C I *D sg13g2_nand3_1
*I *1784:Y O *D sg13g2_o21ai_1
*CAP
1 *1785:C 5.10587e-05
2 *1784:Y 0.000895564
3 *280:16 0.000946623
4 *1785:C *1785:B 1.54556e-05
5 *1785:C *1785:A 0
6 *1785:C *385:24 0
7 *280:16 *281:8 0
8 *280:16 *833:38 0
9 *280:16 *890:8 0
10 *280:16 *891:8 0
11 *280:16 *895:27 0.000181192
12 *280:16 *1101:49 0
13 *1677:A *280:16 0
14 *1677:B *280:16 3.83279e-05
15 *1689:B *280:16 0.00011226
16 *210:14 *280:16 7.94418e-05
17 *211:10 *280:16 0.000340791
18 *212:15 *280:16 0
19 *214:22 *280:16 0.000606278
20 *214:35 *280:16 0
*RES
1 *1784:Y *280:16 48.9936 
2 *280:16 *1785:C 40.4576 
*END

*D_NET *281 0.00173715
*CONN
*I *1786:S I *D sg13g2_mux2_1
*I *1785:Y O *D sg13g2_nand3_1
*CAP
1 *1786:S 0.000236739
2 *1785:Y 0.000381522
3 *281:8 0.000618261
4 *1786:S *897:27 0
5 *1786:S *1106:15 0
6 *281:8 *2057:D 0.000500629
7 *281:8 *833:38 0
8 *281:8 *887:12 0
9 *281:8 *938:71 0
10 *280:16 *281:8 0
*RES
1 *1785:Y *281:8 44.1008 
2 *281:8 *1786:S 41.936 
*END

*D_NET *282 0.0010546
*CONN
*I *1788:B1 I *D sg13g2_a21oi_1
*I *1787:Y O *D sg13g2_nor2_1
*CAP
1 *1788:B1 3.56971e-05
2 *1787:Y 0.00016491
3 *282:8 0.000200607
4 *282:8 *1430:A1 0.000448264
5 *282:8 *1787:B 7.49633e-05
6 *282:8 *1788:A2 0.000130162
7 *282:8 *714:8 0
*RES
1 *1787:Y *282:8 42.2 
2 *282:8 *1788:B1 40.2728 
*END

*D_NET *283 0.0112372
*CONN
*I *1789:A0 I *D sg13g2_mux2_1
*I *1851:A0 I *D sg13g2_mux2_1
*I *1788:Y O *D sg13g2_a21oi_1
*CAP
1 *1789:A0 0.000301661
2 *1851:A0 0.0018369
3 *1788:Y 0
4 *283:10 0.00441131
5 *283:6 0.00227275
6 *1789:A0 *1789:S 0
7 *1789:A0 *285:14 0
8 *1789:A0 *710:32 0
9 *1789:A0 *711:33 0
10 *1851:A0 *1307:A0 0
11 *1851:A0 *1569:B2 0.00017671
12 *1851:A0 *1569:B1 4.78521e-05
13 *1851:A0 *1569:A2 0
14 *1851:A0 *1836:A 0
15 *1851:A0 *1838:A2 0.000306662
16 *1851:A0 *1851:A1 4.78192e-05
17 *1851:A0 *2020:RESET_B 0
18 *1851:A0 *2023:RESET_B 0
19 *1851:A0 *307:18 0
20 *1851:A0 *564:34 0
21 *1851:A0 *575:10 0
22 *1851:A0 *710:10 0
23 *1851:A0 *711:33 0
24 *1851:A0 *1123:71 1.54008e-05
25 *283:10 *1240:A2 0
26 *283:10 *1432:A1 0
27 *283:10 *1432:A2 0
28 *283:10 *1466:A1 0.00153557
29 *283:10 *612:30 0
30 *283:10 *710:10 0
31 *283:10 *722:56 0
32 *283:10 *919:67 0
33 *283:10 *1071:8 0.000107921
34 *283:10 *1113:109 0
35 *1998:D *1789:A0 0
36 *2023:D *1851:A0 0.000176658
37 *2036:D *1851:A0 0
*RES
1 *1788:Y *283:6 40 
2 *283:6 *283:10 42.264 
3 *283:10 *1851:A0 35.884 
4 *283:10 *1789:A0 22.7192 
*END

*D_NET *284 0.000227331
*CONN
*I *1791:B1 I *D sg13g2_a21oi_1
*I *1790:Y O *D sg13g2_nor2_1
*CAP
1 *1791:B1 0.000113666
2 *1790:Y 0.000113666
3 *1791:B1 *1790:B 0
*RES
1 *1790:Y *1791:B1 40.968 
*END

*D_NET *285 0.0146255
*CONN
*I *1792:A0 I *D sg13g2_mux2_1
*I *1837:A I *D sg13g2_nor2_1
*I *1791:Y O *D sg13g2_a21oi_1
*CAP
1 *1792:A0 0.000185554
2 *1837:A 0
3 *1791:Y 0
4 *285:14 0.00156972
5 *285:10 0.00418231
6 *285:6 0.00242704
7 *1792:A0 *1792:A1 1.54008e-05
8 *1792:A0 *701:27 0.000340375
9 *1792:A0 *708:18 4.77425e-05
10 *1792:A0 *712:14 0
11 *285:10 *1368:A1 0.000159511
12 *285:10 *1434:A1 0
13 *285:10 *1467:A1 0.00151114
14 *285:10 *1665:A0 0
15 *285:10 *1942:RESET_B 0
16 *285:10 *408:8 0
17 *285:10 *458:8 0
18 *285:10 *493:12 0
19 *285:10 *496:12 0
20 *285:10 *701:16 0
21 *285:10 *712:14 0
22 *285:10 *714:62 0
23 *285:10 *817:9 0
24 *285:10 *900:27 0.000288236
25 *285:10 *900:38 0
26 *285:10 *900:71 0.000745546
27 *285:10 *909:54 0.00213023
28 *285:10 *909:60 0.000234726
29 *285:10 *915:93 0
30 *285:10 *1054:10 0
31 *285:10 *1066:10 0.00012816
32 *285:10 *1122:20 0
33 *285:10 *1165:10 0
34 *285:14 intr_gpio_o[3] 0
35 *285:14 *1307:A0 0
36 *285:14 *1369:A 0
37 *285:14 *1369:B 4.77425e-05
38 *285:14 *1370:B1 8.00842e-05
39 *285:14 *1789:S 0
40 *285:14 *1792:S 0
41 *285:14 *1837:B 0.000177491
42 *285:14 *2020:RESET_B 0
43 *285:14 *413:35 4.77425e-05
44 *285:14 *463:29 0
45 *285:14 *701:16 0
46 *285:14 *702:16 0
47 *285:14 *710:10 0
48 *285:14 *712:22 0
49 *285:14 *1122:57 3.23417e-05
50 *285:14 *1122:59 0.000274452
51 *285:14 *1122:82 0
52 *1671:B1 *285:14 0
53 *1789:A0 *285:14 0
54 *2020:D *285:14 0
*RES
1 *1791:Y *285:6 40 
2 *285:6 *285:10 27.8168 
3 *285:10 *285:14 33.2088 
4 *285:14 *1837:A 20 
5 *285:10 *1792:A0 42.0504 
*END

*D_NET *286 0.000495684
*CONN
*I *1795:B1 I *D sg13g2_a21oi_1
*I *1794:Y O *D sg13g2_nor2_1
*CAP
1 *1795:B1 0.000247842
2 *1794:Y 0.000247842
3 *1795:B1 *1869:CLK 0
4 *1795:A2 *1795:B1 0
*RES
1 *1794:Y *1795:B1 41.7512 
*END

*D_NET *287 0.00105383
*CONN
*I *1798:A I *D sg13g2_nand3_1
*I *1799:A2 I *D sg13g2_o21ai_1
*I *1797:Y O *D sg13g2_inv_1
*CAP
1 *1798:A 0
2 *1799:A2 0.000123051
3 *1797:Y 0.000116333
4 *287:8 0.000239384
5 *1799:A2 *288:8 0
6 *1799:A2 *615:20 0.000287001
7 *1799:A2 *1023:22 0.000288058
8 *287:8 *353:10 0
*RES
1 *1797:Y *287:8 40.9328 
2 *287:8 *1799:A2 41.5664 
3 *287:8 *1798:A 40 
*END

*D_NET *288 0.000628685
*CONN
*I *1799:B1 I *D sg13g2_o21ai_1
*I *1798:Y O *D sg13g2_nand3_1
*CAP
1 *1799:B1 6.66759e-05
2 *1798:Y 0.000121979
3 *288:8 0.000188655
4 *1799:B1 *1799:A1 0
5 *1799:B1 *1023:24 0
6 *288:8 *353:10 0
7 *288:8 *1023:22 0.000235975
8 *1799:A2 *288:8 0
9 *156:10 *1799:B1 1.54008e-05
*RES
1 *1798:Y *288:8 41.3552 
2 *288:8 *1799:B1 40.4576 
*END

*D_NET *289 0.00104407
*CONN
*I *1802:A1 I *D sg13g2_o21ai_1
*I *1801:Y O *D sg13g2_inv_1
*CAP
1 *1802:A1 0
2 *1801:Y 0.000180414
3 *289:8 0.000180414
4 *289:8 *1801:A 0
5 *289:8 *591:8 0.000341621
6 *289:8 *966:25 0.000341621
*RES
1 *1801:Y *289:8 42.4112 
2 *289:8 *1802:A1 40 
*END

*D_NET *290 0.00146384
*CONN
*I *1804:A1 I *D sg13g2_o21ai_1
*I *1803:Y O *D sg13g2_inv_1
*CAP
1 *1804:A1 0
2 *1803:Y 0.000497402
3 *290:8 0.000497402
4 *290:8 *1229:B 0
5 *290:8 *1585:A 0
6 *290:8 *507:84 0
7 *290:8 *581:30 0.000128247
8 *290:8 *581:58 0
9 *290:8 *586:8 0.00034079
*RES
1 *1803:Y *290:8 44.312 
2 *290:8 *1804:A1 40 
*END

*D_NET *291 0.00148018
*CONN
*I *1860:A2 I *D sg13g2_a21oi_1
*I *1806:A1 I *D sg13g2_o21ai_1
*I *1805:Y O *D sg13g2_inv_1
*CAP
1 *1860:A2 0
2 *1806:A1 0.000248805
3 *1805:Y 7.02027e-05
4 *291:8 0.000319008
5 *1806:A1 *322:8 0.000553661
6 *1806:A1 *675:8 0
7 *1806:A1 *686:10 0.000128248
8 *291:8 *675:8 0
9 *291:8 *686:10 0.000160254
*RES
1 *1805:Y *291:8 40.7216 
2 *291:8 *1806:A1 42.8336 
3 *291:8 *1860:A2 40 
*END

*D_NET *292 0.000358708
*CONN
*I *1810:C I *D sg13g2_nor3_1
*I *1809:Y O *D sg13g2_inv_1
*CAP
1 *1810:C 0
2 *1809:Y 0.000179354
3 *292:8 0.000179354
4 *292:8 *329:12 0
5 *292:8 *509:10 0
*RES
1 *1809:Y *292:8 41.5664 
2 *292:8 *1810:C 40 
*END

*D_NET *293 0.00100513
*CONN
*I *1813:A I *D sg13g2_nand2_1
*I *1814:A1 I *D sg13g2_o21ai_1
*I *1810:Y O *D sg13g2_nor3_1
*CAP
1 *1813:A 0
2 *1814:A1 0
3 *1810:Y 0.00019838
4 *293:14 0.000179303
5 *293:8 0.000377683
6 *293:8 *1472:B 1.54556e-05
7 *293:8 *1813:B 0
8 *293:8 *509:10 0
9 *293:8 *1020:8 0
10 *293:14 *1751:S 0
11 *293:14 *296:8 0.000234311
*RES
1 *1810:Y *293:8 21.8656 
2 *293:8 *293:14 41.5664 
3 *293:14 *1814:A1 20 
4 *293:8 *1813:A 20 
*END

*D_NET *294 0.00126456
*CONN
*I *1812:A1 I *D sg13g2_o21ai_1
*I *1811:Y O *D sg13g2_nand2_1
*CAP
1 *1812:A1 0.00060838
2 *1811:Y 0.00060838
3 *1812:A1 *1297:A 0
4 *1812:A1 *1811:B 0
5 *1812:A1 *1814:B1 0
6 *1812:A1 *1814:A2 0
7 *1812:A1 *380:10 0
8 *1812:A1 *406:8 0
9 *1812:A1 *510:43 4.78028e-05
10 *1812:A1 *1020:8 0
*RES
1 *1811:Y *1812:A1 45.2184 
*END

*D_NET *295 0.0010768
*CONN
*I *1814:A2 I *D sg13g2_o21ai_1
*I *1812:Y O *D sg13g2_o21ai_1
*CAP
1 *1814:A2 0.000434416
2 *1812:Y 0.000434416
3 *1814:A2 *1751:S 0
4 *1814:A2 *1812:B1 1.54008e-05
5 *1814:A2 *1814:B1 1.54008e-05
6 *1812:A1 *1814:A2 0
7 *163:10 *1814:A2 0.000177164
*RES
1 *1812:Y *1814:A2 43.8016 
*END

*D_NET *296 0.000467564
*CONN
*I *1814:B1 I *D sg13g2_o21ai_1
*I *1813:Y O *D sg13g2_nand2_1
*CAP
1 *1814:B1 3.49212e-05
2 *1813:Y 7.40048e-05
3 *296:8 0.000108926
4 *1812:A1 *1814:B1 0
5 *1814:A2 *1814:B1 1.54008e-05
6 *293:14 *296:8 0.000234311
*RES
1 *1813:Y *296:8 40.9328 
2 *296:8 *1814:B1 40.2728 
*END

*D_NET *297 0.0001943
*CONN
*I *1818:B1 I *D sg13g2_a21oi_1
*I *1817:Y O *D sg13g2_nor2_1
*CAP
1 *1818:B1 9.715e-05
2 *1817:Y 9.715e-05
3 *1818:B1 *1817:B 0
4 *1818:B1 *1818:A2 0
5 *1818:B1 *475:58 0
6 *1863:D *1818:B1 0
7 *1940:D *1818:B1 0
*RES
1 *1817:Y *1818:B1 40.968 
*END

*D_NET *298 0.000811552
*CONN
*I *1821:B I *D sg13g2_xnor2_1
*I *1820:Y O *D sg13g2_a21oi_1
*CAP
1 *1821:B 0.000405776
2 *1820:Y 0.000405776
3 *1821:B *1380:A2 0
4 *1821:B *1821:A 0
5 *1821:B *2013:CLK 0
6 *1821:B *2325:A 0
7 *1821:B *691:32 0
8 *2013:D *1821:B 0
*RES
1 *1820:Y *1821:B 43.4584 
*END

*D_NET *299 0.000512048
*CONN
*I *1825:A1 I *D sg13g2_o21ai_1
*I *1824:A I *D sg13g2_nand2_1
*I *1823:Y O *D sg13g2_nand2_1
*CAP
1 *1825:A1 6.68694e-05
2 *1824:A 0
3 *1823:Y 0.000132393
4 *299:12 0.000123631
5 *299:8 0.000189155
6 *1825:A1 *1378:A1 0
7 *299:12 *1824:B 0
8 *299:12 *380:10 0
*RES
1 *1823:Y *299:8 41.144 
2 *299:8 *299:12 20.4576 
3 *299:12 *1824:A 20 
4 *299:12 *1825:A1 20.7216 
*END

*D_NET *300 0.000360528
*CONN
*I *1825:B1 I *D sg13g2_o21ai_1
*I *1824:Y O *D sg13g2_nand2_1
*CAP
1 *1825:B1 0
2 *1824:Y 0.000180264
3 *300:8 0.000180264
4 *300:8 *1824:B 0
*RES
1 *1824:Y *300:8 41.3552 
2 *300:8 *1825:B1 40 
*END

*D_NET *301 0.0011928
*CONN
*I *1829:A I *D sg13g2_nand2_1
*I *1828:A_N I *D sg13g2_nand2b_1
*I *1827:Y O *D sg13g2_nor3_1
*CAP
1 *1829:A 0
2 *1828:A_N 0
3 *1827:Y 0.000197184
4 *301:14 0.000220102
5 *301:8 0.000417286
6 *301:8 *1832:B1 1.54008e-05
7 *301:8 *653:20 0
8 *301:14 *357:35 0.000342826
9 *301:14 *360:8 0
*RES
1 *1827:Y *301:8 21.496 
2 *301:8 *301:14 41.7776 
3 *301:14 *1828:A_N 20 
4 *301:8 *1829:A 20 
*END

*D_NET *302 0.000904968
*CONN
*I *1832:A1 I *D sg13g2_a21oi_1
*I *1828:Y O *D sg13g2_nand2b_1
*CAP
1 *1832:A1 5.45778e-05
2 *1828:Y 0.000266511
3 *302:8 0.000321089
4 *1832:A1 *658:56 0
5 *302:8 *357:35 0.000182596
6 *302:8 *360:8 0
7 *302:8 *1187:16 0
8 *16:14 *1832:A1 8.01938e-05
*RES
1 *1828:Y *302:8 41.9888 
2 *302:8 *1832:A1 40.4576 
*END

*D_NET *303 0.000950388
*CONN
*I *1832:A2 I *D sg13g2_a21oi_1
*I *1829:Y O *D sg13g2_nand2_1
*CAP
1 *1832:A2 0
2 *1829:Y 0.000215411
3 *303:16 6.41505e-05
4 *303:10 0.000279562
5 *303:10 *1830:A 0
6 *303:10 *360:8 0.000391265
*RES
1 *1829:Y *303:10 41.8656 
2 *303:10 *303:16 40.6424 
3 *303:16 *1832:A2 40 
*END

*D_NET *304 0.000438917
*CONN
*I *1831:B I *D sg13g2_nor3_1
*I *1830:Y O *D sg13g2_inv_1
*CAP
1 *1831:B 0.000147059
2 *1830:Y 0.000147059
3 *1831:B *1832:B1 0
4 *1831:B *2198:A 0
5 *16:14 *1831:B 0.0001448
*RES
1 *1830:Y *1831:B 41.1968 
*END

*D_NET *305 0.00129327
*CONN
*I *1832:B1 I *D sg13g2_a21oi_1
*I *1831:Y O *D sg13g2_nor3_1
*CAP
1 *1832:B1 0.000454319
2 *1831:Y 0.000454319
3 *1832:B1 *1829:B 0
4 *1832:B1 *1830:A 0.000177326
5 *1832:B1 *2198:A 0
6 *1832:B1 *357:22 0.0001765
7 *1831:B *1832:B1 0
8 *16:14 *1832:B1 0
9 *172:10 *1832:B1 1.54008e-05
10 *301:8 *1832:B1 1.54008e-05
*RES
1 *1831:Y *1832:B1 44.0304 
*END

*D_NET *306 0.000458433
*CONN
*I *1835:B1 I *D sg13g2_a21oi_1
*I *1834:Y O *D sg13g2_nor2_1
*CAP
1 *1835:B1 4.89749e-05
2 *1834:Y 0.000180242
3 *306:8 0.000229217
4 *1835:B1 *360:12 0
5 *1835:B1 *360:21 0
6 *1835:B1 *793:17 0
7 *306:8 *1835:A1 0
8 *306:8 *361:10 0
9 *306:8 *400:28 0
*RES
1 *1834:Y *306:8 41.3552 
2 *306:8 *1835:B1 40.4576 
*END

*D_NET *307 0.00495379
*CONN
*I *1838:A1 I *D sg13g2_a21oi_1
*I *1856:A I *D sg13g2_nor2_1
*I *1836:Y O *D sg13g2_inv_1
*CAP
1 *1838:A1 0
2 *1856:A 0.000131477
3 *1836:Y 0
4 *307:35 0.000180757
5 *307:18 0.00155321
6 *307:4 0.00160249
7 *1856:A *1856:B 1.54556e-05
8 *1856:A *558:10 0
9 *1856:A *711:33 0
10 *1856:A *1106:88 0
11 *307:18 *1569:A2 0.000887828
12 *307:18 *1836:A 1.54008e-05
13 *307:18 *1851:A1 0
14 *307:18 *2023:RESET_B 0
15 *307:18 *711:33 0.000493763
16 *307:18 *718:66 0
17 *307:18 *837:8 0
18 *307:18 *837:16 0
19 *307:18 *1090:14 0
20 *307:35 *1836:A 6.46834e-05
21 *307:35 *839:29 0
22 *307:35 *1106:114 0
23 *1851:A0 *307:18 0
24 *2036:D *307:18 8.73578e-06
25 *2039:D *307:18 0
*RES
1 *1836:Y *307:4 20 
2 *307:4 *307:18 32.408 
3 *307:18 *1856:A 41.1968 
4 *307:4 *307:35 41.6016 
5 *307:35 *1838:A1 20 
*END

*D_NET *308 0.00032327
*CONN
*I *1838:B1 I *D sg13g2_a21oi_1
*I *1837:Y O *D sg13g2_nor2_1
*CAP
1 *1838:B1 4.79872e-05
2 *1837:Y 7.35179e-05
3 *308:8 0.000121505
4 *1838:B1 *1838:A2 0
5 *1838:B1 *2020:RESET_B 8.02595e-05
6 *308:8 *839:29 0
7 *308:8 *1106:114 0
*RES
1 *1837:Y *308:8 40.5104 
2 *308:8 *1838:B1 40.4576 
*END

*D_NET *309 0.000372221
*CONN
*I *1840:B1 I *D sg13g2_o21ai_1
*I *1839:Y O *D sg13g2_nand2_1
*CAP
1 *1840:B1 0.000154539
2 *1839:Y 0.000154539
3 *1840:B1 *1840:A1 0
4 *1840:B1 *1840:A2 1.54008e-05
5 *1840:B1 *310:8 4.77425e-05
6 *1840:B1 *579:8 0
*RES
1 *1839:Y *1840:B1 41.6016 
*END

*D_NET *310 0.00665332
*CONN
*I *1842:A2 I *D sg13g2_o21ai_1
*I *1840:Y O *D sg13g2_o21ai_1
*CAP
1 *1842:A2 0
2 *1840:Y 3.13338e-05
3 *310:14 0.00213608
4 *310:8 0.00216741
5 *310:14 *1705:A0 0.000184492
6 *310:14 *1841:B 0
7 *310:14 *1842:A1 8.0194e-05
8 *310:14 *2076:RESET_B 8.02927e-05
9 *310:14 *478:8 0.000183828
10 *310:14 *844:107 0
11 *310:14 *856:49 0
12 *310:14 *861:23 0.00121213
13 *310:14 *861:38 0.000238309
14 *310:14 *870:8 0
15 *310:14 *937:62 0
16 *310:14 *1115:44 0
17 *1840:B1 *310:8 4.77425e-05
18 *2027:D *310:14 0
19 *233:12 *310:14 0.000291502
*RES
1 *1840:Y *310:8 40.2728 
2 *310:8 *310:14 41.9032 
3 *310:14 *1842:A2 20 
*END

*D_NET *311 0.000426644
*CONN
*I *1842:B1 I *D sg13g2_o21ai_1
*I *1841:Y O *D sg13g2_nand2_1
*CAP
1 *1842:B1 0
2 *1841:Y 9.57946e-05
3 *311:8 9.57946e-05
4 *311:8 *833:23 0.000235055
*RES
1 *1841:Y *311:8 40.9328 
2 *311:8 *1842:B1 40 
*END

*D_NET *312 0.00110054
*CONN
*I *1844:B1 I *D sg13g2_o21ai_1
*I *1843:Y O *D sg13g2_nand2_1
*CAP
1 *1844:B1 0
2 *1843:Y 0.000282617
3 *312:10 0.000282617
4 *312:10 *1844:A2 0
5 *312:10 *2087:A 1.54556e-05
6 *312:10 *416:10 0.000342565
7 *312:10 *901:12 0.00017729
*RES
1 *1843:Y *312:10 42.7368 
2 *312:10 *1844:B1 40 
*END

*D_NET *313 0.00140021
*CONN
*I *1846:A2 I *D sg13g2_o21ai_1
*I *1844:Y O *D sg13g2_o21ai_1
*CAP
1 *1846:A2 0.000133851
2 *1844:Y 0.000414137
3 *313:10 0.000547988
4 *1846:A2 *1846:B1 8.00842e-05
5 *1846:A2 *1124:40 1.54008e-05
6 *1846:A2 *1124:62 0.000208747
7 *313:10 *416:10 0
8 *313:10 *721:82 0
9 *313:10 *728:14 0
10 *4:8 *313:10 0
*RES
1 *1844:Y *313:10 43.6608 
2 *313:10 *1846:A2 41.1968 
*END

*D_NET *314 0.000432929
*CONN
*I *1846:B1 I *D sg13g2_o21ai_1
*I *1845:Y O *D sg13g2_nand2_1
*CAP
1 *1846:B1 0.000176423
2 *1845:Y 0.000176423
3 *1846:B1 *1311:A 0
4 *1846:B1 *1312:B1 0
5 *1846:A2 *1846:B1 8.00842e-05
*RES
1 *1845:Y *1846:B1 41.8128 
*END

*D_NET *315 0.00191044
*CONN
*I *1848:B1 I *D sg13g2_o21ai_1
*I *1847:Y O *D sg13g2_nand2_1
*CAP
1 *1848:B1 0.000470903
2 *1847:Y 0.000470903
3 *1848:B1 *1575:A 0
4 *1848:B1 *1847:A 0.000274321
5 *1848:B1 *1847:B 0.000339147
6 *1848:B1 *1848:A2 8.02269e-05
7 *1848:B1 *2122:A 0
8 *1848:B1 *316:10 0.00027494
*RES
1 *1847:Y *1848:B1 44.7784 
*END

*D_NET *316 0.00371849
*CONN
*I *1850:A2 I *D sg13g2_o21ai_1
*I *1848:Y O *D sg13g2_o21ai_1
*CAP
1 *1850:A2 0
2 *1848:Y 0.000666103
3 *316:10 0.000666103
4 *316:10 *1981:CLK 0.000307369
5 *316:10 *317:8 0.000235141
6 *316:10 *442:8 0
7 *316:10 *444:8 0
8 *316:10 *1038:25 0
9 *316:10 *1119:34 0.00156883
10 *1848:B1 *316:10 0.00027494
*RES
1 *1848:Y *316:10 48.5712 
2 *316:10 *1850:A2 40 
*END

*D_NET *317 0.000501094
*CONN
*I *1850:B1 I *D sg13g2_o21ai_1
*I *1849:Y O *D sg13g2_nand2_1
*CAP
1 *1850:B1 3.77166e-05
2 *1849:Y 9.52602e-05
3 *317:8 0.000132977
4 *317:8 *444:8 0
5 *316:10 *317:8 0.000235141
*RES
1 *1849:Y *317:8 41.144 
2 *317:8 *1850:B1 40.2728 
*END

*D_NET *318 0.00129234
*CONN
*I *1856:B I *D sg13g2_nor2_1
*I *1855:A1 I *D sg13g2_a21oi_1
*I *1854:Y O *D sg13g2_inv_1
*CAP
1 *1856:B 0.000276568
2 *1855:A1 0
3 *1854:Y 0.000193104
4 *318:12 0.000469671
5 *1856:B *1857:B 0
6 *1856:B *1858:A2 0
7 *1856:B *558:10 0
8 *1856:B *717:67 0
9 *1856:B *718:66 0
10 *1856:B *837:20 0.000209418
11 *318:12 *521:61 0
12 *318:12 *826:35 0.000112684
13 *318:12 *837:20 1.54446e-05
14 *318:12 *1106:78 0
15 *1856:A *1856:B 1.54556e-05
*RES
1 *1854:Y *318:12 21.8832 
2 *318:12 *1855:A1 20 
3 *318:12 *1856:B 22.6224 
*END

*D_NET *319 0.000277356
*CONN
*I *1858:A2 I *D sg13g2_a21oi_1
*I *1855:Y O *D sg13g2_a21oi_1
*CAP
1 *1858:A2 9.85484e-05
2 *1855:Y 9.85484e-05
3 *1858:A2 *1858:B1 0
4 *1858:A2 *717:67 8.02595e-05
5 *1858:A2 *826:35 0
6 *1856:B *1858:A2 0
*RES
1 *1855:Y *1858:A2 40.968 
*END

*D_NET *320 0.000634965
*CONN
*I *1857:B I *D sg13g2_nor3_1
*I *1856:Y O *D sg13g2_nor2_1
*CAP
1 *1857:B 6.88271e-05
2 *1856:Y 0.000107603
3 *320:8 0.00017643
4 *1857:B *1858:B1 0
5 *1857:B *718:66 4.77537e-05
6 *1857:B *1106:78 0
7 *320:8 *1557:B2 0
8 *320:8 *718:66 0.000234351
9 *1856:B *1857:B 0
*RES
1 *1856:Y *320:8 41.144 
2 *320:8 *1857:B 40.6424 
*END

*D_NET *321 0.000737219
*CONN
*I *1858:B1 I *D sg13g2_a21oi_1
*I *1857:Y O *D sg13g2_nor3_1
*CAP
1 *1858:B1 0.000256373
2 *1857:Y 0.000256373
3 *1858:B1 *712:40 0
4 *1858:B1 *717:67 0.000177228
5 *1858:B1 *718:66 0
6 *1858:B1 *729:10 4.72443e-05
7 *1858:B1 *1093:12 0
8 *1858:B1 *1106:78 0
9 *1857:B *1858:B1 0
10 *1858:A2 *1858:B1 0
*RES
1 *1857:Y *1858:B1 42.376 
*END

*D_NET *322 0.00257579
*CONN
*I *1860:B1 I *D sg13g2_a21oi_1
*I *1859:Y O *D sg13g2_nor2_1
*CAP
1 *1860:B1 3.34444e-05
2 *1859:Y 0.000570395
3 *322:8 0.00060384
4 *1860:B1 *686:10 4.77425e-05
5 *322:8 *1806:B1 0
6 *322:8 *323:27 0
7 *322:8 *324:12 0
8 *322:8 *519:10 0
9 *322:8 *519:21 0
10 *322:8 *675:8 0.000766705
11 *1806:A1 *322:8 0.000553661
*RES
1 *1859:Y *322:8 46.424 
2 *322:8 *1860:B1 40.2728 
*END

*D_NET *323 0.00183133
*CONN
*I *1494:A1 I *D sg13g2_o21ai_1
*I *1198:A1 I *D sg13g2_a21oi_1
*I *1196:Y O *D sg13g2_inv_1
*CAP
1 *1494:A1 0
2 *1198:A1 6.84742e-05
3 *1196:Y 0.000198502
4 *323:27 0.000190294
5 *323:12 0.000258769
6 *323:10 0.000198502
7 *1198:A1 *1198:A2 0.000112095
8 *1198:A1 *1198:B1 0
9 *323:10 axi_lite_o[26] 0
10 *323:10 *675:8 0.000499799
11 *323:10 *1138:64 0
12 *323:27 *1198:A2 0.000176644
13 *323:27 *519:21 0.000128247
14 *323:27 *675:8 0
15 *81:10 *1198:A1 0
16 *81:10 *323:27 0
17 *322:8 *323:27 0
*RES
1 *1196:Y *323:10 42.2616 
2 *323:10 *323:12 20 
3 *323:12 *1198:A1 20.6424 
4 *323:12 *323:27 41.9448 
5 *323:27 *1494:A1 20 
*END

*D_NET *324 0.00165594
*CONN
*I *1198:B1 I *D sg13g2_a21oi_1
*I *1197:Y O *D sg13g2_nor2_1
*CAP
1 *1198:B1 3.06826e-05
2 *1197:Y 0.000417764
3 *324:12 0.000448446
4 *1198:B1 *1126:26 0
5 *324:12 *1801:A 7.52149e-05
6 *324:12 *1806:B1 2.22695e-05
7 *324:12 *1859:B 0.000159598
8 *324:12 *930:10 0.000501962
9 *324:12 *930:16 0
10 *1198:A1 *1198:B1 0
11 *81:10 *1198:B1 0
12 *322:8 *324:12 0
*RES
1 *1197:Y *324:12 44.4352 
2 *324:12 *1198:B1 40.2728 
*END

*D_NET *325 0.00392634
*CONN
*I *1493:A1 I *D sg13g2_o21ai_1
*I *1201:A2 I *D sg13g2_a21oi_1
*I *1199:Y O *D sg13g2_inv_1
*CAP
1 *1493:A1 0
2 *1201:A2 9.63864e-05
3 *1199:Y 0.000539144
4 *325:14 0.00050583
5 *325:12 0.000948588
6 *1201:A2 *790:17 0.00023464
7 *325:12 *1199:A 0.000192855
8 *325:12 *755:8 0
9 *325:14 *684:12 0
10 *325:14 *790:17 0.0014089
11 *325:14 *930:52 0
12 *325:14 *1145:80 0
*RES
1 *1199:Y *325:12 44.9104 
2 *325:12 *325:14 5.5792 
3 *325:14 *1201:A2 40.9328 
4 *325:14 *1493:A1 40 
*END

*D_NET *326 0.000464729
*CONN
*I *1201:B1 I *D sg13g2_a21oi_1
*I *1200:Y O *D sg13g2_nor2_1
*CAP
1 *1201:B1 0.000192284
2 *1200:Y 0.000192284
3 *1201:B1 *520:35 0
4 *1201:B1 *676:10 8.01612e-05
5 *1201:B1 *790:17 0
*RES
1 *1200:Y *1201:B1 42.024 
*END

*D_NET *327 0.00279285
*CONN
*I *1205:A2 I *D sg13g2_a21oi_1
*I *1495:A1 I *D sg13g2_o21ai_1
*I *1203:Y O *D sg13g2_inv_1
*CAP
1 *1205:A2 0.000440026
2 *1495:A1 0.000127541
3 *1203:Y 0
4 *327:6 0.000567567
5 *1205:A2 *1205:A1 0
6 *1205:A2 *1225:A 0.000177438
7 *1205:A2 *1485:A1 0
8 *1205:A2 *1485:A2 0.000159511
9 *1205:A2 *1495:A2 7.56299e-05
10 *1205:A2 *1103:40 0.000425918
11 *1495:A1 *1495:B1 0
12 *1495:A1 *1495:A2 0.000341621
13 *1495:A1 *1928:CLK 8.03692e-05
14 *1495:A1 *516:21 0
15 *1495:A1 *1103:40 0.000397229
*RES
1 *1203:Y *327:6 40 
2 *327:6 *1495:A1 42.024 
3 *327:6 *1205:A2 44.4176 
*END

*D_NET *328 0.00231097
*CONN
*I *1205:B1 I *D sg13g2_a21oi_1
*I *1204:Y O *D sg13g2_nor2_1
*CAP
1 *1205:B1 0
2 *1204:Y 0.000803143
3 *328:10 0.000803143
4 *328:10 *1224:A1 0
5 *328:10 *1226:A 8.02267e-05
6 *328:10 *340:10 0
7 *328:10 *518:15 0.000144691
8 *328:10 *679:10 0
9 *328:10 *970:27 8.00842e-05
10 *1928:D *328:10 0.000399681
*RES
1 *1204:Y *328:10 47.6208 
2 *328:10 *1205:B1 40 
*END

*D_NET *329 0.00486562
*CONN
*I *1475:A I *D sg13g2_xnor2_1
*I *1212:A I *D sg13g2_nand2_1
*I *1810:A I *D sg13g2_nor3_1
*I *1811:A I *D sg13g2_nand2_1
*I *1639:A1 I *D sg13g2_a21oi_1
*I *1246:A1 I *D sg13g2_a22oi_1
*I *1210:Y O *D sg13g2_inv_2
*CAP
1 *1475:A 9.91048e-05
2 *1212:A 8.70257e-05
3 *1810:A 0.000103197
4 *1811:A 7.33699e-05
5 *1639:A1 8.06783e-05
6 *1246:A1 0.000451711
7 *1210:Y 0.000507352
8 *329:29 0.000154048
9 *329:16 0.000574817
10 *329:14 0.000306538
11 *329:12 0.000480882
12 *329:10 0.000920079
13 *1212:A *1472:A 0
14 *1212:A *604:25 0.000144571
15 *1246:A1 *1271:B 0
16 *1246:A1 *400:22 0.000144867
17 *1246:A1 *1020:27 0
18 *1475:A *1475:B 1.54556e-05
19 *1475:A *2006:RESET_B 0
20 *1475:A *690:10 0
21 *1639:A1 *1639:A2 8.02267e-05
22 *1639:A1 *1811:B 0.000144231
23 *1639:A1 *1020:12 6.40047e-05
24 *1810:A *1212:B 7.9703e-05
25 *1810:A *604:25 0
26 *1810:A *1020:8 0
27 *1810:A *1020:12 0
28 *1811:A *1811:B 0.000129517
29 *1811:A *1020:12 0.000144617
30 *329:10 *1651:A 0
31 *197:10 *329:10 7.96263e-05
32 *202:10 *329:10 0
33 *292:8 *329:12 0
*RES
1 *1210:Y *329:10 44.7696 
2 *329:10 *329:12 3.0448 
3 *329:12 *329:14 0.7216 
4 *329:14 *329:16 1.144 
5 *329:16 *1246:A1 43.6608 
6 *329:16 *329:29 20 
7 *329:29 *1639:A1 20.8272 
8 *329:29 *1811:A 20.8272 
9 *329:14 *1810:A 40.8272 
10 *329:12 *1212:A 40.8272 
11 *329:10 *1475:A 40.8272 
*END

*D_NET *330 0.00112798
*CONN
*I *1813:B I *D sg13g2_nand2_1
*I *1212:B I *D sg13g2_nand2_1
*I *1211:Y O *D sg13g2_inv_1
*CAP
1 *1813:B 0.000147062
2 *1212:B 0.000234525
3 *1211:Y 0.000381588
4 *1212:B *1639:A2 0
5 *1212:B *1811:B 0
6 *1212:B *604:25 4.28893e-05
7 *1212:B *1020:12 0
8 *1813:B *1020:8 0.000242209
9 *1810:A *1212:B 7.9703e-05
10 *293:8 *1813:B 0
*RES
1 *1211:Y *1212:B 42.0658 
2 *1211:Y *1813:B 41.3816 
*END

*D_NET *331 0.00157203
*CONN
*I *1215:A2 I *D sg13g2_a21oi_1
*I *1486:A1 I *D sg13g2_o21ai_1
*I *1213:Y O *D sg13g2_inv_1
*CAP
1 *1215:A2 0.000173986
2 *1486:A1 0.000101244
3 *1213:Y 6.421e-05
4 *331:10 0.000275231
5 *331:8 6.421e-05
6 *1215:A2 *1215:A1 1.54008e-05
7 *1215:A2 *930:67 0.000240957
8 *1215:A2 *1126:66 0
9 *1215:A2 *1126:74 0
10 *1486:A1 *1486:B1 0
11 *1486:A1 *930:67 0
12 *1486:A1 *1126:74 0.000112651
13 *331:8 *930:82 0.000235556
14 *331:8 *1126:87 0.000288588
*RES
1 *1213:Y *331:8 41.144 
2 *331:8 *331:10 20 
3 *331:10 *1486:A1 20.9416 
4 *331:10 *1215:A2 21.3816 
*END

*D_NET *332 0.00109299
*CONN
*I *1215:B1 I *D sg13g2_a21oi_1
*I *1214:Y O *D sg13g2_nor2_1
*CAP
1 *1215:B1 3.13338e-05
2 *1214:Y 0.000165846
3 *332:8 0.00019718
4 *1215:B1 *1126:66 4.77425e-05
5 *332:8 *1484:A 7.55443e-05
6 *332:8 *1487:A2 0
7 *332:8 *1145:17 0.000447183
8 *332:8 *1145:80 0.00012816
*RES
1 *1214:Y *332:8 42.2 
2 *332:8 *1215:B1 40.2728 
*END

*D_NET *333 0.00131571
*CONN
*I *1218:A2 I *D sg13g2_a21oi_1
*I *1485:A1 I *D sg13g2_o21ai_1
*I *1216:Y O *D sg13g2_inv_1
*CAP
1 *1218:A2 0
2 *1485:A1 0.000292828
3 *1216:Y 0.000263381
4 *333:8 0.000556209
5 *1485:A1 *1485:A2 7.51285e-05
6 *1485:A1 *930:31 0.00012816
7 *333:8 axi_lite_o[23] 0
8 *333:8 *685:10 0
9 *1205:A2 *1485:A1 0
*RES
1 *1216:Y *333:8 42.6224 
2 *333:8 *1485:A1 42.2 
3 *333:8 *1218:A2 40 
*END

*D_NET *334 0.00237341
*CONN
*I *1218:B1 I *D sg13g2_a21oi_1
*I *1217:Y O *D sg13g2_nor2_1
*CAP
1 *1218:B1 4.08322e-05
2 *1217:Y 0.000513035
3 *334:10 0.000553868
4 *334:10 *1495:A2 0
5 *334:10 *1927:RESET_B 0
6 *334:10 *516:21 0.000712844
7 *334:10 *930:31 0.000552831
8 *334:10 *1142:40 0
9 *334:10 *1142:44 0
*RES
1 *1217:Y *334:10 45.852 
2 *334:10 *1218:B1 40.2728 
*END

*D_NET *335 0.00175302
*CONN
*I *1221:A2 I *D sg13g2_a21oi_1
*I *1488:A1 I *D sg13g2_o21ai_1
*I *1219:Y O *D sg13g2_inv_1
*CAP
1 *1221:A2 0.000251293
2 *1488:A1 1.93224e-05
3 *1219:Y 0.00044142
4 *335:14 0.000270616
5 *335:12 0.00044142
6 *1221:A2 *1213:A 0
7 *1221:A2 *1221:A1 4.77537e-05
8 *1221:A2 *930:67 0
9 *1221:A2 *1103:27 0
10 *1221:A2 *1126:87 0.000112136
11 *1488:A1 *1126:87 3.04166e-05
12 *335:12 *1219:A 1.54008e-05
13 *335:12 *1934:CLK 0
14 *335:12 *507:44 0.000123244
15 *335:12 *684:12 0
16 *335:12 *930:82 0
17 *335:12 *1103:18 0
*RES
1 *1219:Y *335:12 44.4352 
2 *335:12 *335:14 20 
3 *335:14 *1488:A1 20.1738 
4 *335:14 *1221:A2 22.1384 
*END

*D_NET *336 0.00147278
*CONN
*I *1221:B1 I *D sg13g2_a21oi_1
*I *1220:Y O *D sg13g2_nor2_1
*CAP
1 *1221:B1 2.60565e-05
2 *1220:Y 0.000279651
3 *336:8 0.000305707
4 *1221:B1 *1221:A1 9.5485e-05
5 *336:8 *507:44 0
6 *336:8 *684:12 0
7 *336:8 *972:27 0
8 *336:8 *1145:17 0.000234726
9 *336:8 *1145:80 0.00053115
*RES
1 *1220:Y *336:8 43.0448 
2 *336:8 *1221:B1 40.2728 
*END

*D_NET *337 0.00171766
*CONN
*I *1224:A2 I *D sg13g2_a21oi_1
*I *1487:A1 I *D sg13g2_o21ai_1
*I *1222:Y O *D sg13g2_inv_1
*CAP
1 *1224:A2 0
2 *1487:A1 0.000171956
3 *1222:Y 5.38642e-05
4 *337:8 0.00022582
5 *1487:A1 *1223:B 0.000393077
6 *1487:A1 *340:10 0
7 *1487:A1 *1183:18 0.000713345
8 *337:8 *340:10 0
9 *337:8 *1183:18 0.000159598
*RES
1 *1222:Y *337:8 40.7216 
2 *337:8 *1487:A1 42.8336 
3 *337:8 *1224:A2 40 
*END

*D_NET *338 0.000290821
*CONN
*I *1224:B1 I *D sg13g2_a21oi_1
*I *1223:Y O *D sg13g2_nor2_1
*CAP
1 *1224:B1 0.00013771
2 *1223:Y 0.00013771
3 *1224:B1 *1223:A 0
4 *1224:B1 *1223:B 1.54008e-05
5 *1224:B1 *1224:A1 0
6 *1224:B1 *520:6 0
7 *1224:B1 *520:8 0
8 *1224:B1 *520:35 0
9 *1224:B1 *790:17 0
*RES
1 *1223:Y *1224:B1 41.2672 
*END

*D_NET *339 0.00174768
*CONN
*I *1490:A1 I *D sg13g2_o21ai_1
*I *1227:A2 I *D sg13g2_a21oi_1
*I *1225:Y O *D sg13g2_inv_1
*CAP
1 *1490:A1 0
2 *1227:A2 0
3 *1225:Y 0.000286827
4 *339:18 7.81564e-05
5 *339:12 0.000252446
6 *339:8 0.000461116
7 *339:8 axi_lite_o[28] 0
8 *339:8 *679:10 0
9 *339:8 *1002:10 0.000237686
10 *339:12 *1196:A 4.74163e-05
11 *339:12 *1490:A2 1.54008e-05
12 *339:12 *930:33 0
13 *339:12 *1126:26 8.01283e-05
14 *339:18 *676:10 0
15 *339:18 *679:10 0.000288502
*RES
1 *1225:Y *339:8 42.6224 
2 *339:8 *339:12 21.3816 
3 *339:12 *339:18 41.144 
4 *339:18 *1227:A2 20 
5 *339:12 *1490:A1 20 
*END

*D_NET *340 0.00140382
*CONN
*I *1227:B1 I *D sg13g2_a21oi_1
*I *1226:Y O *D sg13g2_nor2_1
*CAP
1 *1227:B1 0
2 *1226:Y 0.000459651
3 *340:10 0.000459651
4 *340:10 *1224:A1 0.000242203
5 *340:10 *1935:CLK 0.000242313
6 *340:10 *683:8 0
7 *340:10 *1183:18 0
8 *1487:A1 *340:10 0
9 *328:10 *340:10 0
10 *337:8 *340:10 0
*RES
1 *1226:Y *340:10 44.6376 
2 *340:10 *1227:B1 40 
*END

*D_NET *341 0.00158886
*CONN
*I *1230:A2 I *D sg13g2_a21oi_1
*I *1489:A1 I *D sg13g2_o21ai_1
*I *1228:Y O *D sg13g2_inv_1
*CAP
1 *1230:A2 0
2 *1489:A1 0.000205313
3 *1228:Y 0.000246665
4 *341:8 0.000451978
5 *1489:A1 *516:58 0
6 *1489:A1 *680:10 0.000128248
7 *341:8 *507:100 0
8 *341:8 *680:10 0.000556653
9 *341:8 *681:8 0
10 *341:8 *1008:8 0
*RES
1 *1228:Y *341:8 43.256 
2 *341:8 *1489:A1 41.7776 
3 *341:8 *1230:A2 40 
*END

*D_NET *342 0.00235968
*CONN
*I *1230:B1 I *D sg13g2_a21oi_1
*I *1229:Y O *D sg13g2_nor2_1
*CAP
1 *1230:B1 4.87124e-05
2 *1229:Y 0.000662432
3 *342:8 0.000711145
4 *1230:B1 *680:10 4.77425e-05
5 *342:8 *507:84 0
6 *342:8 *1105:73 0
7 *342:8 *1138:77 0.000447182
8 *1807:A1 *342:8 0.000234224
9 *1933:D *1230:B1 8.00842e-05
10 *161:8 *342:8 0
11 *222:10 *342:8 0.00012816
*RES
1 *1229:Y *342:8 46.2128 
2 *342:8 *1230:B1 40.4576 
*END

*D_NET *343 0.00186507
*CONN
*I *1233:A2 I *D sg13g2_a21oi_1
*I *1492:A1 I *D sg13g2_o21ai_1
*I *1231:Y O *D sg13g2_inv_1
*CAP
1 *1233:A2 0
2 *1492:A1 0.000469694
3 *1231:Y 0.00032602
4 *343:10 0.000469694
5 *343:8 0.00032602
6 *1492:A1 *1233:A1 1.54446e-05
7 *1492:A1 *1492:A2 1.54118e-05
8 *1492:A1 *2272:A 0.000112437
9 *1492:A1 *515:27 0
10 *1492:A1 *677:10 0
11 *1492:A1 *762:8 0
12 *1492:A1 *1105:96 0
13 *343:8 *677:10 0.000130344
14 *1930:D *1492:A1 0
*RES
1 *1231:Y *343:8 43.4672 
2 *343:8 *343:10 20 
3 *343:10 *1492:A1 24.224 
4 *343:10 *1233:A2 20 
*END

*D_NET *344 0.000692479
*CONN
*I *1233:B1 I *D sg13g2_a21oi_1
*I *1232:Y O *D sg13g2_nor2_1
*CAP
1 *1233:B1 4.71134e-05
2 *1232:Y 0.00023504
3 *344:8 0.000282154
4 *1233:B1 *1233:A1 0
5 *1233:B1 *677:10 4.79124e-05
6 *1233:B1 *1105:96 8.02595e-05
*RES
1 *1232:Y *344:8 42.4112 
2 *344:8 *1233:B1 40.4576 
*END

*D_NET *345 0.0017069
*CONN
*I *1236:A2 I *D sg13g2_a21oi_1
*I *1491:A1 I *D sg13g2_o21ai_1
*I *1234:Y O *D sg13g2_inv_1
*CAP
1 *1236:A2 0
2 *1491:A1 0.000156488
3 *1234:Y 0.00042476
4 *345:10 0.000581248
5 *1491:A1 *1491:B1 0.00012816
6 *1491:A1 *678:10 0.00012816
7 *1491:A1 *978:8 0
8 *1491:A1 *1105:73 0
9 *345:10 *1931:CLK 0
10 *345:10 *1933:CLK 0
11 *345:10 *678:10 0.000288087
12 *345:10 *1105:86 0
*RES
1 *1234:Y *345:10 44.1888 
2 *345:10 *1491:A1 41.7776 
3 *345:10 *1236:A2 40 
*END

*D_NET *346 0.000861276
*CONN
*I *1236:B1 I *D sg13g2_a21oi_1
*I *1235:Y O *D sg13g2_nor2_1
*CAP
1 *1236:B1 0.000136628
2 *1235:Y 5.6995e-05
3 *346:8 0.000193624
4 *1236:B1 *678:10 4.77702e-05
5 *1236:B1 *1105:86 0
6 *346:8 axi_lite_o[22] 0.000183978
7 *1931:D *1236:B1 0.000242281
*RES
1 *1235:Y *346:8 40.7216 
2 *346:8 *1236:B1 41.3816 
*END

*D_NET *347 0.00185258
*CONN
*I *1240:A2 I *D sg13g2_a21oi_1
*I *1432:A1 I *D sg13g2_a21oi_1
*I *1238:Y O *D sg13g2_inv_1
*CAP
1 *1240:A2 0.000230099
2 *1432:A1 0.000658585
3 *1238:Y 0
4 *347:6 0.000888684
5 *1240:A2 *582:10 0
6 *1240:A2 *582:25 0
7 *1432:A1 *1432:A2 7.52149e-05
8 *1432:A1 *436:12 0
9 *1432:A1 *582:10 0
10 *1432:A1 *914:38 0
11 *283:10 *1240:A2 0
12 *283:10 *1432:A1 0
*RES
1 *1238:Y *347:6 40 
2 *347:6 *1432:A1 45.368 
3 *347:6 *1240:A2 41.9888 
*END

*D_NET *348 0.000468943
*CONN
*I *1240:B1 I *D sg13g2_a21oi_1
*I *1239:Y O *D sg13g2_nor2_1
*CAP
1 *1240:B1 0.000186735
2 *1239:Y 0.000186735
3 *1240:B1 *1239:A 4.77363e-05
4 *1240:B1 *1299:A0 4.77363e-05
5 *1240:B1 *582:25 0
*RES
1 *1239:Y *1240:B1 41.6368 
*END

*D_NET *349 0.00774011
*CONN
*I *1667:A0 I *D sg13g2_mux2_1
*I *1299:A0 I *D sg13g2_mux2_1
*I *1240:Y O *D sg13g2_a21oi_1
*CAP
1 *1667:A0 0
2 *1299:A0 0.00231232
3 *1240:Y 0
4 *349:27 0.000768396
5 *349:4 0.00308072
6 *1299:A0 *1238:A 0
7 *1299:A0 *1299:S 0
8 *1299:A0 *1357:A 8.02924e-05
9 *1299:A0 *1358:B1 0.000727197
10 *1299:A0 *1733:A 0
11 *1299:A0 *2080:CLK 0
12 *1299:A0 *2303:A 0
13 *1299:A0 *582:25 7.92265e-05
14 *1299:A0 *716:34 0
15 *1299:A0 *829:12 0.000226578
16 *1299:A0 *829:26 0.000208008
17 *1299:A0 *829:48 0
18 *1299:A0 *908:20 0
19 *1299:A0 *1099:6 0
20 *1299:A0 *1099:66 0
21 *1299:A0 *1123:27 0
22 *1299:A0 *1125:16 0
23 *1299:A0 *1170:12 0.000209637
24 *1299:A0 *1170:18 0
25 *349:27 *453:16 0
26 *349:27 *455:25 0
27 *349:27 *1113:109 0
28 *349:27 *1125:38 0
29 *1240:B1 *1299:A0 4.77363e-05
30 *2022:D *1299:A0 0
31 *2038:D *1299:A0 0
32 *205:14 *349:27 0
33 *242:10 *1299:A0 0
*RES
1 *1240:Y *349:4 20 
2 *349:4 *1299:A0 41.032 
3 *349:4 *349:27 46.0368 
4 *349:27 *1667:A0 20 
*END

*D_NET *350 0.000936182
*CONN
*I *1242:B1 I *D sg13g2_o21ai_1
*I *1241:Y O *D sg13g2_inv_1
*CAP
1 *1242:B1 0.000427983
2 *1241:Y 0.000427983
3 *1242:B1 *1242:A2 8.0216e-05
4 *1242:B1 *1254:A1 0
5 *1242:B1 *1439:A0 0
6 *1242:B1 *707:14 0
7 *1242:B1 *1143:23 0
8 *1242:B1 *1143:33 0
*RES
1 *1241:Y *1242:B1 43.1592 
*END

*D_NET *351 0.00157103
*CONN
*I *1254:A1 I *D sg13g2_a21o_1
*I *1242:Y O *D sg13g2_o21ai_1
*CAP
1 *1254:A1 0.000664709
2 *1242:Y 0.000664709
3 *1254:A1 *1254:A2 1.69409e-05
4 *1254:A1 *1386:A 8.03091e-05
5 *1254:A1 *707:14 0
6 *1254:A1 *1079:46 0.000144358
7 *1254:A1 *1143:23 0
8 *1242:B1 *1254:A1 0
*RES
1 *1242:Y *1254:A1 45.2096 
*END

*D_NET *352 0.0010192
*CONN
*I *1254:A2 I *D sg13g2_a21o_1
*I *1243:Y O *D sg13g2_o21ai_1
*CAP
1 *1254:A2 9.24586e-06
2 *1243:Y 0.000205155
3 *352:8 0.000214401
4 *1254:A2 *707:14 1.69409e-05
5 *352:8 *1819:B 0
6 *352:8 *475:12 0.000556516
7 *352:8 *1072:8 0
8 *1254:A1 *1254:A2 1.69409e-05
*RES
1 *1243:Y *352:8 42.2 
2 *352:8 *1254:A2 40.0968 
*END

*D_NET *353 0.00449827
*CONN
*I *1644:B I *D sg13g2_nand2_1
*I *1246:B1 I *D sg13g2_a22oi_1
*I *1640:A I *D sg13g2_nor2_1
*I *1643:A1 I *D sg13g2_a21oi_2
*I *1712:A I *D sg13g2_nand2_1
*I *1244:Y O *D sg13g2_inv_2
*CAP
1 *1644:B 3.13338e-05
2 *1246:B1 0.000225091
3 *1640:A 0
4 *1643:A1 0
5 *1712:A 0.000131435
6 *1244:Y 0.000651803
7 *353:40 0.00036324
8 *353:32 0.000595734
9 *353:10 0.000396622
10 *353:8 0.00134324
11 *1246:B1 *354:6 0.000209235
12 *1246:B1 *355:6 4.78521e-05
13 *1246:B1 *1089:8 0
14 *1712:A *1023:32 0
15 *353:8 *2004:CLK 0
16 *353:8 *1194:8 0
17 *353:10 *1177:8 0
18 *353:40 *1638:A 0
19 *353:40 *354:6 1.5842e-05
20 *353:40 *1097:69 0
21 *1646:C *1644:B 4.77425e-05
22 *134:12 *353:8 0
23 *188:8 *1246:B1 0
24 *189:18 *353:40 0.000125021
25 *190:14 *353:32 0.000314079
26 *193:12 *353:10 0
27 *193:27 *353:8 0
28 *194:20 *1246:B1 0
29 *194:20 *353:40 0
30 *196:8 *353:8 0
31 *287:8 *353:10 0
32 *288:8 *353:10 0
*RES
1 *1244:Y *353:8 46.0016 
2 *353:8 *353:10 2.6224 
3 *353:10 *1712:A 41.144 
4 *353:10 *1643:A1 40 
5 *353:8 *353:32 44.708 
6 *353:32 *353:40 21.2958 
7 *353:40 *1640:A 20 
8 *353:40 *1246:B1 22.1362 
9 *353:32 *1644:B 40.2728 
*END

*D_NET *354 0.00144533
*CONN
*I *1645:A I *D sg13g2_nor2_1
*I *1246:B2 I *D sg13g2_a22oi_1
*I *1245:Y O *D sg13g2_inv_1
*CAP
1 *1645:A 0
2 *1246:B2 0
3 *1245:Y 0.000373919
4 *354:19 9.78145e-05
5 *354:6 0.000471733
6 *354:6 *1638:A 0
7 *354:6 *355:6 4.78521e-05
8 *354:19 *1639:B1 0.000181192
9 *354:19 *355:6 3.23417e-05
10 *354:19 *1020:27 1.54008e-05
11 *1246:B1 *354:6 0.000209235
12 *1646:C *354:6 0
13 *188:8 *354:6 0
14 *353:40 *354:6 1.5842e-05
*RES
1 *1245:Y *354:6 22.86 
2 *354:6 *1246:B2 20 
3 *354:6 *354:19 40.9944 
4 *354:19 *1645:A 20 
*END

*D_NET *355 0.00145544
*CONN
*I *1271:B I *D sg13g2_nor2_1
*I *1247:A I *D sg13g2_nand2_1
*I *1834:B I *D sg13g2_nor2_1
*I *1246:Y O *D sg13g2_a22oi_1
*CAP
1 *1271:B 0.00020267
2 *1247:A 2.67607e-05
3 *1834:B 0.000134265
4 *1246:Y 7.43172e-05
5 *355:10 0.000291266
6 *355:6 0.000407228
7 *1247:A *1252:A 1.54008e-05
8 *1247:A *400:22 4.77425e-05
9 *1271:B *1811:B 0
10 *1271:B *400:22 0
11 *1271:B *1020:27 0
12 *1834:B *360:27 0
13 *1834:B *400:28 0
14 *1834:B *1089:12 0.000127744
15 *1246:B1 *355:6 4.78521e-05
16 *1246:A1 *1271:B 0
17 *354:6 *355:6 4.78521e-05
18 *354:19 *355:6 3.23417e-05
*RES
1 *1246:Y *355:6 20.6424 
2 *355:6 *355:10 20.9328 
3 *355:10 *1834:B 41.2056 
4 *355:10 *1247:A 40.2728 
5 *355:6 *1271:B 21.6808 
*END

*D_NET *356 0.000473027
*CONN
*I *1252:A I *D sg13g2_nand2_1
*I *1247:Y O *D sg13g2_nand2_1
*CAP
1 *1252:A 0.000228813
2 *1247:Y 0.000228813
3 *1252:A *360:21 0
4 *1252:A *400:22 0
5 *1247:A *1252:A 1.54008e-05
*RES
1 *1247:Y *1252:A 41.6808 
*END

*D_NET *357 0.0028303
*CONN
*I *1827:A I *D sg13g2_nor3_1
*I *1251:A1 I *D sg13g2_a22oi_1
*I *1372:A I *D sg13g2_nand2_1
*I *1248:Y O *D sg13g2_inv_1
*CAP
1 *1827:A 0
2 *1251:A1 0
3 *1372:A 0
4 *1248:Y 4.9784e-05
5 *357:35 0.000216583
6 *357:22 0.000329883
7 *357:12 0.000714528
8 *357:6 0.000217845
9 *357:6 *1829:B 0
10 *357:22 *1829:B 0
11 *357:22 *1097:63 0
12 *357:35 *359:8 0.000183978
13 *357:35 *1087:25 0.000237686
14 *357:35 *1097:46 4.77425e-05
15 *357:35 *1141:16 0.000130344
16 *1832:B1 *357:22 0.0001765
17 *301:14 *357:35 0.000342826
18 *302:8 *357:35 0.000182596
*RES
1 *1248:Y *357:6 20.5104 
2 *357:6 *357:12 41.3816 
3 *357:12 *357:22 42.508 
4 *357:22 *1372:A 20 
5 *357:12 *357:35 43.1064 
6 *357:35 *1251:A1 20 
7 *357:6 *1827:A 20 
*END

*D_NET *358 0.00402492
*CONN
*I *1382:A I *D sg13g2_nor2_1
*I *1251:B1 I *D sg13g2_a22oi_1
*I *1380:A1 I *D sg13g2_a21oi_1
*I *1249:Y O *D sg13g2_inv_1
*CAP
1 *1382:A 0
2 *1251:B1 0.000100653
3 *1380:A1 0.000714798
4 *1249:Y 0.000156735
5 *358:38 0.000343415
6 *358:10 0.0010253
7 *358:6 0.000709999
8 *1251:B1 *359:8 0.000184117
9 *1380:A1 *1380:A2 0.000307002
10 *1380:A1 *1380:B1 0
11 *1380:A1 *2325:A 0
12 *358:6 *651:10 0
13 *358:6 *1097:46 0.000242203
14 *358:10 *1250:A 4.78521e-05
15 *358:10 *651:10 0
16 *358:10 *1097:46 8.02924e-05
17 *358:10 *1141:16 0.000112558
18 *358:38 *650:12 0
19 *358:38 *651:10 0
*RES
1 *1249:Y *358:6 21.3816 
2 *358:6 *358:10 21.7512 
3 *358:10 *1380:A1 45.4296 
4 *358:10 *1251:B1 41.144 
5 *358:6 *358:38 43.08 
6 *358:38 *1382:A 20 
*END

*D_NET *359 0.00064241
*CONN
*I *1251:B2 I *D sg13g2_a22oi_1
*I *1250:Y O *D sg13g2_inv_1
*CAP
1 *1251:B2 3.4007e-05
2 *1250:Y 9.54503e-05
3 *359:8 0.000129457
4 *1251:B2 *707:14 0
5 *1251:B2 *1087:25 1.54008e-05
6 *1251:B1 *359:8 0.000184117
7 *357:35 *359:8 0.000183978
*RES
1 *1250:Y *359:8 41.144 
2 *359:8 *1251:B2 40.2728 
*END

*D_NET *360 0.0044876
*CONN
*I *1252:B I *D sg13g2_nand2_1
*I *1271:A I *D sg13g2_nor2_1
*I *1835:A2 I *D sg13g2_a21oi_1
*I *1251:Y O *D sg13g2_a22oi_1
*CAP
1 *1252:B 0
2 *1271:A 0
3 *1835:A2 0
4 *1251:Y 0.000836856
5 *360:27 0.000184428
6 *360:21 0.000457079
7 *360:12 0.000718726
8 *360:8 0.00128293
9 *360:8 *1097:69 0.000616314
10 *360:8 *1141:25 0
11 *360:12 *2005:CLK 0
12 *360:12 *2019:CLK 0
13 *360:12 *793:17 0
14 *360:12 *1089:8 0
15 *360:21 *361:10 0
16 *360:21 *793:17 0
17 *360:27 *1826:A 0
18 *1252:A *360:21 0
19 *1834:B *360:27 0
20 *1835:B1 *360:12 0
21 *1835:B1 *360:21 0
22 *194:20 *360:12 0
23 *301:14 *360:8 0
24 *302:8 *360:8 0
25 *303:10 *360:8 0.000391265
*RES
1 *1251:Y *360:8 47.9024 
2 *360:8 *360:12 23.784 
3 *360:12 *1835:A2 20 
4 *360:12 *360:21 2.4992 
5 *360:21 *360:27 41.5664 
6 *360:27 *1271:A 20 
7 *360:21 *1252:B 20 
*END

*D_NET *361 0.00838817
*CONN
*I *1262:B1 I *D sg13g2_o21ai_1
*I *2116:A I *D sg13g2_buf_1
*I *1374:B I *D sg13g2_xnor2_1
*I *1381:B I *D sg13g2_nor2_1
*I *1252:Y O *D sg13g2_nand2_1
*CAP
1 *1262:B1 0
2 *2116:A 0
3 *1374:B 5.36606e-05
4 *1381:B 0.000800472
5 *1252:Y 0
6 *361:49 0.000857351
7 *361:36 0.00150151
8 *361:10 0.00133376
9 *361:4 0.00112379
10 *1374:B *1374:A 8.02598e-05
11 *1374:B *1100:83 0
12 *1381:B *400:28 0
13 *1381:B *471:10 0.000339393
14 *1381:B *707:14 0
15 *1381:B *1080:21 0
16 *1381:B *1097:46 0
17 *1381:B *1141:6 0
18 *1381:B *1141:56 0
19 *361:10 *400:28 0
20 *361:36 *2009:RESET_B 4.77425e-05
21 *361:36 *2015:CLK 0
22 *361:36 *400:22 0
23 *361:36 *1085:8 0
24 *361:36 *1143:41 0
25 *361:49 *1377:B 0
26 *361:49 *366:8 0
27 *361:49 *370:8 7.52158e-05
28 *361:49 *400:22 0
29 *361:49 *406:10 0
30 *361:49 *406:43 0
31 *361:49 *406:58 0
32 *361:49 *510:43 0.00119461
33 *361:49 *1083:10 0
34 *361:49 *1143:41 0
35 *16:20 *1381:B 0.000980407
36 *306:8 *361:10 0
37 *360:21 *361:10 0
*RES
1 *1252:Y *361:4 20 
2 *361:4 *361:10 24.5848 
3 *361:10 *1381:B 48.2016 
4 *361:10 *1374:B 40.4576 
5 *361:4 *361:36 5.8608 
6 *361:36 *2116:A 20 
7 *361:36 *361:49 49.6536 
8 *361:49 *1262:B1 20 
*END

*D_NET *363 0.0071608
*CONN
*I *1277:A I *D sg13g2_nand2_2
*I *1270:A I *D sg13g2_nand4_1
*I *1254:X O *D sg13g2_a21o_1
*CAP
1 *1277:A 0
2 *1270:A 0
3 *1254:X 0.00031109
4 *363:29 0.000332776
5 *363:12 0.00141425
6 *363:8 0.00139257
7 *363:8 *1819:B 0
8 *363:8 *707:14 0
9 *363:8 *1143:23 0.000242006
10 *363:12 *1264:B 0.000213353
11 *363:12 *1275:A 0.000129089
12 *363:12 *1283:B1 0.000181192
13 *363:12 *1816:A1 0.0016196
14 *363:12 *374:10 0.000554272
15 *363:12 *378:10 0
16 *363:12 *1088:30 0
17 *363:29 *1270:B 0.000496672
18 *363:29 *371:10 0.000129163
19 *363:29 *380:10 0
20 *363:29 *380:20 0
21 *363:29 *404:10 0.000144768
22 *363:29 *510:10 0
*RES
1 *1254:X *363:8 42.4904 
2 *363:8 *363:12 32.76 
3 *363:12 *1270:A 20 
4 *363:12 *363:29 43.8104 
5 *363:29 *1277:A 20 
*END

*D_NET *364 0.0039122
*CONN
*I *1257:A1 I *D sg13g2_a21oi_1
*I *1661:A1 I *D sg13g2_a21oi_1
*I *1255:Y O *D sg13g2_inv_1
*CAP
1 *1257:A1 4.72456e-05
2 *1661:A1 0.000874153
3 *1255:Y 0.000368751
4 *364:10 0.00129015
5 *1257:A1 *1257:B1 7.98201e-05
6 *1257:A1 *2234:A 0
7 *1257:A1 *365:39 1.53311e-05
8 *1661:A1 *1257:B1 0
9 *1661:A1 *951:46 0
10 *1661:A1 *1107:30 0.000240502
11 *1661:A1 *1112:75 0
12 *1661:A1 *1163:20 0
13 *364:10 *365:39 0
14 *364:10 *367:8 0
15 *364:10 *1102:8 0
16 *364:10 *1112:90 0.000306887
17 *364:10 *1163:20 0
18 *1661:A2 *1661:A1 0.000255902
19 *202:39 *1661:A1 0.000433456
*RES
1 *1255:Y *364:10 43.1064 
2 *364:10 *1661:A1 47.8672 
3 *364:10 *1257:A1 40.4576 
*END

*D_NET *365 0.0039846
*CONN
*I *1257:A2 I *D sg13g2_a21oi_1
*I *1659:A1 I *D sg13g2_a21oi_1
*I *1256:Y O *D sg13g2_inv_1
*CAP
1 *1257:A2 0
2 *1659:A1 0
3 *1256:Y 0.000339322
4 *365:39 0.000748513
5 *365:20 0.000410991
6 *365:10 0.0011595
7 *365:8 0.000339322
8 *365:8 *509:21 0
9 *365:8 *944:8 0
10 *365:8 *1112:94 0
11 *365:8 *1146:82 0
12 *365:8 *1164:8 0
13 *365:20 *1871:RESET_B 0.000127823
14 *365:20 *654:24 0.000176331
15 *365:20 *1112:119 4.77425e-05
16 *365:20 *1164:14 0
17 *365:39 *654:24 0.000336853
18 *365:39 *1112:90 0
19 *365:39 *1163:20 0.0002079
20 *365:39 *1164:14 0
21 *1257:A1 *365:39 1.53311e-05
22 *202:21 *365:20 7.49652e-05
23 *202:32 *365:39 0
24 *364:10 *365:39 0
*RES
1 *1256:Y *365:8 43.256 
2 *365:8 *365:10 20 
3 *365:10 *365:20 43.828 
4 *365:20 *1659:A1 20 
5 *365:10 *365:39 46.4328 
6 *365:39 *1257:A2 20 
*END

*D_NET *366 0.0020026
*CONN
*I *1262:A1 I *D sg13g2_o21ai_1
*I *1257:Y O *D sg13g2_a21oi_1
*CAP
1 *1262:A1 5.54595e-05
2 *1257:Y 0.000741019
3 *366:8 0.000796479
4 *1262:A1 *1262:A2 1.54008e-05
5 *1262:A1 *510:43 0
6 *366:8 *1653:A 0
7 *366:8 *367:8 0
8 *366:8 *367:18 0
9 *366:8 *368:16 0.000394238
10 *366:8 *369:8 0
11 *366:8 *370:8 0
12 *366:8 *406:58 0
13 *136:10 *366:8 0
14 *361:49 *366:8 0
*RES
1 *1257:Y *366:8 46.8464 
2 *366:8 *1262:A1 40.4576 
*END

*D_NET *367 0.00283238
*CONN
*I *1654:A1 I *D sg13g2_a21oi_1
*I *1261:A1 I *D sg13g2_a21oi_1
*I *1258:Y O *D sg13g2_inv_1
*CAP
1 *1654:A1 0
2 *1261:A1 0
3 *1258:Y 0.000607942
4 *367:18 0.000285152
5 *367:12 0.000413846
6 *367:8 0.000736636
7 *367:8 *1260:A 0
8 *367:8 *1102:8 0
9 *367:8 *1112:90 0.000234312
10 *367:8 *1144:47 0
11 *367:18 *1260:A 0
12 *367:18 *368:16 0.000394151
13 *367:18 *369:8 0
14 *1654:A2 *367:12 1.54008e-05
15 *1873:D *367:12 0.000144942
16 *2297:A *367:12 0
17 *197:40 *367:12 0
18 *364:10 *367:8 0
19 *366:8 *367:8 0
20 *366:8 *367:18 0
*RES
1 *1258:Y *367:8 45.1568 
2 *367:8 *367:12 21.1968 
3 *367:12 *367:18 42.8336 
4 *367:18 *1261:A1 20 
5 *367:12 *1654:A1 20 
*END

*D_NET *368 0.00151768
*CONN
*I *1652:A1 I *D sg13g2_a21oi_1
*I *1261:A2 I *D sg13g2_a21oi_1
*I *1259:Y O *D sg13g2_inv_1
*CAP
1 *1652:A1 2.98143e-05
2 *1261:A2 0
3 *1259:Y 0.000200279
4 *368:16 0.000102981
5 *368:8 0.000333074
6 *368:8 *1259:A 0
7 *368:16 *1261:B1 0
8 *368:16 *510:26 0
9 *368:16 *657:14 4.77425e-05
10 *136:10 *368:8 0
11 *197:29 *368:8 0
12 *197:40 *1652:A1 1.54008e-05
13 *366:8 *368:16 0.000394238
14 *367:18 *368:16 0.000394151
*RES
1 *1259:Y *368:8 21.496 
2 *368:8 *368:16 41.8392 
3 *368:16 *1261:A2 20 
4 *368:8 *1652:A1 20.2728 
*END

*D_NET *369 0.000968095
*CONN
*I *1261:B1 I *D sg13g2_a21oi_1
*I *1796:A I *D sg13g2_xnor2_1
*I *1260:Y O *D sg13g2_inv_1
*CAP
1 *1261:B1 0.000192601
2 *1796:A 8.48218e-05
3 *1260:Y 0.000129468
4 *369:8 0.000406891
5 *1261:B1 *510:26 0
6 *1261:B1 *657:14 0
7 *1796:A *370:8 0
8 *1796:A *510:18 4.79124e-05
9 *1796:A *510:26 1.54556e-05
10 *369:8 *1260:A 7.55443e-05
11 *369:8 *370:8 0
12 *369:8 *1112:75 0
13 *2003:D *1261:B1 1.54008e-05
14 *366:8 *369:8 0
15 *367:18 *369:8 0
16 *368:16 *1261:B1 0
*RES
1 *1260:Y *369:8 41.3552 
2 *369:8 *1796:A 40.7832 
3 *369:8 *1261:B1 41.7512 
*END

*D_NET *370 0.000615745
*CONN
*I *1262:A2 I *D sg13g2_o21ai_1
*I *1261:Y O *D sg13g2_a21oi_1
*CAP
1 *1262:A2 3.32229e-05
2 *1261:Y 0.000229341
3 *370:8 0.000262564
4 *1262:A1 *1262:A2 1.54008e-05
5 *1796:A *370:8 0
6 *361:49 *370:8 7.52158e-05
7 *366:8 *370:8 0
8 *369:8 *370:8 0
*RES
1 *1261:Y *370:8 42.2 
2 *370:8 *1262:A2 40.2728 
*END

*D_NET *371 0.00489244
*CONN
*I *1277:B I *D sg13g2_nand2_2
*I *1270:B I *D sg13g2_nand4_1
*I *1262:Y O *D sg13g2_o21ai_1
*CAP
1 *1277:B 0
2 *1270:B 0.000257725
3 *1262:Y 0.000921203
4 *371:10 0.000753397
5 *371:8 0.00141688
6 *1270:B *1270:C 4.77866e-05
7 *1270:B *1283:B1 0.00018128
8 *371:8 *1868:RESET_B 0
9 *371:8 *2239:A 8.03091e-05
10 *371:8 *510:18 0
11 *371:8 *510:26 0
12 *371:8 *1083:10 0
13 *371:8 *1104:29 0
14 *371:10 *1283:B1 0
15 *371:10 *391:8 0.000608025
16 *371:10 *510:10 0
17 *363:29 *1270:B 0.000496672
18 *363:29 *371:10 0.000129163
*RES
1 *1262:Y *371:8 47.8496 
2 *371:8 *371:10 4.9456 
3 *371:10 *1270:B 42.684 
4 *371:10 *1277:B 40 
*END

*D_NET *372 0.003221
*CONN
*I *1265:A2 I *D sg13g2_a21oi_1
*I *1818:A1 I *D sg13g2_a21oi_1
*I *1263:Y O *D sg13g2_inv_1
*CAP
1 *1265:A2 0.000246219
2 *1818:A1 0.000537167
3 *1263:Y 0
4 *372:6 0.000783385
5 *1265:A2 *1265:A1 0.000112569
6 *1265:A2 *374:10 0
7 *1265:A2 *378:10 0
8 *1265:A2 *379:14 0.000274332
9 *1265:A2 *913:66 2.21831e-05
10 *1818:A1 *1816:A1 0
11 *1818:A1 *2275:A 0.000957803
12 *1818:A1 *1100:71 0.000287342
13 *1818:A1 *1147:48 0
*RES
1 *1263:Y *372:6 40 
2 *372:6 *1818:A1 46.2128 
3 *372:6 *1265:A2 42.288 
*END

*D_NET *373 0.00124141
*CONN
*I *1265:B1 I *D sg13g2_a21oi_1
*I *1264:Y O *D sg13g2_nor2_1
*CAP
1 *1265:B1 0
2 *1264:Y 0.000585925
3 *373:14 0.000585925
4 *373:14 *1264:A 4.75616e-05
5 *373:14 *1265:A1 0
6 *373:14 *2275:A 2.19969e-05
7 *373:14 *374:10 0
8 *373:14 *1075:8 0
9 *373:14 *1147:35 0
*RES
1 *1264:Y *373:14 44.972 
2 *373:14 *1265:B1 40 
*END

*D_NET *374 0.00347479
*CONN
*I *1275:A I *D sg13g2_nor2_1
*I *1270:C I *D sg13g2_nand4_1
*I *1265:Y O *D sg13g2_a21oi_1
*CAP
1 *1275:A 0.000466416
2 *1270:C 9.24185e-05
3 *1265:Y 0.000643631
4 *374:10 0.00120246
5 *1275:A *1283:B1 0.00029097
6 *1275:A *386:10 0
7 *1275:A *404:10 0
8 *1275:A *510:10 0
9 *374:10 *1265:A1 4.77425e-05
10 *374:10 *378:10 0
11 *374:10 *379:14 0
12 *374:10 *913:66 0
13 *1265:A2 *374:10 0
14 *1270:B *1270:C 4.77866e-05
15 *363:12 *1275:A 0.000129089
16 *363:12 *374:10 0.000554272
17 *373:14 *374:10 0
*RES
1 *1265:Y *374:10 45.7992 
2 *374:10 *1270:C 40.6424 
3 *374:10 *1275:A 44.4792 
*END

*D_NET *375 0.00152824
*CONN
*I *1268:A2 I *D sg13g2_a21oi_1
*I *1438:A1 I *D sg13g2_a21oi_1
*I *1266:Y O *D sg13g2_inv_1
*CAP
1 *1268:A2 0.000214533
2 *1438:A1 0
3 *1266:Y 0
4 *375:10 0.000541885
5 *375:4 0.000756418
6 *1268:A2 *1266:A 1.54008e-05
7 *1268:A2 *1268:B1 0
8 *1268:A2 *913:10 0
9 *375:10 *1112:49 0
10 *375:10 *1143:33 0
11 *375:10 *1143:41 0
*RES
1 *1266:Y *375:4 20 
2 *375:4 *375:10 44.9456 
3 *375:10 *1438:A1 20 
4 *375:4 *1268:A2 21.936 
*END

*D_NET *376 0.000215929
*CONN
*I *1268:B1 I *D sg13g2_a21oi_1
*I *1267:Y O *D sg13g2_nor2_1
*CAP
1 *1268:B1 0.000100264
2 *1267:Y 0.000100264
3 *1268:B1 *1267:B 1.54008e-05
4 *1268:A2 *1268:B1 0
*RES
1 *1267:Y *1268:B1 41.056 
*END

*D_NET *377 0.000343156
*CONN
*I *1269:A I *D sg13g2_nor2_1
*I *1268:Y O *D sg13g2_a21oi_1
*CAP
1 *1269:A 0.000171578
2 *1268:Y 0.000171578
3 *1269:A *1267:B 0
4 *1269:A *913:10 0
*RES
1 *1268:Y *1269:A 41.496 
*END

*D_NET *378 0.00407359
*CONN
*I *1270:D I *D sg13g2_nand4_1
*I *1283:B1 I *D sg13g2_a21oi_2
*I *1269:Y O *D sg13g2_nor2_1
*CAP
1 *1270:D 0
2 *1283:B1 0.000827047
3 *1269:Y 0.000760804
4 *378:10 0.00158785
5 *378:10 *1264:A 1.54008e-05
6 *378:10 *1264:B 0.000181298
7 *378:10 *2018:CLK 0
8 *378:10 *379:10 0
9 *378:10 *913:54 0
10 *378:10 *1044:6 0
11 *378:10 *1045:8 4.77425e-05
12 *1265:A2 *378:10 0
13 *1270:B *1283:B1 0.00018128
14 *1275:A *1283:B1 0.00029097
15 *363:12 *1283:B1 0.000181192
16 *363:12 *378:10 0
17 *371:10 *1283:B1 0
18 *374:10 *378:10 0
*RES
1 *1269:Y *378:10 46.4856 
2 *378:10 *1283:B1 47.7264 
3 *378:10 *1270:D 40 
*END

*D_NET *379 0.00707891
*CONN
*I *1296:A_N I *D sg13g2_nand2b_1
*I *1294:A2 I *D sg13g2_o21ai_1
*I *1270:Y O *D sg13g2_nand4_1
*CAP
1 *1296:A_N 0.000117292
2 *1294:A2 0
3 *1270:Y 0.000183005
4 *379:25 0.00207937
5 *379:14 0.0024438
6 *379:10 0.000664728
7 *379:10 *380:20 0.000176319
8 *379:10 *400:65 1.54008e-05
9 *379:10 *913:66 0
10 *379:14 *1294:B1 0.000177314
11 *379:14 *399:12 1.54556e-05
12 *379:14 *400:65 0
13 *379:14 *400:80 0
14 *379:14 *404:36 0
15 *379:14 *913:66 0.000145069
16 *379:25 *1294:B1 1.54556e-05
17 *379:25 *1662:B 0
18 *379:25 *1841:B 0.000181192
19 *379:25 *399:12 0.000226731
20 *379:25 *404:36 0
21 *379:25 *834:37 0.000106064
22 *379:25 *1147:21 4.77425e-05
23 *379:25 *1147:31 0.000209637
24 *1265:A2 *379:14 0.000274332
25 *374:10 *379:14 0
26 *378:10 *379:10 0
*RES
1 *1270:Y *379:10 41.8392 
2 *379:10 *379:14 24.5232 
3 *379:14 *1294:A2 20 
4 *379:14 *379:25 35.2768 
5 *379:25 *1296:A_N 40.8272 
*END

*D_NET *380 0.00623156
*CONN
*I *1285:A I *D sg13g2_nor3_1
*I *1473:A I *D sg13g2_nor2_2
*I *1271:Y O *D sg13g2_nor2_1
*CAP
1 *1285:A 0.000438975
2 *1473:A 0
3 *1271:Y 0.00164039
4 *380:20 0.000701483
5 *380:10 0.00190289
6 *1285:A *1295:A 0.000274627
7 *1285:A *400:80 0
8 *1285:A *404:10 0.000209505
9 *1285:A *897:8 0
10 *380:10 *1297:A 0
11 *380:10 *1377:B 0
12 *380:10 *1378:A2 0
13 *380:10 *1824:B 8.03692e-05
14 *380:10 *400:8 0.000469105
15 *380:10 *400:14 0
16 *380:10 *400:22 0
17 *380:10 *400:65 4.78853e-05
18 *380:10 *404:10 0
19 *380:10 *468:10 8.02598e-05
20 *380:20 *400:65 0
21 *380:20 *404:10 0.000209752
22 *1812:A1 *380:10 0
23 *299:12 *380:10 0
24 *363:29 *380:10 0
25 *363:29 *380:20 0
26 *379:10 *380:20 0.000176319
*RES
1 *1271:Y *380:10 33.8072 
2 *380:10 *380:20 42.376 
3 *380:20 *1473:A 20 
4 *380:20 *1285:A 23.7136 
*END

*D_NET *381 0.00146601
*CONN
*I *1273:A I *D sg13g2_nand2_1
*I *1795:A1 I *D sg13g2_a21oi_1
*I *1272:Y O *D sg13g2_inv_1
*CAP
1 *1273:A 0.00027254
2 *1795:A1 8.4526e-05
3 *1272:Y 0.000375937
4 *381:8 0.000733003
5 *1273:A *1273:B 0
6 *1273:A *1144:10 0
7 *1795:A1 *390:8 0
8 *1795:A1 *507:59 0
9 *381:8 *390:8 0
10 *381:8 *507:59 0
11 *381:8 *510:59 0
12 *1795:A2 *1273:A 0
*RES
1 *1272:Y *381:8 43.256 
2 *381:8 *1795:A1 40.7216 
3 *381:8 *1273:A 41.936 
*END

*D_NET *382 0.000423595
*CONN
*I *1274:B1 I *D sg13g2_o21ai_1
*I *1273:Y O *D sg13g2_nand2_1
*CAP
1 *1274:B1 0
2 *1273:Y 0.000211798
3 *382:8 0.000211798
4 *382:8 *1274:A1 0
5 *197:46 *382:8 0
*RES
1 *1273:Y *382:8 41.7776 
2 *382:8 *1274:B1 40 
*END

*D_NET *383 0.00213467
*CONN
*I *1276:A2 I *D sg13g2_a21oi_1
*I *1274:Y O *D sg13g2_o21ai_1
*CAP
1 *1276:A2 0
2 *1274:Y 0.000726567
3 *383:10 0.000726567
4 *383:10 *1274:A1 0
5 *383:10 *1274:A2 0
6 *383:10 *1283:A1 0.000342364
7 *383:10 *1868:RESET_B 0
8 *383:10 *1869:CLK 0.000339175
9 *383:10 *385:18 0
10 *383:10 *390:8 0
11 *383:10 *507:59 0
12 *383:10 *510:10 0
13 *383:10 *510:18 0
14 *154:8 *383:10 0
*RES
1 *1274:Y *383:10 47.0928 
2 *383:10 *1276:A2 40 
*END

*D_NET *384 0.000534559
*CONN
*I *1276:B1 I *D sg13g2_a21oi_1
*I *1275:Y O *D sg13g2_nor2_1
*CAP
1 *1276:B1 5.99691e-05
2 *1275:Y 0.00020731
3 *384:8 0.000267279
4 *384:8 *510:10 0
5 *384:8 *913:66 0
6 *384:8 *913:77 0
*RES
1 *1275:Y *384:8 41.3552 
2 *384:8 *1276:B1 40.4576 
*END

*D_NET *385 0.00900376
*CONN
*I *1278:A I *D sg13g2_nor2_2
*I *1555:B I *D sg13g2_nand2_1
*I *1276:Y O *D sg13g2_a21oi_1
*CAP
1 *1278:A 0.00030592
2 *1555:B 0.000575005
3 *1276:Y 0.000107763
4 *385:24 0.00263324
5 *385:18 0.00286202
6 *385:8 0.00121747
7 *1278:A *386:10 0
8 *1278:A *387:10 1.11656e-05
9 *1555:B *1730:A0 0
10 *1555:B *1730:A1 0
11 *1555:B *1786:A1 0.000176405
12 *1555:B *387:36 0
13 *1555:B *717:16 0.000203204
14 *1555:B *718:84 0
15 *1555:B *1106:61 0
16 *385:8 *386:10 0
17 *385:18 *1868:RESET_B 0
18 *385:18 *387:36 0
19 *385:18 *392:10 0.000533375
20 *385:18 *507:59 0
21 *385:18 *913:77 0
22 *385:18 *936:59 0
23 *385:18 *1147:91 0
24 *385:24 *1785:B 0
25 *385:24 *1785:A 0
26 *385:24 *2056:RESET_B 0
27 *385:24 *2056:D 0
28 *385:24 *2057:RESET_B 4.77863e-05
29 *385:24 *2063:RESET_B 0
30 *385:24 *2063:CLK 0
31 *385:24 *517:16 0
32 *385:24 *831:32 0
33 *385:24 *833:38 0
34 *385:24 *878:10 0
35 *385:24 *883:12 0
36 *385:24 *936:44 0
37 *385:24 *936:59 0
38 *1762:A *385:24 0
39 *1774:A1 *385:24 0
40 *1776:A1 *385:24 0
41 *1779:A *385:24 0
42 *1785:C *385:24 0
43 *1853:A *385:24 0
44 *1853:B *385:18 4.79124e-05
45 *1853:B *385:24 0
46 *150:8 *385:24 0.000234678
47 *263:23 *385:24 0
48 *263:31 *385:24 4.78195e-05
49 *267:38 *385:24 0
50 *383:10 *385:18 0
*RES
1 *1276:Y *385:8 20.968 
2 *385:8 *385:18 47.6824 
3 *385:18 *385:24 36.5704 
4 *385:24 *1555:B 44.873 
5 *385:8 *1278:A 22.651 
*END

*D_NET *386 0.00264342
*CONN
*I *1284:B I *D sg13g2_nor2_2
*I *1278:B I *D sg13g2_nor2_2
*I *1277:Y O *D sg13g2_nand2_2
*CAP
1 *1284:B 0.000136434
2 *1278:B 3.54905e-05
3 *1277:Y 0.000661916
4 *386:10 0.00083384
5 *1284:B *1284:A 0
6 *1284:B *1285:C 0
7 *1284:B *387:36 0.000159511
8 *1284:B *392:10 0.000104258
9 *1284:B *392:16 0.000128247
10 *386:10 *1295:B 0
11 *386:10 *387:12 0.00012816
12 *386:10 *387:36 0.000181192
13 *386:10 *1147:6 0.000274375
14 *1275:A *386:10 0
15 *1278:A *386:10 0
16 *385:8 *386:10 0
*RES
1 *1277:Y *386:10 46.2216 
2 *386:10 *1278:B 40.2728 
3 *386:10 *1284:B 41.628 
*END

*D_NET *387 0.014759
*CONN
*I *1496:A I *D sg13g2_inv_1
*I *1568:A1 I *D sg13g2_a21oi_1
*I *1563:A1 I *D sg13g2_a21oi_1
*I *1481:A I *D sg13g2_nor2_1
*I *1285:B I *D sg13g2_nor3_1
*I *1293:A I *D sg13g2_nand3_1
*I *1278:Y O *D sg13g2_nor2_2
*CAP
1 *1496:A 2.36489e-05
2 *1568:A1 0
3 *1563:A1 0
4 *1481:A 0
5 *1285:B 0
6 *1293:A 0.000113805
7 *1278:Y 8.25993e-05
8 *387:74 0.000295825
9 *387:55 0.000295825
10 *387:53 0.00113626
11 *387:49 0.00140092
12 *387:43 0.000535722
13 *387:36 0.00228965
14 *387:12 0.000399128
15 *387:10 0.00241017
16 *1293:A *403:12 0
17 *387:10 *392:16 0
18 *387:10 *1147:6 0
19 *387:12 *1285:C 0
20 *387:36 *1284:A 8.00842e-05
21 *387:36 *1285:C 0
22 *387:36 *1679:B 0.000144562
23 *387:36 *1786:A1 0.00030598
24 *387:36 *2057:D 0
25 *387:36 *2063:RESET_B 0
26 *387:36 *2063:D 0.000274644
27 *387:36 *392:16 0.00176401
28 *387:36 *392:24 0
29 *387:36 *392:41 0
30 *387:36 *393:27 0
31 *387:36 *517:16 0
32 *387:36 *887:12 0
33 *387:36 *897:27 0
34 *387:43 *392:41 0
35 *387:43 *393:42 0.000176321
36 *387:43 *393:55 1.54008e-05
37 *387:43 *717:16 0
38 *387:49 *717:16 0.000231371
39 *387:49 *830:31 0
40 *387:49 *832:46 0
41 *387:53 *393:59 0
42 *387:53 *717:20 0
43 *387:53 *717:50 0
44 *387:53 *718:72 0
45 *387:53 *729:14 0.000805731
46 *387:74 *1564:B1 0.000390854
47 *387:74 *1564:A2 0
48 *387:74 *1568:B1 0
49 *387:74 *569:33 8.01938e-05
50 *387:74 *570:16 1.54449e-05
51 *387:74 *571:18 0
52 *387:74 *573:20 1.02309e-05
53 *387:74 *1106:88 0
54 *387:74 *1123:71 0
55 *1278:A *387:10 1.11656e-05
56 *1284:B *387:36 0.000159511
57 *1555:B *387:36 0
58 *1853:A *387:36 0.000564836
59 *213:10 *387:36 0.000209043
60 *267:12 *387:36 0.000194307
61 *267:14 *387:36 3.24022e-05
62 *385:18 *387:36 0
63 *386:10 *387:12 0.00012816
64 *386:10 *387:36 0.000181192
*RES
1 *1278:Y *387:10 40.7568 
2 *387:10 *387:12 2.4112 
3 *387:12 *1293:A 40.9328 
4 *387:12 *1285:B 40 
5 *387:10 *387:36 39.8528 
6 *387:36 *1481:A 20 
7 *387:36 *387:43 1.936 
8 *387:43 *387:49 42.4112 
9 *387:49 *387:53 30.0672 
10 *387:53 *387:55 20 
11 *387:55 *1563:A1 20 
12 *387:55 *387:74 42.6884 
13 *387:74 *1568:A1 20 
14 *387:43 *1496:A 20.2992 
*END

*D_NET *388 0.00250245
*CONN
*I *1650:A1 I *D sg13g2_a21oi_1
*I *1281:A2 I *D sg13g2_a21oi_1
*I *1279:Y O *D sg13g2_inv_1
*CAP
1 *1650:A1 0.000194208
2 *1281:A2 0.000276261
3 *1279:Y 0.00039586
4 *388:10 0.000866329
5 *1281:A2 *1281:A1 7.99037e-05
6 *1281:A2 *510:59 0
7 *388:10 *507:10 0.000177334
8 *388:10 *507:25 0
9 *388:10 *507:59 0
10 *388:10 *510:59 0
11 *1650:A2 *1650:A1 0.000336949
12 *1650:B1 *1650:A1 0
13 *1875:D *1650:A1 0.000175608
*RES
1 *1279:Y *388:10 43.4232 
2 *388:10 *1281:A2 42.024 
3 *388:10 *1650:A1 41.936 
*END

*D_NET *389 0.00158312
*CONN
*I *1281:B1 I *D sg13g2_a21oi_1
*I *1280:Y O *D sg13g2_nor2_1
*CAP
1 *1281:B1 0.000270222
2 *1280:Y 0.00018405
3 *389:10 0.000454272
4 *1281:B1 *1281:A1 0.000240776
5 *1281:B1 *951:55 0
6 *1281:B1 *1144:10 0
7 *1281:B1 *1144:26 0
8 *389:10 *951:55 0.000143231
9 *1650:B1 *389:10 0
10 *197:46 *389:10 0.000290568
*RES
1 *1280:Y *389:10 41.9712 
2 *389:10 *1281:B1 42.6048 
*END

*D_NET *390 0.00266931
*CONN
*I *1282:A I *D sg13g2_inv_1
*I *1281:Y O *D sg13g2_a21oi_1
*CAP
1 *1282:A 0.000163545
2 *1281:Y 0.000415785
3 *390:8 0.00057933
4 *1282:A *1868:RESET_B 0.000242089
5 *1282:A *510:18 0
6 *390:8 *510:10 0.00012816
7 *390:8 *510:59 0.0011404
8 *1795:A1 *390:8 0
9 *381:8 *390:8 0
10 *383:10 *390:8 0
*RES
1 *1281:Y *390:8 44.9456 
2 *390:8 *1282:A 41.3816 
*END

*D_NET *391 0.00115062
*CONN
*I *1283:A2 I *D sg13g2_a21oi_2
*I *1282:Y O *D sg13g2_inv_1
*CAP
1 *1283:A2 0
2 *1282:Y 0.000271296
3 *391:8 0.000271296
4 *391:8 *510:10 0
5 *371:10 *391:8 0.000608025
*RES
1 *1282:Y *391:8 43.256 
2 *391:8 *1283:A2 40 
*END

*D_NET *392 0.0126569
*CONN
*I *1284:A I *D sg13g2_nor2_2
*I *1548:A I *D sg13g2_nor2_1
*I *1550:A2 I *D sg13g2_a21oi_1
*I *1558:A2 I *D sg13g2_a21oi_1
*I *1534:B_N I *D sg13g2_nor2b_2
*I *1283:Y O *D sg13g2_a21oi_2
*CAP
1 *1284:A 4.7408e-05
2 *1548:A 0
3 *1550:A2 0.000289104
4 *1558:A2 0
5 *1534:B_N 2.77263e-05
6 *1283:Y 0.000712722
7 *392:52 0.000515565
8 *392:41 0.00101985
9 *392:24 0.00200797
10 *392:16 0.00226721
11 *392:10 0.00184049
12 *1550:A2 *1549:B2 0
13 *1550:A2 *1551:B 0.000112426
14 *1550:A2 *517:52 0
15 *1550:A2 *521:61 1.54008e-05
16 *1550:A2 *557:42 0
17 *1550:A2 *558:10 0
18 *1550:A2 *560:10 0
19 *1550:A2 *711:33 0
20 *392:10 *1283:A1 0
21 *392:10 *1868:RESET_B 0
22 *392:10 *876:8 0
23 *392:10 *883:12 0
24 *392:10 *1106:43 0
25 *392:10 *1147:91 0
26 *392:16 *1780:A 0
27 *392:16 *1106:15 0
28 *392:16 *1147:6 0
29 *392:16 *1147:77 0
30 *392:24 *2057:D 0.000242023
31 *392:24 *517:16 0
32 *392:24 *896:10 7.96248e-05
33 *392:41 *393:27 0
34 *392:41 *393:42 0
35 *392:41 *393:55 0
36 *392:41 *517:40 0.000515114
37 *392:41 *517:52 4.77425e-05
38 *392:41 *521:61 0
39 *392:41 *567:14 0.000129283
40 *392:41 *567:18 0
41 *392:41 *830:31 0
42 *392:52 *517:52 0.000177224
43 *392:52 *521:61 0
44 *392:52 *557:42 0
45 *1284:B *1284:A 0
46 *1284:B *392:10 0.000104258
47 *1284:B *392:16 0.000128247
48 *1780:C *392:16 0
49 *213:10 *392:24 0
50 *385:18 *392:10 0.000533375
51 *387:10 *392:16 0
52 *387:36 *1284:A 8.00842e-05
53 *387:36 *392:16 0.00176401
54 *387:36 *392:24 0
55 *387:36 *392:41 0
56 *387:43 *392:41 0
*RES
1 *1283:Y *392:10 46.8288 
2 *392:10 *392:16 30.5776 
3 *392:16 *392:24 49.0464 
4 *392:24 *1534:B_N 20.2992 
5 *392:24 *392:41 46.864 
6 *392:41 *1558:A2 20 
7 *392:41 *392:52 2.1648 
8 *392:52 *1550:A2 22.5344 
9 *392:52 *1548:A 20 
10 *392:10 *1284:A 40.4576 
*END

*D_NET *393 0.00964078
*CONN
*I *1563:B1 I *D sg13g2_a21oi_1
*I *1568:B1 I *D sg13g2_a21oi_1
*I *1555:A I *D sg13g2_nand2_1
*I *1481:B I *D sg13g2_nor2_1
*I *1285:C I *D sg13g2_nor3_1
*I *1284:Y O *D sg13g2_nor2_2
*CAP
1 *1563:B1 0
2 *1568:B1 0.00029951
3 *1555:A 0
4 *1481:B 0
5 *1285:C 0.000557591
6 *1284:Y 0
7 *393:59 0.00128623
8 *393:55 0.00154199
9 *393:42 0.000856239
10 *393:27 0.000334333
11 *393:21 0.00173172
12 *393:6 0.00225594
13 *1285:C *1147:91 0
14 *1568:B1 *1564:B1 0
15 *1568:B1 *573:20 0
16 *1568:B1 *1090:14 0
17 *1568:B1 *1106:88 0
18 *393:42 *1498:A1 0
19 *393:42 *717:16 0.000162195
20 *393:42 *832:46 0.000181192
21 *393:55 *1556:A 0.00024211
22 *393:55 *521:61 0
23 *393:55 *565:8 0
24 *393:55 *717:26 0
25 *393:55 *830:31 0
26 *393:59 *712:28 0
27 *1284:B *1285:C 0
28 *387:12 *1285:C 0
29 *387:36 *1285:C 0
30 *387:36 *393:27 0
31 *387:43 *393:42 0.000176321
32 *387:43 *393:55 1.54008e-05
33 *387:53 *393:59 0
34 *387:74 *1568:B1 0
35 *392:41 *393:27 0
36 *392:41 *393:42 0
37 *392:41 *393:55 0
*RES
1 *1284:Y *393:6 40 
2 *393:6 *1285:C 44.5584 
3 *393:6 *393:21 38.3832 
4 *393:21 *393:27 40.2728 
5 *393:27 *1481:B 20 
6 *393:27 *393:42 42.7456 
7 *393:42 *1555:A 20 
8 *393:42 *393:55 44.3736 
9 *393:55 *393:59 28.404 
10 *393:59 *1568:B1 42.112 
11 *393:59 *1563:B1 40 
*END

*D_NET *394 0.000845253
*CONN
*I *1295:A I *D sg13g2_nor2_2
*I *1285:Y O *D sg13g2_nor3_1
*CAP
1 *1295:A 0.000180385
2 *1285:Y 0.000180385
3 *1295:A *1295:B 0.000209856
4 *1295:A *1147:6 0
5 *1285:A *1295:A 0.000274627
*RES
1 *1285:Y *1295:A 41.8656 
*END

*D_NET *395 0.00166125
*CONN
*I *1287:B I *D sg13g2_nor2_1
*I *1448:A1 I *D sg13g2_a21oi_1
*I *1286:Y O *D sg13g2_inv_1
*CAP
1 *1287:B 0
2 *1448:A1 0.000381291
3 *1286:Y 0.00036092
4 *395:10 0.000742211
5 *1448:A1 *401:12 0
6 *1448:A1 *505:44 0
7 *1448:A1 *1120:10 0
8 *1448:A1 *1120:12 0
9 *1448:A1 *1120:20 0
10 *395:10 *401:12 0
11 *395:10 *844:58 0
12 *395:10 *1095:37 0
13 *395:10 *1095:65 0
14 *395:10 *1120:8 0.000176824
15 *395:10 *1120:10 0
*RES
1 *1286:Y *395:10 43.3968 
2 *395:10 *1448:A1 43.6784 
3 *395:10 *1287:B 40 
*END

*D_NET *396 0.00109989
*CONN
*I *1288:A I *D sg13g2_nand3_1
*I *1292:B1 I *D sg13g2_a21oi_1
*I *1287:Y O *D sg13g2_nor2_1
*CAP
1 *1288:A 0.000208238
2 *1292:B1 0
3 *1287:Y 0.000189074
4 *396:8 0.000397312
5 *1288:A *1287:A 4.78192e-05
6 *1288:A *1288:B 4.78524e-05
7 *1288:A *721:42 0
8 *1288:A *1046:40 0
9 *1288:A *1048:10 0
10 *396:8 *1287:A 0
11 *396:8 *1046:27 0.000209593
*RES
1 *1287:Y *396:8 21.6808 
2 *396:8 *1292:B1 20 
3 *396:8 *1288:A 21.8656 
*END

*D_NET *397 0.000421947
*CONN
*I *1290:A I *D sg13g2_nand2_1
*I *1288:Y O *D sg13g2_nand3_1
*CAP
1 *1290:A 5.55945e-05
2 *1288:Y 0.000155379
3 *397:8 0.000210974
4 *1290:A *1290:B 0
5 *1290:A *1095:53 0
6 *397:8 *398:8 0
7 *397:8 *399:12 0
8 *397:8 *721:16 0
*RES
1 *1288:Y *397:8 41.3552 
2 *397:8 *1290:A 40.4576 
*END

*D_NET *398 0.000896624
*CONN
*I *1290:B I *D sg13g2_nand2_1
*I *1289:Y O *D sg13g2_nand4_1
*CAP
1 *1290:B 0.000153121
2 *1289:Y 0.000136349
3 *398:8 0.000289469
4 *1290:B *844:58 0.000242055
5 *1290:B *1095:53 0
6 *398:8 *1289:A 7.56299e-05
7 *1290:A *1290:B 0
8 *397:8 *398:8 0
*RES
1 *1289:Y *398:8 41.144 
2 *398:8 *1290:B 41.3816 
*END

*D_NET *399 0.00727736
*CONN
*I *1294:A1 I *D sg13g2_o21ai_1
*I *1290:Y O *D sg13g2_nand2_1
*CAP
1 *1294:A1 0
2 *1290:Y 0
3 *399:12 0.00264342
4 *399:6 0.00264342
5 *399:12 *1756:A 0
6 *399:12 *2074:RESET_B 0.000586256
7 *399:12 *401:12 0
8 *399:12 *404:36 0
9 *399:12 *721:16 0
10 *399:12 *721:59 0
11 *399:12 *851:12 0
12 *399:12 *851:43 0.000821814
13 *399:12 *869:8 0
14 *399:12 *937:12 0.00034026
15 *399:12 *1106:27 0
16 *399:12 *1117:14 0
17 *399:12 *1117:78 0
18 *399:12 *1143:92 0
19 *256:8 *399:12 0
20 *379:14 *399:12 1.54556e-05
21 *379:25 *399:12 0.000226731
22 *397:8 *399:12 0
*RES
1 *1290:Y *399:6 40 
2 *399:6 *399:12 47.0248 
3 *399:12 *1294:A1 20 
*END

*D_NET *400 0.0173034
*CONN
*I *1662:B I *D sg13g2_nand3_1
*I *1293:B I *D sg13g2_nand3_1
*I *1473:B I *D sg13g2_nor2_2
*I *1823:A I *D sg13g2_nand2_1
*I *1376:B I *D sg13g2_nand2b_1
*I *1639:B1 I *D sg13g2_a21oi_1
*I *1382:B I *D sg13g2_nor2_1
*I *1291:Y O *D sg13g2_inv_4
*CAP
1 *1662:B 0.00235196
2 *1293:B 0
3 *1473:B 0
4 *1823:A 0
5 *1376:B 0
6 *1639:B1 0.000322798
7 *1382:B 0
8 *1291:Y 0.000650187
9 *400:80 0.0028157
10 *400:71 7.45193e-05
11 *400:65 0.000807107
12 *400:28 0.00130441
13 *400:22 0.00292599
14 *400:14 0.00154329
15 *400:8 0.000625857
16 *1639:B1 *1020:27 0
17 *1662:B *1662:A 0
18 *1662:B *2064:D 0
19 *1662:B *401:12 1.54556e-05
20 *1662:B *725:16 0
21 *1662:B *834:12 0.000693823
22 *1662:B *897:8 0
23 *1662:B *1100:64 0.000922891
24 *400:8 *913:54 0
25 *400:8 *1088:6 0
26 *400:14 *1376:A_N 0.000103517
27 *400:14 *468:10 8.03692e-05
28 *400:14 *1088:6 1.54556e-05
29 *400:22 *1376:A_N 1.54556e-05
30 *400:22 *913:10 0
31 *400:22 *1085:8 4.77699e-05
32 *400:28 *1835:A1 0.00018184
33 *400:28 *466:16 0
34 *400:28 *471:10 0
35 *400:28 *1080:21 0.000128247
36 *400:28 *1089:12 0.000213887
37 *400:28 *1141:25 0
38 *400:65 *404:10 0
39 *400:65 *913:66 0
40 *400:71 *913:66 0.000234311
41 *400:80 *1294:B1 8.01789e-05
42 *400:80 *401:12 0
43 *1246:A1 *400:22 0.000144867
44 *1247:A *400:22 4.77425e-05
45 *1252:A *400:22 0
46 *1271:B *400:22 0
47 *1285:A *400:80 0
48 *1381:B *400:28 0
49 *1834:B *400:28 0
50 *1994:D *1662:B 0.000242181
51 *174:8 *400:28 0
52 *189:8 *1639:B1 0
53 *194:20 *1639:B1 0
54 *194:20 *400:28 0
55 *306:8 *400:28 0
56 *354:19 *1639:B1 0.000181192
57 *361:10 *400:28 0
58 *361:36 *400:22 0
59 *361:49 *400:22 0
60 *379:10 *400:65 1.54008e-05
61 *379:14 *400:65 0
62 *379:14 *400:80 0
63 *379:25 *1662:B 0
64 *380:10 *400:8 0.000469105
65 *380:10 *400:14 0
66 *380:10 *400:22 0
67 *380:10 *400:65 4.78853e-05
68 *380:20 *400:65 0
*RES
1 *1291:Y *400:8 23.344 
2 *400:8 *400:14 2.1648 
3 *400:14 *400:22 30.6392 
4 *400:22 *400:28 31.9768 
5 *400:28 *1382:B 20 
6 *400:22 *1639:B1 42.8952 
7 *400:14 *1376:B 20 
8 *400:8 *1823:A 20 
9 *1291:Y *400:65 22.3496 
10 *400:65 *400:71 40.9328 
11 *400:71 *1473:B 20 
12 *400:65 *400:80 3.7136 
13 *400:80 *1293:B 20 
14 *400:80 *1662:B 39.8176 
*END

*D_NET *401 0.006124
*CONN
*I *1293:C I *D sg13g2_nand3_1
*I *1292:Y O *D sg13g2_a21oi_1
*CAP
1 *1293:C 0
2 *1292:Y 0
3 *401:12 0.00298228
4 *401:6 0.00298228
5 *401:12 *1265:A1 0
6 *401:12 *1294:B1 1.54008e-05
7 *401:12 *1862:CLK 0
8 *401:12 *2094:A 0
9 *401:12 *403:12 0.000128576
10 *401:12 *404:30 0
11 *401:12 *475:66 0
12 *401:12 *721:8 0
13 *401:12 *721:16 0
14 *401:12 *872:8 0
15 *401:12 *1079:10 0
16 *401:12 *1079:58 0
17 *401:12 *1095:33 0
18 *401:12 *1100:20 0
19 *401:12 *1143:84 0
20 *401:12 *1143:92 0
21 *1448:A1 *401:12 0
22 *1662:B *401:12 1.54556e-05
23 *167:10 *401:12 0
24 *255:10 *401:12 0
25 *395:10 *401:12 0
26 *399:12 *401:12 0
27 *400:80 *401:12 0
*RES
1 *1292:Y *401:6 40 
2 *401:6 *401:12 48.6088 
3 *401:12 *1293:C 20 
*END

*D_NET *402 0.000882793
*CONN
*I *1294:B1 I *D sg13g2_o21ai_1
*I *1293:Y O *D sg13g2_nand3_1
*CAP
1 *1294:B1 0.000257059
2 *1293:Y 0.000257059
3 *1294:B1 *403:12 8.03256e-05
4 *379:14 *1294:B1 0.000177314
5 *379:25 *1294:B1 1.54556e-05
6 *400:80 *1294:B1 8.01789e-05
7 *401:12 *1294:B1 1.54008e-05
*RES
1 *1293:Y *1294:B1 42.4024 
*END

*D_NET *403 0.00129815
*CONN
*I *1295:B I *D sg13g2_nor2_2
*I *1294:Y O *D sg13g2_o21ai_1
*CAP
1 *1295:B 0.000146783
2 *1294:Y 0.000292915
3 *403:12 0.000439698
4 *1295:B *1147:6 0
5 *403:12 *404:30 0
6 *1293:A *403:12 0
7 *1294:B1 *403:12 8.03256e-05
8 *1295:A *1295:B 0.000209856
9 *386:10 *1295:B 0
10 *401:12 *403:12 0.000128576
*RES
1 *1294:Y *403:12 42.6928 
2 *403:12 *1295:B 41.496 
*END

*D_NET *404 0.00932324
*CONN
*I *1662:A I *D sg13g2_nand3_1
*I *1296:B I *D sg13g2_nand2b_1
*I *1825:A2 I *D sg13g2_o21ai_1
*I *1378:A2 I *D sg13g2_o21ai_1
*I *1295:Y O *D sg13g2_nor2_2
*CAP
1 *1662:A 0.00048079
2 *1296:B 0
3 *1825:A2 0
4 *1378:A2 0.000177984
5 *1295:Y 0
6 *404:38 0.00048079
7 *404:36 0.00222616
8 *404:30 0.00254619
9 *404:10 0.000903354
10 *404:4 0.0010454
11 *1378:A2 *1824:B 0
12 *1378:A2 *1861:RESET_B 0
13 *1378:A2 *1990:RESET_B 0
14 *1662:A *834:37 0
15 *404:10 *510:10 8.03253e-05
16 *404:30 *1265:A1 7.51285e-05
17 *404:30 *913:66 0
18 *404:36 *1699:A0 0
19 *404:36 *1699:A1 0
20 *404:36 *2060:RESET_B 0
21 *404:36 *405:8 0
22 *404:36 *833:38 0.000501045
23 *404:36 *936:8 0
24 *404:36 *1115:18 0
25 *404:36 *1147:21 0
26 *404:36 *1147:31 0
27 *404:36 *1147:35 0
28 *1275:A *404:10 0
29 *1285:A *404:10 0.000209505
30 *1662:B *1662:A 0
31 *1994:D *1662:A 0.000242056
32 *363:29 *404:10 0.000144768
33 *379:14 *404:36 0
34 *379:25 *404:36 0
35 *380:10 *1378:A2 0
36 *380:10 *404:10 0
37 *380:20 *404:10 0.000209752
38 *399:12 *404:36 0
39 *400:65 *404:10 0
40 *401:12 *404:30 0
41 *403:12 *404:30 0
*RES
1 *1295:Y *404:4 20 
2 *404:4 *404:10 6.7584 
3 *404:10 *1378:A2 21.5664 
4 *404:10 *1825:A2 20 
5 *404:4 *404:30 43.2648 
6 *404:30 *404:36 38.524 
7 *404:36 *404:38 20 
8 *404:38 *1296:B 20 
9 *404:38 *1662:A 23.7136 
*END

*D_NET *405 0.00369699
*CONN
*I *1841:A I *D sg13g2_nand2_1
*I *1842:A1 I *D sg13g2_o21ai_1
*I *2260:A I *D sg13g2_buf_1
*I *1296:Y O *D sg13g2_nand2b_1
*CAP
1 *1841:A 5.56078e-05
2 *1842:A1 4.91223e-05
3 *2260:A 0.000242853
4 *1296:Y 0.00048803
5 *405:10 0.000480863
6 *405:8 0.000732525
7 *1841:A *2027:RESET_B 8.0194e-05
8 *1842:A1 *1115:44 0
9 *2260:A *1991:CLK 0
10 *2260:A *833:23 0
11 *2260:A *1115:31 0
12 *2260:A *1115:44 0
13 *405:8 *1841:B 0.00106939
14 *405:8 *833:23 0
15 *405:8 *833:38 0
16 *405:8 *834:37 0.000289113
17 *405:10 *1841:B 0.000129089
18 *1721:B *2260:A 0
19 *310:14 *1842:A1 8.0194e-05
20 *404:36 *405:8 0
*RES
1 *1296:Y *405:8 45.368 
2 *405:8 *405:10 1.5664 
3 *405:10 *2260:A 41.9976 
4 *405:10 *1842:A1 40.4576 
5 *405:8 *1841:A 40.4576 
*END

*D_NET *408 0.00334797
*CONN
*I *1302:A2 I *D sg13g2_a21oi_1
*I *1434:A1 I *D sg13g2_a21oi_1
*I *1300:Y O *D sg13g2_inv_1
*CAP
1 *1302:A2 0
2 *1434:A1 0.00110458
3 *1300:Y 8.49804e-05
4 *408:8 0.00118956
5 *1434:A1 *1434:B1 0
6 *1434:A1 *1467:A1 0
7 *1434:A1 *1665:A0 0
8 *1434:A1 *1941:RESET_B 0.000274364
9 *1434:A1 *2303:A 0
10 *1434:A1 *458:8 0
11 *1434:A1 *582:72 0.00034112
12 *1434:A1 *611:10 0
13 *1434:A1 *920:73 0
14 *1434:A1 *920:88 0.000176753
15 *1434:A1 *1066:10 0
16 *408:8 *1665:A0 0
17 *40:10 *1434:A1 0.000176625
18 *285:10 *1434:A1 0
19 *285:10 *408:8 0
*RES
1 *1300:Y *408:8 40.7216 
2 *408:8 *1434:A1 49.416 
3 *408:8 *1302:A2 40 
*END

*D_NET *409 0.000239022
*CONN
*I *1302:B1 I *D sg13g2_a21oi_1
*I *1301:Y O *D sg13g2_nor2_1
*CAP
1 *1302:B1 0.000111811
2 *1301:Y 0.000111811
3 *1302:B1 *1301:B 1.54008e-05
*RES
1 *1301:Y *1302:B1 41.056 
*END

*D_NET *410 0.0051663
*CONN
*I *1668:A I *D sg13g2_nor2_1
*I *1303:A0 I *D sg13g2_mux2_1
*I *1302:Y O *D sg13g2_a21oi_1
*CAP
1 *1668:A 0.000348474
2 *1303:A0 0
3 *1302:Y 0.000177727
4 *410:16 0.00137651
5 *410:8 0.00190271
6 *1668:A *1665:A0 0.000179911
7 *1668:A *722:23 0
8 *1668:A *727:20 0
9 *410:8 *1665:A0 0.000532395
10 *410:8 *458:8 7.52149e-05
11 *410:16 *1304:A 9.08521e-05
12 *410:16 *1359:A 0
13 *410:16 *411:6 0.000241116
14 *410:16 *455:25 0
15 *410:16 *722:10 0
16 *410:16 *722:23 0
17 *410:16 *727:20 0
18 *1664:S *410:16 0
19 *1715:A1 *410:16 0.000241395
20 *2021:D *410:16 0
21 *2037:D *410:16 0
22 *205:22 *410:16 0
*RES
1 *1302:Y *410:8 42.4112 
2 *410:8 *410:16 32.1704 
3 *410:16 *1303:A0 20 
4 *410:8 *1668:A 43.1416 
*END

*D_NET *411 0.00288276
*CONN
*I *1306:A2 I *D sg13g2_a21oi_1
*I *1436:A1 I *D sg13g2_a21oi_1
*I *1304:Y O *D sg13g2_inv_1
*CAP
1 *1306:A2 0
2 *1436:A1 0
3 *1304:Y 0.000165566
4 *411:12 0.000700208
5 *411:6 0.000865774
6 *411:6 *582:48 4.77425e-05
7 *411:6 *727:20 0
8 *411:12 *1435:A 0.000181279
9 *411:12 *1468:A0 0.000212127
10 *411:12 *1664:A0 0
11 *411:12 *453:8 0
12 *411:12 *582:48 0.000393736
13 *411:12 *920:57 7.52149e-05
14 *411:12 *1055:23 0
15 *67:8 *411:12 0
16 *410:16 *411:6 0.000241116
*RES
1 *1304:Y *411:6 21.3816 
2 *411:6 *411:12 46.0016 
3 *411:12 *1436:A1 20 
4 *411:6 *1306:A2 20 
*END

*D_NET *412 0.000234974
*CONN
*I *1306:B1 I *D sg13g2_a21oi_1
*I *1305:Y O *D sg13g2_nor2_1
*CAP
1 *1306:B1 0.000117487
2 *1305:Y 0.000117487
3 *1306:B1 *1305:B 0
4 *1306:B1 *582:40 0
5 *1306:B1 *727:20 0
*RES
1 *1305:Y *1306:B1 41.056 
*END

*D_NET *413 0.00849351
*CONN
*I *1670:A I *D sg13g2_nor2_1
*I *1307:A0 I *D sg13g2_mux2_1
*I *1306:Y O *D sg13g2_a21oi_1
*CAP
1 *1670:A 0
2 *1307:A0 0.00144057
3 *1306:Y 0.000784266
4 *413:35 0.000303919
5 *413:10 0.00174449
6 *413:8 0.000784266
7 *1307:A0 *1307:A1 4.77425e-05
8 *1307:A0 *1369:A 0.00105157
9 *1307:A0 *1564:A2 0
10 *1307:A0 *1837:B 0
11 *1307:A0 *2112:A 0.000566185
12 *1307:A0 *463:29 6.46963e-05
13 *1307:A0 *712:22 0
14 *1307:A0 *835:6 0
15 *1307:A0 *1123:55 7.02827e-05
16 *413:8 *1664:A0 0.000606662
17 *413:8 *463:14 0
18 *413:8 *582:48 0.00012816
19 *413:8 *702:16 0
20 *413:35 *463:29 8.02598e-05
21 *413:35 *702:16 0.000144767
22 *413:35 *702:25 0.000126773
23 *413:35 *712:22 0
24 *413:35 *1122:55 0
25 *1851:A0 *1307:A0 0
26 *2020:RESET_B *1307:A0 0
27 *205:28 *413:8 0.000501155
28 *285:14 *1307:A0 0
29 *285:14 *413:35 4.77425e-05
*RES
1 *1306:Y *413:8 47.2688 
2 *413:8 *413:10 20 
3 *413:10 *1307:A0 33.376 
4 *413:10 *413:35 42.7456 
5 *413:35 *1670:A 20 
*END

*D_NET *414 0.00308213
*CONN
*I *1309:A I *D sg13g2_nand2_1
*I *1405:A1 I *D sg13g2_a21oi_1
*I *1308:Y O *D sg13g2_inv_1
*CAP
1 *1309:A 0.000167857
2 *1405:A1 0.000336761
3 *1308:Y 0.000200652
4 *414:8 0.00070527
5 *1309:A *1310:B1 0.00024217
6 *1309:A *580:23 0
7 *1309:A *580:34 0
8 *1405:A1 *1848:A2 0
9 *1405:A1 *728:14 0.00119387
10 *414:8 *728:14 0.000235556
*RES
1 *1308:Y *414:8 41.9888 
2 *414:8 *1405:A1 44.7344 
3 *414:8 *1309:A 41.5664 
*END

*D_NET *415 0.00127048
*CONN
*I *1310:B1 I *D sg13g2_o21ai_1
*I *1309:Y O *D sg13g2_nand2_1
*CAP
1 *1310:B1 0.000376897
2 *1309:Y 0.000376897
3 *1310:B1 *2087:A 0
4 *1310:B1 *580:34 0.000274512
5 *1310:B1 *580:54 0
6 *1309:A *1310:B1 0.00024217
*RES
1 *1309:Y *1310:B1 43.2296 
*END

*D_NET *416 0.00141267
*CONN
*I *1312:A2 I *D sg13g2_o21ai_1
*I *1310:Y O *D sg13g2_o21ai_1
*CAP
1 *1312:A2 0
2 *1310:Y 0.000389721
3 *416:10 0.000389721
4 *416:10 *1844:A1 0.00016065
5 *416:10 *901:12 0.000130012
6 *312:10 *416:10 0.000342565
7 *313:10 *416:10 0
*RES
1 *1310:Y *416:10 44.3736 
2 *416:10 *1312:A2 40 
*END

*D_NET *417 0.00040283
*CONN
*I *1312:B1 I *D sg13g2_o21ai_1
*I *1311:Y O *D sg13g2_nand2_1
*CAP
1 *1312:B1 0.000137106
2 *1311:Y 0.000137106
3 *1312:B1 *1311:A 0
4 *1312:B1 *1124:62 0.000128618
5 *1312:B1 *1124:71 0
6 *1846:B1 *1312:B1 0
*RES
1 *1311:Y *1312:B1 41.3904 
*END

*D_NET *418 0.00329005
*CONN
*I *1314:A I *D sg13g2_nand2_1
*I *1407:A1 I *D sg13g2_a21oi_1
*I *1313:Y O *D sg13g2_inv_1
*CAP
1 *1314:A 0.00045919
2 *1407:A1 0.000360415
3 *1313:Y 0
4 *418:6 0.000819605
5 *1314:A *1314:B 0
6 *1314:A *1315:B1 0.000274452
7 *1314:A *1324:A 0
8 *1314:A *911:14 0
9 *1407:A1 *1414:A1 0.00130118
10 *1407:A1 *911:14 0
11 *1407:A1 *942:23 7.52149e-05
*RES
1 *1313:Y *418:6 40 
2 *418:6 *1407:A1 45.1568 
3 *418:6 *1314:A 44.0128 
*END

*D_NET *419 0.000989624
*CONN
*I *1315:B1 I *D sg13g2_o21ai_1
*I *1314:Y O *D sg13g2_nand2_1
*CAP
1 *1315:B1 0.000349858
2 *1314:Y 0.000349858
3 *1315:B1 *1314:B 0
4 *1315:B1 *902:8 1.54556e-05
5 *1315:B1 *911:14 0
6 *1315:B1 *1033:31 0
7 *1314:A *1315:B1 0.000274452
*RES
1 *1314:Y *1315:B1 43.388 
*END

*D_NET *420 0.000543326
*CONN
*I *1317:A2 I *D sg13g2_o21ai_1
*I *1315:Y O *D sg13g2_o21ai_1
*CAP
1 *1317:A2 0.000263997
2 *1315:Y 0.000263997
3 *1317:A2 *1130:46 1.53311e-05
*RES
1 *1315:Y *1317:A2 42.6576 
*END

*D_NET *421 0.000642312
*CONN
*I *1317:B1 I *D sg13g2_o21ai_1
*I *1316:Y O *D sg13g2_nand2_1
*CAP
1 *1317:B1 0
2 *1316:Y 5.99641e-05
3 *421:8 5.99641e-05
4 *421:8 *1130:46 0.000287514
5 *5:8 *421:8 0.000234869
*RES
1 *1316:Y *421:8 41.144 
2 *421:8 *1317:B1 40 
*END

*D_NET *422 0.0028985
*CONN
*I *1319:A I *D sg13g2_nand2_1
*I *1409:A1 I *D sg13g2_a21oi_1
*I *1318:Y O *D sg13g2_inv_1
*CAP
1 *1319:A 0.0003391
2 *1409:A1 0.000602152
3 *1318:Y 0.000143362
4 *422:8 0.00108461
5 *1319:A *1329:A 0
6 *1319:A *902:16 0.000182023
7 *1319:A *902:23 1.54008e-05
8 *1319:A *902:34 0.000151511
9 *1319:A *902:42 0
10 *1319:A *902:53 0
11 *1319:A *1029:23 0
12 *1409:A1 *1320:A2 0
13 *1409:A1 *911:97 0
14 *1409:A1 *1029:23 0
15 *422:8 *1318:A 0.000145113
16 *422:8 *902:8 0
17 *422:8 *902:16 0
18 *422:8 *1113:22 0
19 *29:8 *1409:A1 0.000235228
*RES
1 *1318:Y *422:8 41.3816 
2 *422:8 *1409:A1 46.424 
3 *422:8 *1319:A 43.0976 
*END

*D_NET *423 0.000397374
*CONN
*I *1320:B1 I *D sg13g2_o21ai_1
*I *1319:Y O *D sg13g2_nand2_1
*CAP
1 *1320:B1 0
2 *1319:Y 0.000108091
3 *423:8 0.000108091
4 *423:8 *1320:A2 0
5 *423:8 *902:42 0.000181192
*RES
1 *1319:Y *423:8 41.144 
2 *423:8 *1320:B1 40 
*END

*D_NET *424 0.000424159
*CONN
*I *1322:A2 I *D sg13g2_o21ai_1
*I *1320:Y O *D sg13g2_o21ai_1
*CAP
1 *1322:A2 0.000212079
2 *1320:Y 0.000212079
3 *1322:A2 *1321:A 0
*RES
1 *1320:Y *1322:A2 42.024 
*END

*D_NET *425 0.000358336
*CONN
*I *1322:B1 I *D sg13g2_o21ai_1
*I *1321:Y O *D sg13g2_nand2_1
*CAP
1 *1322:B1 0
2 *1321:Y 8.74873e-05
3 *425:8 8.74873e-05
4 *425:8 *827:58 0
5 *6:8 *425:8 0.000183362
*RES
1 *1321:Y *425:8 40.9328 
2 *425:8 *1322:B1 40 
*END

*D_NET *426 0.00456984
*CONN
*I *1324:A I *D sg13g2_nand2_1
*I *1414:A1 I *D sg13g2_a21oi_1
*I *1323:Y O *D sg13g2_inv_1
*CAP
1 *1324:A 0.000103333
2 *1414:A1 0.000381662
3 *1323:Y 0.00020119
4 *426:8 0.000686185
5 *1324:A *1324:B 0
6 *1324:A *427:10 1.54008e-05
7 *1324:A *901:26 4.78195e-05
8 *1324:A *1030:25 0.000212871
9 *1414:A1 *486:8 0
10 *1414:A1 *942:23 0
11 *1414:A1 *1030:25 0.0016202
12 *426:8 *1324:B 0
13 *426:8 *2088:A 0
14 *426:8 *1113:28 0
15 *1314:A *1324:A 0
16 *1407:A1 *1414:A1 0.00130118
*RES
1 *1323:Y *426:8 41.5664 
2 *426:8 *1414:A1 46.6968 
3 *426:8 *1324:A 41.2056 
*END

*D_NET *427 0.000606812
*CONN
*I *1325:B1 I *D sg13g2_o21ai_1
*I *1324:Y O *D sg13g2_nand2_1
*CAP
1 *1325:B1 0
2 *1324:Y 0.000295706
3 *427:10 0.000295706
4 *427:10 *1313:A 0
5 *427:10 *1843:A 0
6 *427:10 *901:26 0
7 *427:10 *1033:31 0
8 *427:10 *1113:28 0
9 *1324:A *427:10 1.54008e-05
*RES
1 *1324:Y *427:10 42.3144 
2 *427:10 *1325:B1 40 
*END

*D_NET *428 0.0011714
*CONN
*I *1327:A2 I *D sg13g2_o21ai_1
*I *1325:Y O *D sg13g2_o21ai_1
*CAP
1 *1327:A2 3.50004e-05
2 *1325:Y 0.000425679
3 *428:8 0.000460679
4 *1327:A2 *1124:86 1.54008e-05
5 *428:8 *1326:B 0
6 *428:8 *429:8 0.00023464
7 *428:8 *1033:31 0
8 *5:8 *428:8 0
*RES
1 *1325:Y *428:8 44.312 
2 *428:8 *1327:A2 40.2728 
*END

*D_NET *429 0.000430404
*CONN
*I *1327:B1 I *D sg13g2_o21ai_1
*I *1326:Y O *D sg13g2_nand2_1
*CAP
1 *1327:B1 0
2 *1326:Y 9.78821e-05
3 *429:8 9.78821e-05
4 *429:8 *1326:B 0
5 *428:8 *429:8 0.00023464
*RES
1 *1326:Y *429:8 41.144 
2 *429:8 *1327:B1 40 
*END

*D_NET *430 0.00245649
*CONN
*I *1329:A I *D sg13g2_nand2_1
*I *1416:A1 I *D sg13g2_a21oi_1
*I *1328:Y O *D sg13g2_inv_1
*CAP
1 *1329:A 0.000313202
2 *1416:A1 0.000792579
3 *1328:Y 0
4 *430:6 0.00110578
5 *1329:A *1320:A2 0
6 *1329:A *902:16 1.54008e-05
7 *1329:A *902:42 4.77425e-05
8 *1329:A *1113:22 0
9 *1416:A1 *1320:A2 0
10 *1416:A1 *1975:RESET_B 0
11 *1416:A1 *720:12 0
12 *1319:A *1329:A 0
13 *32:8 *1416:A1 0.000181781
*RES
1 *1328:Y *430:6 40 
2 *430:6 *1416:A1 46.6352 
3 *430:6 *1329:A 42.5872 
*END

*D_NET *431 0.000551025
*CONN
*I *1330:B1 I *D sg13g2_o21ai_1
*I *1329:Y O *D sg13g2_nand2_1
*CAP
1 *1330:B1 4.63178e-05
2 *1329:Y 9.80269e-05
3 *431:8 0.000144345
4 *1330:B1 *1029:23 8.02269e-05
5 *431:8 *902:16 0.000182109
6 *431:8 *1029:23 0
*RES
1 *1329:Y *431:8 41.144 
2 *431:8 *1330:B1 40.4576 
*END

*D_NET *432 0.000762823
*CONN
*I *1332:A2 I *D sg13g2_o21ai_1
*I *1330:Y O *D sg13g2_o21ai_1
*CAP
1 *1332:A2 0
2 *1330:Y 0.000381411
3 *432:8 0.000381411
4 *432:8 *721:90 0
5 *432:8 *1098:57 0
*RES
1 *1330:Y *432:8 43.8896 
2 *432:8 *1332:A2 40 
*END

*D_NET *433 0.000465404
*CONN
*I *1332:B1 I *D sg13g2_o21ai_1
*I *1331:Y O *D sg13g2_nand2_1
*CAP
1 *1332:B1 0.000201103
2 *1331:Y 0.000201103
3 *1332:B1 *1331:A 4.77425e-05
4 *1332:B1 *2032:RESET_B 0
5 *1332:B1 *1130:57 0
6 *2029:D *1332:B1 1.54556e-05
*RES
1 *1331:Y *1332:B1 41.7688 
*END

*D_NET *434 0.00335669
*CONN
*I *1334:A I *D sg13g2_nand2_1
*I *1418:A1 I *D sg13g2_a21oi_1
*I *1333:Y O *D sg13g2_inv_1
*CAP
1 *1334:A 0
2 *1418:A1 0
3 *1333:Y 0.000197847
4 *434:14 0.000397412
5 *434:8 0.000595259
6 *434:8 *1334:B 0
7 *434:8 *902:53 0
8 *434:14 *1335:A2 0
9 *434:14 *1975:CLK 0.000555408
10 *434:14 *435:8 0.000181608
11 *434:14 *915:12 0
12 *434:14 *919:48 0.000929035
13 *434:14 *919:54 0.000500123
*RES
1 *1333:Y *434:8 21.7072 
2 *434:8 *434:14 45.7904 
3 *434:14 *1418:A1 20 
4 *434:8 *1334:A 20 
*END

*D_NET *435 0.000436756
*CONN
*I *1335:B1 I *D sg13g2_o21ai_1
*I *1334:Y O *D sg13g2_nand2_1
*CAP
1 *1335:B1 7.01753e-05
2 *1334:Y 4.96984e-05
3 *435:8 0.000119874
4 *1335:B1 *1335:A2 1.54008e-05
5 *435:8 *915:12 0
6 *434:14 *435:8 0.000181608
*RES
1 *1334:Y *435:8 40.7216 
2 *435:8 *1335:B1 40.572 
*END

*D_NET *436 0.00542637
*CONN
*I *1337:A2 I *D sg13g2_o21ai_1
*I *1335:Y O *D sg13g2_o21ai_1
*CAP
1 *1337:A2 0
2 *1335:Y 0
3 *436:12 0.00167641
4 *436:6 0.00167641
5 *436:12 *1337:B1 8.02379e-05
6 *436:12 *1337:A1 4.77863e-05
7 *436:12 *1432:A2 0.00026599
8 *436:12 *1969:CLK 0
9 *436:12 *2303:A 0
10 *436:12 *582:10 0
11 *436:12 *827:12 0
12 *436:12 *919:54 0.000771565
13 *436:12 *919:67 0.000907969
14 *436:12 *1113:77 0
15 *1432:A1 *436:12 0
*RES
1 *1335:Y *436:6 40 
2 *436:6 *436:12 34.7488 
3 *436:12 *1337:A2 20 
*END

*D_NET *437 0.00199764
*CONN
*I *1337:B1 I *D sg13g2_o21ai_1
*I *1336:Y O *D sg13g2_nand2_1
*CAP
1 *1337:B1 4.28222e-05
2 *1336:Y 0.000161239
3 *437:10 0.000204061
4 *1337:B1 *2303:A 8.0128e-05
5 *437:10 *1337:A1 0.000714784
6 *437:10 *1113:77 0.000714369
7 *437:10 *1125:16 0
8 *436:12 *1337:B1 8.02379e-05
*RES
1 *1336:Y *437:10 43.1328 
2 *437:10 *1337:B1 40.4576 
*END

*D_NET *438 0.00176929
*CONN
*I *1339:A I *D sg13g2_nand2_1
*I *1396:A1 I *D sg13g2_a21oi_1
*I *1338:Y O *D sg13g2_inv_1
*CAP
1 *1339:A 0.000198947
2 *1396:A1 0
3 *1338:Y 0.000170213
4 *438:12 0.000515483
5 *438:6 0.000884643
6 *1339:A *1338:A 0
7 *1339:A *1340:B1 0
8 *1339:A *844:107 0
9 *438:12 *1340:A2 0
10 *438:12 *2122:A 0
11 *438:12 *579:62 0
12 *438:12 *925:92 0
13 *1772:S *1339:A 0
14 *1772:S *438:6 0
*RES
1 *1338:Y *438:6 21.3816 
2 *438:6 *438:12 45.368 
3 *438:12 *1396:A1 20 
4 *438:6 *1339:A 21.8656 
*END

*D_NET *439 0.000339077
*CONN
*I *1340:B1 I *D sg13g2_o21ai_1
*I *1339:Y O *D sg13g2_nand2_1
*CAP
1 *1340:B1 0.000129392
2 *1339:Y 0.000129392
3 *1340:B1 *1340:A2 8.02924e-05
4 *1340:B1 *579:62 0
5 *1339:A *1340:B1 0
*RES
1 *1339:Y *1340:B1 41.3904 
*END

*D_NET *440 0.0014124
*CONN
*I *1342:A2 I *D sg13g2_o21ai_1
*I *1340:Y O *D sg13g2_o21ai_1
*CAP
1 *1342:A2 0
2 *1340:Y 0.000604305
3 *440:8 0.000604305
4 *440:8 *1342:A1 7.51285e-05
5 *440:8 *1575:A 0
6 *440:8 *579:62 0.000128662
7 *440:8 *875:16 0
*RES
1 *1340:Y *440:8 46.424 
2 *440:8 *1342:A2 40 
*END

*D_NET *441 0.00109489
*CONN
*I *1342:B1 I *D sg13g2_o21ai_1
*I *1341:Y O *D sg13g2_nand2_1
*CAP
1 *1342:B1 3.18563e-05
2 *1341:Y 0.000470001
3 *441:8 0.000501857
4 *1342:B1 *2047:RESET_B 0
5 *1342:B1 *721:70 0
6 *441:8 *1341:B 7.57164e-05
7 *441:8 *1342:A1 0
8 *441:8 *1991:CLK 0
9 *441:8 *875:16 0
10 *441:8 *1128:24 0
11 *2026:D *1342:B1 1.54556e-05
12 *147:8 *441:8 0
*RES
1 *1341:Y *441:8 43.8896 
2 *441:8 *1342:B1 40.2728 
*END

*D_NET *442 0.0021106
*CONN
*I *1344:A I *D sg13g2_nand2_1
*I *1398:A1 I *D sg13g2_a21oi_1
*I *1343:Y O *D sg13g2_inv_1
*CAP
1 *1344:A 0
2 *1398:A1 0.000605203
3 *1343:Y 0.00026848
4 *442:8 0.000873684
5 *1398:A1 *443:10 0
6 *1398:A1 *910:48 0
7 *1398:A1 *919:8 0
8 *1398:A1 *939:57 7.52149e-05
9 *1398:A1 *1038:25 0
10 *442:8 *443:10 0
11 *442:8 *444:8 0.000288016
12 *442:8 *910:48 0
13 *316:10 *442:8 0
*RES
1 *1343:Y *442:8 42.2 
2 *442:8 *1398:A1 44.7344 
3 *442:8 *1344:A 40 
*END

*D_NET *443 0.00101017
*CONN
*I *1345:B1 I *D sg13g2_o21ai_1
*I *1344:Y O *D sg13g2_nand2_1
*CAP
1 *1345:B1 4.96871e-05
2 *1344:Y 0.000250204
3 *443:10 0.000299891
4 *1345:B1 *1038:25 8.00842e-05
5 *443:10 *1344:B 8.0216e-05
6 *443:10 *1575:A 0
7 *443:10 *580:17 1.54446e-05
8 *443:10 *1038:25 0.00023464
9 *443:10 *1098:8 0
10 *1398:A1 *443:10 0
11 *442:8 *443:10 0
*RES
1 *1344:Y *443:10 42.156 
2 *443:10 *1345:B1 40.4576 
*END

*D_NET *444 0.00129634
*CONN
*I *1347:A2 I *D sg13g2_o21ai_1
*I *1345:Y O *D sg13g2_o21ai_1
*CAP
1 *1347:A2 3.15209e-05
2 *1345:Y 0.00045723
3 *444:8 0.000488751
4 *1347:A2 *1347:B1 1.54118e-05
5 *1347:A2 *1128:39 1.54118e-05
6 *444:8 *910:48 0
7 *316:10 *444:8 0
8 *317:8 *444:8 0
9 *442:8 *444:8 0.000288016
*RES
1 *1345:Y *444:8 44.5232 
2 *444:8 *1347:A2 40.2728 
*END

*D_NET *445 0.000364392
*CONN
*I *1347:B1 I *D sg13g2_o21ai_1
*I *1346:Y O *D sg13g2_nand2_1
*CAP
1 *1347:B1 0.00016679
2 *1346:Y 0.00016679
3 *1347:B1 *1346:A 0
4 *1347:B1 *1346:B 0
5 *1347:B1 *2047:CLK 0
6 *1347:B1 *721:70 1.54008e-05
7 *1347:B1 *1119:60 0
8 *1347:B1 *1128:39 0
9 *1347:A2 *1347:B1 1.54118e-05
*RES
1 *1346:Y *1347:B1 41.5752 
*END

*D_NET *446 0.0018744
*CONN
*I *1349:A I *D sg13g2_nand2_1
*I *1400:A1 I *D sg13g2_a21oi_1
*I *1348:Y O *D sg13g2_inv_1
*CAP
1 *1349:A 0
2 *1400:A1 0
3 *1348:Y 0.000173128
4 *446:14 0.000646754
5 *446:8 0.000819881
6 *446:8 *1350:A2 0
7 *446:8 *1575:A 0
8 *446:8 *579:52 0
9 *446:14 *1340:A2 0
10 *446:14 *1350:A2 0
11 *446:14 *1450:A1 0
12 *446:14 *1575:A 0
13 *446:14 *447:8 0.00023464
14 *446:14 *579:28 0
15 *446:14 *579:39 0
16 *446:14 *939:8 0
17 *446:14 *939:12 0
*RES
1 *1348:Y *446:8 21.496 
2 *446:8 *446:14 46.0016 
3 *446:14 *1400:A1 20 
4 *446:8 *1349:A 20 
*END

*D_NET *447 0.000624903
*CONN
*I *1350:B1 I *D sg13g2_o21ai_1
*I *1349:Y O *D sg13g2_nand2_1
*CAP
1 *1350:B1 2.98611e-05
2 *1349:Y 5.015e-05
3 *447:8 8.00111e-05
4 *1350:B1 *1350:A2 4.7803e-05
5 *447:8 *448:12 0.000182438
6 *446:14 *447:8 0.00023464
*RES
1 *1349:Y *447:8 40.9328 
2 *447:8 *1350:B1 40.2728 
*END

*D_NET *448 0.003174
*CONN
*I *1352:A2 I *D sg13g2_o21ai_1
*I *1350:Y O *D sg13g2_o21ai_1
*CAP
1 *1352:A2 0
2 *1350:Y 0
3 *448:12 0.00148038
4 *448:6 0.00148038
5 *448:12 *1342:A1 0
6 *448:12 *1352:B1 1.54008e-05
7 *448:12 *1352:A1 1.54008e-05
8 *448:12 *1575:A 0
9 *448:12 *1674:S 0
10 *448:12 *904:8 0
11 *448:12 *910:37 0
12 *447:8 *448:12 0.000182438
*RES
1 *1350:Y *448:6 40 
2 *448:6 *448:12 33.8512 
3 *448:12 *1352:A2 20 
*END

*D_NET *449 0.000642582
*CONN
*I *1352:B1 I *D sg13g2_o21ai_1
*I *1351:Y O *D sg13g2_nand2_1
*CAP
1 *1352:B1 3.4548e-05
2 *1351:Y 4.41525e-05
3 *449:8 7.87005e-05
4 *1352:B1 *1352:A1 0
5 *449:8 *910:37 0.00023464
6 *449:8 *1128:16 0.000235141
7 *448:12 *1352:B1 1.54008e-05
*RES
1 *1351:Y *449:8 40.9328 
2 *449:8 *1352:B1 40.2728 
*END

*D_NET *450 0.0017258
*CONN
*I *1358:A1 I *D sg13g2_a21oi_1
*I *1733:A I *D sg13g2_nor2_1
*I *1353:Y O *D sg13g2_inv_1
*CAP
1 *1358:A1 0
2 *1733:A 0.00034604
3 *1353:Y 0.000217842
4 *450:10 0.00034604
5 *450:8 0.000217842
6 *1733:A *1358:B1 0
7 *1733:A *1123:27 0.00059803
8 *450:8 *1099:12 0
9 *1299:A0 *1733:A 0
*RES
1 *1353:Y *450:8 41.7776 
2 *450:8 *450:10 20 
3 *450:10 *1733:A 23.4144 
4 *450:10 *1358:A1 20 
*END

*D_NET *451 0.00153759
*CONN
*I *1356:A2 I *D sg13g2_a21oi_1
*I *1423:A1 I *D sg13g2_a21oi_1
*I *1354:Y O *D sg13g2_inv_1
*CAP
1 *1356:A2 0.00014189
2 *1423:A1 0.000295548
3 *1354:Y 0
4 *451:6 0.000437438
5 *1356:A2 *1355:B 0
6 *1356:A2 *1462:A1 0
7 *1356:A2 *453:8 0
8 *1356:A2 *721:110 0
9 *1356:A2 *1056:8 0
10 *1356:A2 *1113:50 0
11 *1423:A1 *1462:A1 0
12 *1423:A1 *2098:A 0.000662717
13 *1423:A1 *1056:8 0
*RES
1 *1354:Y *451:6 40 
2 *451:6 *1423:A1 43.6784 
3 *451:6 *1356:A2 41.3552 
*END

*D_NET *452 0.000332846
*CONN
*I *1356:B1 I *D sg13g2_a21oi_1
*I *1355:Y O *D sg13g2_nor2_1
*CAP
1 *1356:B1 0.000166423
2 *1355:Y 0.000166423
3 *1356:B1 *907:21 0
4 *1356:B1 *1026:8 0
*RES
1 *1355:Y *1356:B1 41.496 
*END

*D_NET *453 0.0118308
*CONN
*I *1664:A0 I *D sg13g2_mux2_1
*I *1357:A I *D sg13g2_nor2_1
*I *1356:Y O *D sg13g2_a21oi_1
*CAP
1 *1664:A0 0.000390325
2 *1357:A 4.21229e-05
3 *1356:Y 0
4 *453:16 0.000874313
5 *453:8 0.00260812
6 *453:6 0.00138561
7 *1357:A *1238:A 0
8 *1357:A *2303:A 0
9 *1664:A0 *463:14 0.00112256
10 *1664:A0 *582:48 0
11 *1664:A0 *722:10 0
12 *453:8 *1435:A 0
13 *453:8 *463:14 0.00206052
14 *453:8 *721:110 0.000875167
15 *453:8 *920:21 0
16 *453:8 *920:30 0
17 *453:8 *920:39 0
18 *453:8 *920:57 0
19 *453:8 *1056:8 0
20 *453:8 *1113:16 0
21 *453:16 *1967:CLK 0
22 *453:16 *582:25 0
23 *453:16 *582:40 0
24 *453:16 *612:12 0
25 *453:16 *1170:12 0
26 *453:16 *1170:18 0.00101877
27 *1299:A0 *1357:A 8.02924e-05
28 *1356:A2 *453:8 0
29 *1664:S *1664:A0 0
30 *67:8 *453:8 0.000766377
31 *205:22 *1664:A0 0
32 *349:27 *453:16 0
33 *411:12 *1664:A0 0
34 *411:12 *453:8 0
35 *413:8 *1664:A0 0.000606662
*RES
1 *1356:Y *453:6 40 
2 *453:6 *453:8 17.8288 
3 *453:8 *453:16 46.7496 
4 *453:16 *1357:A 40.4576 
5 *453:8 *1664:A0 45.1656 
*END

*D_NET *454 0.00337025
*CONN
*I *1358:B1 I *D sg13g2_a21oi_1
*I *1357:Y O *D sg13g2_nor2_1
*CAP
1 *1358:B1 0.00109814
2 *1357:Y 0.00109814
3 *1358:B1 *1336:B 0.000334266
4 *1358:B1 *1113:109 0
5 *1358:B1 *1123:36 0
6 *1358:B1 *1123:83 0
7 *1358:B1 *1125:16 0.000112514
8 *1299:A0 *1358:B1 0.000727197
9 *1733:A *1358:B1 0
*RES
1 *1357:Y *1358:B1 49.9 
*END

*D_NET *455 0.0018944
*CONN
*I *1716:A I *D sg13g2_nor2_1
*I *1364:A1 I *D sg13g2_a21oi_1
*I *1359:Y O *D sg13g2_inv_1
*CAP
1 *1716:A 0
2 *1364:A1 0
3 *1359:Y 0.000128429
4 *455:25 0.000280287
5 *455:12 0.000313461
6 *455:8 0.000161603
7 *455:8 *1359:A 7.51169e-05
8 *455:8 *1125:29 7.51285e-05
9 *455:8 *1125:38 0.000319011
10 *455:12 *727:20 4.78028e-05
11 *455:25 *727:20 0.00025892
12 *455:25 *1113:109 0.00023464
13 *14:10 *455:8 0
14 *349:27 *455:25 0
15 *410:16 *455:25 0
*RES
1 *1359:Y *455:8 41.5664 
2 *455:8 *455:12 20.2728 
3 *455:12 *1364:A1 20 
4 *455:12 *455:25 42.4992 
5 *455:25 *1716:A 20 
*END

*D_NET *456 0.000890835
*CONN
*I *1362:A2 I *D sg13g2_a21oi_1
*I *1425:A1 I *D sg13g2_a21oi_1
*I *1360:Y O *D sg13g2_inv_1
*CAP
1 *1362:A2 0
2 *1425:A1 0.00013402
3 *1360:Y 0
4 *456:21 0.000216128
5 *456:4 0.000350148
6 *1425:A1 *1425:A2 1.53311e-05
7 *1425:A1 *714:30 7.97219e-05
8 *456:21 *900:12 1.54008e-05
9 *456:21 *900:21 8.00842e-05
*RES
1 *1360:Y *456:4 20 
2 *456:4 *1425:A1 21.3904 
3 *456:4 *456:21 41.6016 
4 *456:21 *1362:A2 20 
*END

*D_NET *457 0.000421572
*CONN
*I *1362:B1 I *D sg13g2_a21oi_1
*I *1361:Y O *D sg13g2_nor2_1
*CAP
1 *1362:B1 0.000210786
2 *1361:Y 0.000210786
3 *1362:B1 *714:30 0
4 *1362:B1 *900:21 0
*RES
1 *1361:Y *1362:B1 41.7072 
*END

*D_NET *458 0.00839203
*CONN
*I *1665:A0 I *D sg13g2_mux2_1
*I *1363:A I *D sg13g2_nor2_1
*I *1362:Y O *D sg13g2_a21oi_1
*CAP
1 *1665:A0 0.000412567
2 *1363:A 0
3 *1362:Y 0
4 *458:16 0.00109106
5 *458:8 0.00292284
6 *458:6 0.00141922
7 *1665:A0 *582:72 7.51285e-05
8 *1665:A0 *722:23 0
9 *1665:A0 *1122:14 0
10 *1665:A0 *1122:20 0
11 *458:8 *1467:A1 0
12 *458:8 *1971:RESET_B 0
13 *458:8 *2223:A 0
14 *458:8 *582:72 0.000288172
15 *458:8 *714:62 0
16 *458:8 *920:30 0
17 *458:8 *920:39 0
18 *458:8 *920:47 0
19 *458:8 *1054:10 0
20 *458:16 *582:40 0.000371113
21 *458:16 *582:64 0.000550614
22 *458:16 *727:20 0
23 *458:16 *909:60 0
24 *458:16 *1113:109 0.000241979
25 *458:16 *1170:18 0
26 *1434:A1 *1665:A0 0
27 *1434:A1 *458:8 0
28 *1668:A *1665:A0 0.000179911
29 *1716:B *458:16 0
30 *1717:B *458:16 0.000231812
31 *37:8 *458:8 0
32 *285:10 *1665:A0 0
33 *285:10 *458:8 0
34 *408:8 *1665:A0 0
35 *410:8 *1665:A0 0.000532395
36 *410:8 *458:8 7.52149e-05
*RES
1 *1362:Y *458:6 40 
2 *458:6 *458:8 12.9712 
3 *458:8 *458:16 30.0848 
4 *458:16 *1363:A 20 
5 *458:8 *1665:A0 44.3472 
*END

*D_NET *459 0.000444233
*CONN
*I *1364:B1 I *D sg13g2_a21oi_1
*I *1363:Y O *D sg13g2_nor2_1
*CAP
1 *1364:B1 2.60565e-05
2 *1363:Y 8.42371e-05
3 *459:10 0.000110294
4 *1364:B1 *727:20 4.77425e-05
5 *459:10 *1125:20 2.20966e-05
6 *459:10 *1125:29 0.000106064
7 *459:10 *1170:12 0
8 *1716:B *1364:B1 4.77425e-05
*RES
1 *1363:Y *459:10 40.7832 
2 *459:10 *1364:B1 40.2728 
*END

*D_NET *460 0.00427012
*CONN
*I *1370:A1 I *D sg13g2_a21oi_1
*I *1708:A I *D sg13g2_nor2_1
*I *1365:Y O *D sg13g2_inv_1
*CAP
1 *1370:A1 0
2 *1708:A 0.000908972
3 *1365:Y 0.000423271
4 *460:8 0.00133224
5 *1708:A *1369:B 0.000497229
6 *1708:A *1564:A2 0
7 *1708:A *569:25 0
8 *1708:A *710:10 0
9 *1708:A *712:22 0
10 *1708:A *827:31 0.000144768
11 *1708:A *835:6 0
12 *1708:A *1125:42 0.00065789
13 *1708:A *1125:59 7.48178e-05
14 *460:8 *1838:A2 0.000179389
15 *460:8 *1998:CLK 0
16 *460:8 *2020:CLK 0
17 *460:8 *710:10 0
18 *460:8 *839:29 0
19 *460:8 *1125:59 5.15366e-05
20 *15:8 *1708:A 0
21 *224:14 *1708:A 0
*RES
1 *1365:Y *460:8 43.8896 
2 *460:8 *1708:A 48.096 
3 *460:8 *1370:A1 40 
*END

*D_NET *461 0.00104832
*CONN
*I *1427:A1 I *D sg13g2_a21oi_1
*I *1368:A2 I *D sg13g2_a21oi_1
*I *1366:Y O *D sg13g2_inv_1
*CAP
1 *1427:A1 0
2 *1368:A2 0.000158398
3 *1366:Y 0.000196053
4 *461:8 0.000354452
5 *1368:A2 *1368:A1 0.000274594
6 *461:8 *1366:A 0
7 *461:8 *1368:A1 6.48261e-05
*RES
1 *1366:Y *461:8 22.024 
2 *461:8 *1368:A2 21.5664 
3 *461:8 *1427:A1 20 
*END

*D_NET *462 0.00117268
*CONN
*I *1368:B1 I *D sg13g2_a21oi_1
*I *1367:Y O *D sg13g2_nor2_1
*CAP
1 *1368:B1 0.000586339
2 *1367:Y 0.000586339
3 *1368:B1 *1368:A1 0
4 *1368:B1 *1426:A 0
5 *1368:B1 *714:62 0
*RES
1 *1367:Y *1368:B1 44.8224 
*END

*D_NET *463 0.00972813
*CONN
*I *1666:A0 I *D sg13g2_mux2_1
*I *1369:A I *D sg13g2_nor2_1
*I *1368:Y O *D sg13g2_a21oi_1
*CAP
1 *1666:A0 0
2 *1369:A 0.000631441
3 *1368:Y 7.50336e-05
4 *463:29 0.000288924
5 *463:14 0.00251059
6 *463:10 0.00166526
7 *463:10 *714:62 0
8 *463:29 *702:25 0
9 *1307:A0 *1369:A 0.00105157
10 *1307:A0 *463:29 6.46963e-05
11 *1664:A0 *463:14 0.00112256
12 *2020:D *1369:A 0.000177273
13 *285:14 *1369:A 0
14 *285:14 *463:29 0
15 *413:8 *463:14 0
16 *413:35 *463:29 8.02598e-05
17 *453:8 *463:14 0.00206052
*RES
1 *1368:Y *463:10 40.572 
2 *463:10 *463:14 37.6176 
3 *463:14 *1369:A 26.0016 
4 *463:14 *463:29 42.3936 
5 *463:29 *1666:A0 20 
*END

*D_NET *464 0.000527551
*CONN
*I *1370:B1 I *D sg13g2_a21oi_1
*I *1369:Y O *D sg13g2_nor2_1
*CAP
1 *1370:B1 4.66635e-05
2 *1369:Y 2.4952e-05
3 *464:8 7.16155e-05
4 *1370:B1 *1837:B 4.77425e-05
5 *464:8 *839:29 0.000128247
6 *464:8 *1125:42 0.000128247
7 *285:14 *1370:B1 8.00842e-05
*RES
1 *1369:Y *464:8 40.5104 
2 *464:8 *1370:B1 40.4576 
*END

*D_NET *465 0.00114747
*CONN
*I *1829:B I *D sg13g2_nand2_1
*I *1372:B I *D sg13g2_nand2_1
*I *1371:Y O *D sg13g2_inv_1
*CAP
1 *1829:B 0.000245068
2 *1372:B 0
3 *1371:Y 4.10515e-05
4 *465:12 0.000275056
5 *465:8 7.10395e-05
6 *1829:B *2198:A 0.000323867
7 *465:8 *653:8 0
8 *465:12 *2198:A 4.77425e-05
9 *465:12 *688:12 1.54008e-05
10 *1832:B1 *1829:B 0
11 *172:10 *465:8 0.000128247
12 *357:6 *1829:B 0
13 *357:22 *1829:B 0
*RES
1 *1371:Y *465:8 40.5104 
2 *465:8 *465:12 20.2728 
3 *465:12 *1372:B 20 
4 *465:12 *1829:B 22.2352 
*END

*D_NET *466 0.00391506
*CONN
*I *1374:A I *D sg13g2_xnor2_1
*I *1826:B I *D sg13g2_xnor2_1
*I *1373:Y O *D sg13g2_nand2_1
*CAP
1 *1374:A 0.000138491
2 *1826:B 0
3 *1373:Y 0.000751054
4 *466:16 0.000442376
5 *466:8 0.00133192
6 *1374:A *652:16 0.000220279
7 *1374:A *1100:83 0
8 *466:8 *652:16 0.000501442
9 *466:8 *658:31 0
10 *466:8 *658:56 0
11 *466:8 *1086:14 0
12 *466:8 *1100:83 0.000144561
13 *466:16 *1086:14 7.96263e-05
14 *466:16 *1100:83 0.000112683
15 *466:16 *1187:16 0
16 *1374:B *1374:A 8.02598e-05
17 *2019:D *466:8 0
18 *16:14 *466:16 0.000112365
19 *400:28 *466:16 0
*RES
1 *1373:Y *466:8 26.1688 
2 *466:8 *466:16 43.608 
3 *466:16 *1826:B 20 
4 *466:8 *1374:A 21.3376 
*END

*D_NET *467 0.00601659
*CONN
*I *1831:C I *D sg13g2_nor3_1
*I *1375:B I *D sg13g2_xnor2_1
*I *1827:C I *D sg13g2_nor3_1
*I *1374:Y O *D sg13g2_xnor2_1
*CAP
1 *1831:C 0
2 *1375:B 0.000375888
3 *1827:C 0.000147826
4 *1374:Y 0.000349908
5 *467:27 0.00107527
6 *467:10 0.00119712
7 *1375:B *1375:A 7.33225e-05
8 *1375:B *1831:A 4.77425e-05
9 *1375:B *2198:A 0
10 *1375:B *658:18 0
11 *1375:B *688:12 0
12 *1375:B *1193:8 0
13 *1827:C *658:56 0.000237686
14 *1827:C *1141:25 0.000560645
15 *467:10 *793:17 0.000533635
16 *467:10 *1141:25 0.000107739
17 *467:27 *2005:RESET_B 0
18 *467:27 *2159:A 0
19 *467:27 *652:16 0.000727959
20 *467:27 *658:18 0
21 *467:27 *793:17 0
22 *467:27 *1097:63 0
23 *467:27 *1185:8 0.000341206
24 *2019:RESET_B *467:10 0.000144866
25 *2019:RESET_B *467:27 1.54008e-05
26 *16:14 *1375:B 8.03692e-05
*RES
1 *1374:Y *467:10 43.5552 
2 *467:10 *1827:C 42.2 
3 *467:10 *467:27 46.6704 
4 *467:27 *1375:B 43.168 
5 *467:27 *1831:C 40 
*END

*D_NET *468 0.000679271
*CONN
*I *1378:A1 I *D sg13g2_o21ai_1
*I *1377:A I *D sg13g2_nand2_1
*I *1376:Y O *D sg13g2_nand2b_1
*CAP
1 *1378:A1 4.72978e-05
2 *1377:A 0
3 *1376:Y 0.000174208
4 *468:12 4.72978e-05
5 *468:10 0.000174208
6 *468:10 *469:10 7.56308e-05
7 *468:10 *1112:49 0
8 *468:10 *1112:60 0
9 *1825:A1 *1378:A1 0
10 *380:10 *468:10 8.02598e-05
11 *400:14 *468:10 8.03692e-05
*RES
1 *1376:Y *468:10 41.6016 
2 *468:10 *468:12 20 
3 *468:12 *1377:A 20 
4 *468:12 *1378:A1 20.5104 
*END

*D_NET *469 0.000343202
*CONN
*I *1378:B1 I *D sg13g2_o21ai_1
*I *1377:Y O *D sg13g2_nand2_1
*CAP
1 *1378:B1 0
2 *1377:Y 0.000133785
3 *469:10 0.000133785
4 *469:10 *1824:B 0
5 *469:10 *1112:60 0
6 *468:10 *469:10 7.56308e-05
*RES
1 *1377:Y *469:10 41.4168 
2 *469:10 *1378:B1 40 
*END

*D_NET *470 0.00115204
*CONN
*I *2325:A I *D sg13g2_dlygate4sd3_1
*I *1379:Y O *D sg13g2_nand2_1
*CAP
1 *2325:A 0.000430908
2 *1379:Y 0.000430908
3 *2325:A *1379:A 4.79124e-05
4 *2325:A *1379:B 0
5 *2325:A *1380:A2 0
6 *2325:A *1380:B1 0.000242313
7 *2325:A *2013:CLK 0
8 *2325:A *691:32 0
9 *1380:A1 *2325:A 0
10 *1821:B *2325:A 0
*RES
1 *1379:Y *2325:A 44.3032 
*END

*D_NET *471 0.00298194
*CONN
*I *1820:B1 I *D sg13g2_a21oi_1
*I *1383:A I *D sg13g2_nor2_1
*I *1381:Y O *D sg13g2_nor2_1
*CAP
1 *1820:B1 2.52343e-05
2 *1383:A 0.000105208
3 *1381:Y 0.00075265
4 *471:10 0.000883092
5 *1383:A *2013:RESET_B 0
6 *1383:A *691:40 0.000234224
7 *1820:B1 *2013:CLK 4.77425e-05
8 *471:10 *472:8 0
9 *471:10 *691:40 0.000159183
10 *471:10 *1080:21 0.000435211
11 *471:10 *1097:21 0
12 *471:10 *1097:38 0
13 *1381:B *471:10 0.000339393
14 *400:28 *471:10 0
*RES
1 *1381:Y *471:10 46.8816 
2 *471:10 *1383:A 41.2056 
3 *471:10 *1820:B1 40.2728 
*END

*D_NET *472 0.00137442
*CONN
*I *1820:A1 I *D sg13g2_a21oi_1
*I *1383:B I *D sg13g2_nor2_1
*I *1382:Y O *D sg13g2_nor2_1
*CAP
1 *1820:A1 3.04198e-05
2 *1383:B 0.000107897
3 *1382:Y 0.000370092
4 *472:8 0.000508409
5 *1383:B *691:40 0.00023464
6 *1820:A1 *2013:CLK 4.77425e-05
7 *472:8 *691:40 7.52158e-05
8 *471:10 *472:8 0
*RES
1 *1382:Y *472:8 43.0448 
2 *472:8 *1383:B 41.2056 
3 *472:8 *1820:A1 40.2728 
*END

*D_NET *473 0.000426309
*CONN
*I *1384:B I *D sg13g2_xnor2_1
*I *1383:Y O *D sg13g2_nor2_1
*CAP
1 *1384:B 0.000213154
2 *1383:Y 0.000213154
3 *1384:B *2013:RESET_B 0
4 *1384:B *2013:CLK 0
*RES
1 *1383:Y *1384:B 41.9184 
*END

*D_NET *474 0.0127146
*CONN
*I *1439:S I *D sg13g2_mux2_1
*I *1818:A2 I *D sg13g2_a21oi_1
*I *1817:B I *D sg13g2_nor2_1
*I *2128:A I *D sg13g2_buf_1
*I *1440:S I *D sg13g2_mux2_1
*I *1438:A2 I *D sg13g2_a21oi_1
*I *1437:B I *D sg13g2_nor2_1
*I *1385:Y O *D sg13g2_nand2_1
*CAP
1 *1439:S 0
2 *1818:A2 0.000160985
3 *1817:B 4.38693e-05
4 *2128:A 0.000358469
5 *1440:S 0
6 *1438:A2 0.000320616
7 *1437:B 0
8 *1385:Y 0.000438723
9 *474:64 0.000795655
10 *474:51 0.0015665
11 *474:42 0.000887616
12 *474:36 0.000612046
13 *474:18 0.00108918
14 *474:12 0.00128857
15 *474:8 0.000617064
16 *1438:A2 *1438:B1 0.00027443
17 *1438:A2 *1469:A0 0.000339344
18 *1438:A2 *1966:RESET_B 8.02927e-05
19 *1817:B *1100:49 4.77425e-05
20 *1818:A2 *1100:43 5.30319e-05
21 *1818:A2 *1100:71 0.000235055
22 *2128:A *2072:RESET_B 0
23 *2128:A *2072:CLK 0
24 *2128:A *721:8 0
25 *2128:A *872:8 0
26 *2128:A *925:12 0.000127744
27 *2128:A *1100:14 0.000607501
28 *474:8 *505:53 0
29 *474:8 *505:64 0
30 *474:8 *1097:120 0
31 *474:12 *1471:S 0
32 *474:12 *650:12 8.02595e-05
33 *474:18 *1242:A1 0
34 *474:18 *1471:A1 0
35 *474:18 *505:64 0
36 *474:18 *652:24 0.00012816
37 *474:18 *1042:10 0
38 *474:18 *1043:8 0
39 *474:36 *1440:A0 0.000583126
40 *474:36 *2085:A 0
41 *474:36 *650:12 1.54008e-05
42 *474:36 *1112:38 0
43 *474:42 *1440:A0 0.000103517
44 *474:51 *2011:RESET_B 0
45 *474:51 *475:27 0
46 *474:51 *713:12 0
47 *474:51 *861:12 0
48 *474:64 *2094:A 0
49 *474:64 *1079:10 0
50 *474:64 *1079:58 0
51 *474:64 *1100:14 0.00111824
52 *474:64 *1100:43 0.000661386
53 *1818:B1 *1817:B 0
54 *1818:B1 *1818:A2 0
55 *1940:D *1817:B 8.0128e-05
56 *1966:D *1438:A2 0
*RES
1 *1385:Y *474:8 43.4672 
2 *474:8 *474:12 21.3816 
3 *474:12 *474:18 46.2128 
4 *474:18 *1437:B 20 
5 *474:18 *1438:A2 23.5376 
6 *474:12 *474:36 3.4144 
7 *474:36 *474:42 2.7984 
8 *474:42 *1440:S 20 
9 *474:42 *474:51 25.632 
10 *474:51 *2128:A 44.1096 
11 *474:51 *474:64 7.0576 
12 *474:64 *1817:B 40.4576 
13 *474:64 *1818:A2 41.6016 
14 *474:36 *1439:S 20 
*END

*D_NET *478 0.00171646
*CONN
*I *1839:A I *D sg13g2_nand2_1
*I *1394:A1 I *D sg13g2_a21oi_1
*I *1392:Y O *D sg13g2_inv_1
*CAP
1 *1839:A 0
2 *1394:A1 0.000497669
3 *1392:Y 0.000176566
4 *478:8 0.000674235
5 *1394:A1 *844:84 0.00018416
6 *310:14 *478:8 0.000183828
*RES
1 *1392:Y *478:8 41.7776 
2 *478:8 *1394:A1 44.1008 
3 *478:8 *1839:A 40 
*END

*D_NET *479 0.00139889
*CONN
*I *1394:B1 I *D sg13g2_a21oi_1
*I *1393:Y O *D sg13g2_nor2_1
*CAP
1 *1394:B1 5.57151e-05
2 *1393:Y 0.00030826
3 *479:8 0.000363975
4 *1394:B1 *1394:A2 0
5 *1394:B1 *1040:8 0
6 *479:8 *844:84 0.000670937
*RES
1 *1393:Y *479:8 43.8896 
2 *479:8 *1394:B1 40.4576 
*END

*D_NET *480 0.000252062
*CONN
*I *1396:B1 I *D sg13g2_a21oi_1
*I *1395:Y O *D sg13g2_nor2_1
*CAP
1 *1396:B1 0.000126031
2 *1395:Y 0.000126031
3 *1396:B1 *1394:A2 0
4 *1396:B1 *1395:B 0
5 *1396:B1 *1396:A2 0
6 *1396:B1 *721:59 0
7 *1985:D *1396:B1 0
*RES
1 *1395:Y *1396:B1 41.3552 
*END

*D_NET *481 0.000198877
*CONN
*I *1398:B1 I *D sg13g2_a21oi_1
*I *1397:Y O *D sg13g2_nor2_1
*CAP
1 *1398:B1 9.94387e-05
2 *1397:Y 9.94387e-05
3 *1398:B1 *2122:A 0
4 *1398:B1 *939:47 0
5 *1398:B1 *939:57 0
*RES
1 *1397:Y *1398:B1 40.968 
*END

*D_NET *482 0.000258961
*CONN
*I *1400:B1 I *D sg13g2_a21oi_1
*I *1399:Y O *D sg13g2_nor2_1
*CAP
1 *1400:B1 0.00012948
2 *1399:Y 0.00012948
3 *1400:B1 *1399:B 0
4 *1400:B1 *939:14 0
*RES
1 *1399:Y *1400:B1 41.2672 
*END

*D_NET *483 0.00244179
*CONN
*I *1847:A I *D sg13g2_nand2_1
*I *1403:A1 I *D sg13g2_a21oi_1
*I *1401:Y O *D sg13g2_inv_1
*CAP
1 *1847:A 0.000369113
2 *1403:A1 0.000384093
3 *1401:Y 0
4 *483:6 0.000753206
5 *1403:A1 *1402:B 7.52149e-05
6 *1403:A1 *1848:A2 0
7 *1403:A1 *939:47 0.000585841
8 *1403:A1 *1038:25 0
9 *1847:A *1344:B 0
10 *1847:A *1848:A2 0
11 *1847:A *580:17 0
12 *1847:A *580:23 0
13 *1847:A *1038:25 0
14 *1848:B1 *1847:A 0.000274321
*RES
1 *1401:Y *483:6 40 
2 *483:6 *1403:A1 44.5232 
3 *483:6 *1847:A 43.5552 
*END

*D_NET *484 0.000233761
*CONN
*I *1403:B1 I *D sg13g2_a21oi_1
*I *1402:Y O *D sg13g2_nor2_1
*CAP
1 *1403:B1 0.00011688
2 *1402:Y 0.00011688
3 *1403:B1 *939:21 0
4 *1982:D *1403:B1 0
*RES
1 *1402:Y *1403:B1 41.1792 
*END

*D_NET *485 0.000228371
*CONN
*I *1405:B1 I *D sg13g2_a21oi_1
*I *1404:Y O *D sg13g2_nor2_1
*CAP
1 *1405:B1 0.000114185
2 *1404:Y 0.000114185
3 *1405:B1 *1405:A2 0
4 *1405:B1 *919:12 0
5 *1405:B1 *919:20 0
*RES
1 *1404:Y *1405:B1 40.968 
*END

*D_NET *486 0.000940116
*CONN
*I *1407:B1 I *D sg13g2_a21oi_1
*I *1406:Y O *D sg13g2_nor2_1
*CAP
1 *1407:B1 4.8586e-05
2 *1406:Y 0.000317295
3 *486:8 0.000365881
4 *1407:B1 *942:23 0
5 *486:8 *1413:A 0
6 *486:8 *2108:A 0
7 *486:8 *941:51 0
8 *486:8 *942:23 0.00012816
9 *486:8 *1030:25 0
10 *486:8 *1114:10 0
11 *1414:A1 *486:8 0
12 *1977:D *1407:B1 8.01938e-05
*RES
1 *1406:Y *486:8 43.0448 
2 *486:8 *1407:B1 40.4576 
*END

*D_NET *487 0.000484236
*CONN
*I *1409:B1 I *D sg13g2_a21oi_1
*I *1408:Y O *D sg13g2_nor2_1
*CAP
1 *1409:B1 0.000242118
2 *1408:Y 0.000242118
3 *1409:B1 *491:10 0
4 *1409:B1 *911:97 0
5 *1409:B1 *942:30 0
*RES
1 *1408:Y *1409:B1 42.4024 
*END

*D_NET *488 0.00241774
*CONN
*I *1843:A I *D sg13g2_nand2_1
*I *1412:A1 I *D sg13g2_a21oi_1
*I *1410:Y O *D sg13g2_inv_1
*CAP
1 *1843:A 0.000221334
2 *1412:A1 0.000539436
3 *1410:Y 0
4 *488:6 0.00076077
5 *1412:A1 *941:24 0.000692735
6 *1412:A1 *941:28 7.52149e-05
7 *1412:A1 *1061:8 0.000128247
8 *427:10 *1843:A 0
*RES
1 *1410:Y *488:6 40 
2 *488:6 *1412:A1 46.6352 
3 *488:6 *1843:A 42.2 
*END

*D_NET *489 0.000249512
*CONN
*I *1412:B1 I *D sg13g2_a21oi_1
*I *1411:Y O *D sg13g2_nor2_1
*CAP
1 *1412:B1 0.000124756
2 *1411:Y 0.000124756
3 *1412:B1 *1411:B 0
4 *1412:B1 *1412:A2 0
5 *1412:B1 *1413:B 0
6 *1412:B1 *941:32 0
*RES
1 *1411:Y *1412:B1 41.1528 
*END

*D_NET *490 0.000333139
*CONN
*I *1414:B1 I *D sg13g2_a21oi_1
*I *1413:Y O *D sg13g2_nor2_1
*CAP
1 *1414:B1 0.000166569
2 *1413:Y 0.000166569
3 *1414:B1 *1413:B 0
4 *1414:B1 *1414:A2 0
*RES
1 *1413:Y *1414:B1 41.6896 
*END

*D_NET *491 0.00146223
*CONN
*I *1416:B1 I *D sg13g2_a21oi_1
*I *1415:Y O *D sg13g2_nor2_1
*CAP
1 *1416:B1 0
2 *1415:Y 0.000442209
3 *491:10 0.000442209
4 *491:10 *1320:A2 0
5 *491:10 *1456:A1 0.000287758
6 *491:10 *720:8 0
7 *491:10 *720:12 0
8 *491:10 *911:97 0.000209966
9 *1409:B1 *491:10 0
10 *1953:CLK *491:10 0
11 *477:30 *491:10 8.00842e-05
*RES
1 *1415:Y *491:10 44.4264 
2 *491:10 *1416:B1 40 
*END

*D_NET *492 0.000316116
*CONN
*I *1418:B1 I *D sg13g2_a21oi_1
*I *1417:Y O *D sg13g2_nor2_1
*CAP
1 *1418:B1 3.77171e-05
2 *1417:Y 0.000120341
3 *492:8 0.000158058
4 *1418:B1 *907:6 0
5 *1418:B1 *907:17 0
6 *1418:B1 *919:35 0
7 *1418:B1 *919:48 0
8 *492:8 *915:12 0
9 *1975:CLK *492:8 0
*RES
1 *1417:Y *492:8 40.9328 
2 *492:8 *1418:B1 40.2728 
*END

*D_NET *493 0.00338753
*CONN
*I *1421:A1 I *D sg13g2_a21oi_1
*I *1791:A2 I *D sg13g2_a21oi_1
*I *1419:Y O *D sg13g2_inv_1
*CAP
1 *1421:A1 0
2 *1791:A2 0
3 *1419:Y 2.5425e-05
4 *493:25 0.000851959
5 *493:12 0.000176509
6 *493:6 0.00105389
7 *493:6 *1419:A 1.54556e-05
8 *493:6 *1424:A 4.77699e-05
9 *493:12 *496:12 0
10 *493:12 *900:38 5.31192e-05
11 *493:12 *900:44 0.000340704
12 *493:25 *1419:A 0.000226698
13 *493:25 *1424:A 0.000339004
14 *493:25 *907:44 7.52149e-05
15 *493:25 *915:72 0
16 *493:25 *1027:27 0
17 *34:8 *493:25 0.000181781
18 *285:10 *493:12 0
19 *477:80 *493:6 0
*RES
1 *1419:Y *493:6 20.2728 
2 *493:6 *493:12 41.9888 
3 *493:12 *1791:A2 20 
4 *493:6 *493:25 47.304 
5 *493:25 *1421:A1 20 
*END

*D_NET *494 0.000251985
*CONN
*I *1421:B1 I *D sg13g2_a21oi_1
*I *1420:Y O *D sg13g2_nor2_1
*CAP
1 *1421:B1 0.000125992
2 *1420:Y 0.000125992
3 *1421:B1 *1421:A2 0
4 *1421:B1 *1461:S 0
*RES
1 *1420:Y *1421:B1 41.1792 
*END

*D_NET *495 0.000962783
*CONN
*I *1423:B1 I *D sg13g2_a21oi_1
*I *1422:Y O *D sg13g2_nor2_1
*CAP
1 *1423:B1 0
2 *1422:Y 0.000272853
3 *495:10 0.000272853
4 *495:10 *1462:A1 0
5 *495:10 *1947:RESET_B 0
6 *495:10 *2098:A 7.51285e-05
7 *495:10 *2217:A 0
8 *495:10 *720:67 0.000341949
*RES
1 *1422:Y *495:10 42.9744 
2 *495:10 *1423:B1 40 
*END

*D_NET *496 0.000982505
*CONN
*I *1425:B1 I *D sg13g2_a21oi_1
*I *1424:Y O *D sg13g2_nor2_1
*CAP
1 *1425:B1 0
2 *1424:Y 0.000491253
3 *496:12 0.000491253
4 *496:12 *1424:B 0
5 *496:12 *1113:50 0
6 *36:8 *496:12 0
7 *285:10 *496:12 0
8 *493:12 *496:12 0
*RES
1 *1424:Y *496:12 44.884 
2 *496:12 *1425:B1 40 
*END

*D_NET *497 0.000566336
*CONN
*I *1427:B1 I *D sg13g2_a21oi_1
*I *1426:Y O *D sg13g2_nor2_1
*CAP
1 *1427:B1 3.34444e-05
2 *1426:Y 9.74408e-05
3 *497:8 0.000130885
4 *1427:B1 *1368:A1 4.77425e-05
5 *497:8 *920:21 7.55443e-05
6 *497:8 *920:30 0.000181279
7 *37:8 *497:8 0
*RES
1 *1426:Y *497:8 40.9328 
2 *497:8 *1427:B1 40.2728 
*END

*D_NET *498 0.00323933
*CONN
*I *1788:A2 I *D sg13g2_a21oi_1
*I *1430:A1 I *D sg13g2_a21oi_1
*I *1428:Y O *D sg13g2_inv_1
*CAP
1 *1788:A2 7.09059e-05
2 *1430:A1 0.000442362
3 *1428:Y 0
4 *498:6 0.000513268
5 *1430:A1 *1787:B 0
6 *1430:A1 *915:12 0.00136452
7 *1788:A2 *915:12 0.000269852
8 *282:8 *1430:A1 0.000448264
9 *282:8 *1788:A2 0.000130162
*RES
1 *1428:Y *498:6 40 
2 *498:6 *1430:A1 45.368 
3 *498:6 *1788:A2 41.144 
*END

*D_NET *499 0.000987897
*CONN
*I *1430:B1 I *D sg13g2_a21oi_1
*I *1429:Y O *D sg13g2_nor2_1
*CAP
1 *1430:B1 6.17055e-05
2 *1429:Y 0.000150901
3 *499:8 0.000212607
4 *1430:B1 *1430:A2 0
5 *1430:B1 *1113:22 0
6 *499:8 *915:12 0.000562684
7 *499:8 *919:48 0
*RES
1 *1429:Y *499:8 42.2 
2 *499:8 *1430:B1 40.4576 
*END

*D_NET *500 0.000254288
*CONN
*I *1432:B1 I *D sg13g2_a21oi_1
*I *1431:Y O *D sg13g2_nor2_1
*CAP
1 *1432:B1 0.000119444
2 *1431:Y 0.000119444
3 *1432:B1 *1432:A2 0
4 *1432:B1 *612:30 0
5 *1969:D *1432:B1 1.54008e-05
*RES
1 *1431:Y *1432:B1 41.1792 
*END

*D_NET *501 0.000551156
*CONN
*I *1434:B1 I *D sg13g2_a21oi_1
*I *1433:Y O *D sg13g2_nor2_1
*CAP
1 *1434:B1 0.000251661
2 *1433:Y 0.000251661
3 *1434:B1 *920:73 0
4 *1434:B1 *920:88 4.78343e-05
5 *1434:A1 *1434:B1 0
6 *40:10 *1434:B1 0
*RES
1 *1433:Y *1434:B1 42.552 
*END

*D_NET *502 0.00040358
*CONN
*I *1436:B1 I *D sg13g2_a21oi_1
*I *1435:Y O *D sg13g2_nor2_1
*CAP
1 *1436:B1 3.04198e-05
2 *1435:Y 5.68598e-05
3 *502:8 8.72796e-05
4 *502:8 *1435:A 0.000181279
5 *502:8 *920:47 0
6 *1941:D *1436:B1 4.77425e-05
*RES
1 *1435:Y *502:8 40.7216 
2 *502:8 *1436:B1 40.2728 
*END

*D_NET *503 0.000870108
*CONN
*I *1438:B1 I *D sg13g2_a21oi_1
*I *1437:Y O *D sg13g2_nor2_1
*CAP
1 *1438:B1 0.000297839
2 *1437:Y 0.000297839
3 *1438:B1 *505:81 0
4 *1438:B1 *1100:83 0
5 *1438:A2 *1438:B1 0.00027443
6 *1966:RESET_B *1438:B1 0
7 *1966:D *1438:B1 0
*RES
1 *1437:Y *1438:B1 42.7192 
*END

*D_NET *504 0.00109081
*CONN
*I *1442:B I *D sg13g2_nand2_1
*I *1822:A I *D sg13g2_xnor2_1
*I *1441:Y O *D sg13g2_inv_1
*CAP
1 *1442:B 0
2 *1822:A 0.000101621
3 *1441:Y 6.48472e-05
4 *504:8 0.000166468
5 *1822:A *1822:B 0.000236395
6 *1822:A *505:18 0
7 *504:8 *1822:B 0.000106333
8 *504:8 *505:53 0.000233542
9 *504:8 *691:51 0.000181601
*RES
1 *1441:Y *504:8 41.144 
2 *504:8 *1822:A 41.144 
3 *504:8 *1442:B 40 
*END

*D_NET *505 0.0157242
*CONN
*I *1816:S I *D sg13g2_mux2_1
*I *1469:S I *D sg13g2_mux2_1
*I *1470:S I *D sg13g2_mux2_1
*I *1471:S I *D sg13g2_mux2_1
*I *2129:A I *D sg13g2_buf_1
*I *1448:A2 I *D sg13g2_a21oi_1
*I *1447:B I *D sg13g2_nor2_1
*I *1442:Y O *D sg13g2_nand2_1
*CAP
1 *1816:S 0
2 *1469:S 0
3 *1470:S 0.000244514
4 *1471:S 0.000246218
5 *2129:A 0
6 *1448:A2 0
7 *1447:B 5.89396e-05
8 *1442:Y 0
9 *505:96 0.000446162
10 *505:81 0.0015401
11 *505:64 0.00164948
12 *505:53 0.00106015
13 *505:44 0.000534023
14 *505:31 0.000791945
15 *505:18 0.0027304
16 *505:6 0.00291643
17 *1447:B *1448:B1 0
18 *1470:S *1470:A1 0
19 *1470:S *1939:CLK 0
20 *1470:S *2016:RESET_B 0
21 *1471:S *2085:A 0
22 *1471:S *650:12 0
23 *1471:S *1082:10 0
24 *1471:S *1097:120 0
25 *505:18 *1390:A1 0
26 *505:18 *1961:RESET_B 0
27 *505:18 *1987:RESET_B 4.79124e-05
28 *505:18 *2014:CLK 0
29 *505:18 *2191:A 0.000112651
30 *505:18 *2283:A 0
31 *505:18 *918:18 0
32 *505:18 *1095:77 0
33 *505:18 *1150:10 0
34 *505:31 *1448:B1 0
35 *505:31 *1961:RESET_B 0
36 *505:31 *1987:CLK 0
37 *505:31 *1120:20 0.000177306
38 *505:44 *1445:A1 0
39 *505:44 *925:24 0
40 *505:44 *1120:20 0.000306925
41 *505:53 *1082:10 0.000660528
42 *505:53 *1141:60 0
43 *505:64 *1141:58 0
44 *505:64 *1141:60 0
45 *505:81 *1242:A1 0
46 *505:81 *1437:A 0
47 *505:81 *1469:A0 0
48 *505:81 *653:20 4.78356e-05
49 *505:81 *1042:10 0
50 *505:96 *653:20 3.23417e-05
51 *505:96 *707:14 0.000566015
52 *505:96 *913:18 0.000235055
53 *505:96 *1072:8 0
54 *505:96 *1143:10 0
55 *1438:B1 *505:81 0
56 *1448:A1 *505:44 0
57 *1822:A *505:18 0
58 *1961:D *505:31 0
59 *1987:D *505:18 0
60 *69:10 *505:64 0.000767121
61 *69:10 *505:81 0.000318607
62 *474:8 *505:53 0
63 *474:8 *505:64 0
64 *474:12 *1471:S 0
65 *474:18 *505:64 0
66 *504:8 *505:53 0.000233542
*RES
1 *1442:Y *505:6 40 
2 *505:6 *505:18 43.936 
3 *505:18 *1447:B 20.572 
4 *505:18 *505:31 2.4728 
5 *505:31 *1448:A2 20 
6 *505:31 *505:44 45.6408 
7 *505:44 *2129:A 20 
8 *505:6 *505:53 5.0072 
9 *505:53 *1471:S 41.936 
10 *505:53 *505:64 3.8896 
11 *505:64 *1470:S 41.8656 
12 *505:64 *505:81 28.7296 
13 *505:81 *1469:S 20 
14 *505:81 *505:96 44.4352 
15 *505:96 *1816:S 20 
*END

*D_NET *508 0.000503188
*CONN
*I *1448:B1 I *D sg13g2_a21oi_1
*I *1447:Y O *D sg13g2_nor2_1
*CAP
1 *1448:B1 0.000179123
2 *1447:Y 0.000179123
3 *1447:B *1448:B1 0
4 *1961:D *1448:B1 0.000144942
5 *505:31 *1448:B1 0
*RES
1 *1447:Y *1448:B1 41.7072 
*END

*D_NET *509 0.00323124
*CONN
*I *1808:B I *D sg13g2_xnor2_1
*I *1474:A I *D sg13g2_xnor2_1
*I *1472:Y O *D sg13g2_nand2_1
*CAP
1 *1808:B 0
2 *1474:A 0
3 *1472:Y 0.000424839
4 *509:21 0.00112679
5 *509:10 0.00155163
6 *509:10 *1472:A 4.77425e-05
7 *509:10 *1472:B 8.02269e-05
8 *509:10 *604:25 0
9 *509:10 *690:10 0
10 *509:21 *1653:A 0
11 *509:21 *510:26 0
12 *509:21 *943:14 0
13 *509:21 *1019:8 0
14 *509:21 *1164:8 0
15 *136:10 *509:10 0
16 *136:10 *509:21 0
17 *292:8 *509:10 0
18 *293:8 *509:10 0
19 *365:8 *509:21 0
20 *406:43 *509:10 0
*RES
1 *1472:Y *509:10 43.8984 
2 *509:10 *1474:A 40 
3 *509:10 *509:21 30.8592 
4 *509:21 *1808:B 20 
*END

*D_NET *510 0.013255
*CONN
*I *1815:B I *D sg13g2_xnor2_1
*I *1477:A I *D sg13g2_inv_1
*I *1796:B I *D sg13g2_xnor2_1
*I *1812:A2 I *D sg13g2_o21ai_1
*I *1474:B I *D sg13g2_xnor2_1
*I *1473:Y O *D sg13g2_nor2_2
*CAP
1 *1815:B 0.000127152
2 *1477:A 0
3 *1796:B 0
4 *1812:A2 0
5 *1474:B 0.000159027
6 *1473:Y 0.000894899
7 *510:67 0.00026915
8 *510:59 0.00146266
9 *510:43 0.000577633
10 *510:26 0.00135995
11 *510:18 0.00166436
12 *510:10 0.00300234
13 *1474:B *690:10 0
14 *1815:B *1815:A 1.54008e-05
15 *1815:B *1104:97 0
16 *510:10 *1283:A1 0
17 *510:10 *913:66 0
18 *510:10 *913:77 0
19 *510:18 *1274:A1 0.000112826
20 *510:18 *1274:A2 0
21 *510:18 *1868:RESET_B 0
22 *510:18 *657:14 0
23 *510:18 *1104:29 0
24 *510:26 *1874:CLK 4.77425e-05
25 *510:26 *657:14 0
26 *510:43 *1812:B1 1.54008e-05
27 *510:43 *690:10 0
28 *510:59 *1274:A1 0
29 *510:59 *951:59 0
30 *510:59 *1104:82 0
31 *510:59 *1104:97 0
32 *510:67 *1875:CLK 0.000176967
33 *1261:B1 *510:26 0
34 *1262:A1 *510:43 0
35 *1275:A *510:10 0
36 *1281:A2 *510:59 0
37 *1282:A *510:18 0
38 *1796:A *510:18 4.79124e-05
39 *1796:A *510:26 1.54556e-05
40 *1812:A1 *510:43 4.78028e-05
41 *2003:D *510:18 0
42 *136:10 *510:26 0.000714833
43 *197:46 *510:59 0
44 *361:49 *510:43 0.00119461
45 *363:29 *510:10 0
46 *368:16 *510:26 0
47 *371:8 *510:18 0
48 *371:8 *510:26 0
49 *371:10 *510:10 0
50 *381:8 *510:59 0
51 *383:10 *510:10 0
52 *383:10 *510:18 0
53 *384:8 *510:10 0
54 *388:10 *510:59 0
55 *390:8 *510:10 0.00012816
56 *390:8 *510:59 0.0011404
57 *391:8 *510:10 0
58 *404:10 *510:10 8.03253e-05
59 *406:43 *510:43 0
60 *406:58 *1474:B 0
61 *507:10 *1815:B 0
62 *507:10 *510:59 0
63 *507:25 *510:67 0
64 *509:21 *510:26 0
*RES
1 *1473:Y *510:10 48.36 
2 *510:10 *510:18 28.2368 
3 *510:18 *510:26 46.4328 
4 *510:26 *1474:B 21.3816 
5 *510:26 *510:43 46.9432 
6 *510:43 *1812:A2 20 
7 *510:18 *1796:B 20 
8 *510:10 *510:59 29.7064 
9 *510:59 *510:67 42.5784 
10 *510:67 *1477:A 20 
11 *510:59 *1815:B 21.012 
*END

*D_NET *511 0.000729566
*CONN
*I *1475:B I *D sg13g2_xnor2_1
*I *1809:A I *D sg13g2_inv_1
*I *1474:Y O *D sg13g2_xnor2_1
*CAP
1 *1475:B 2.83232e-05
2 *1809:A 0.000184232
3 *1474:Y 0.000104386
4 *511:6 0.000316942
5 *1809:A *690:10 8.02269e-05
6 *511:6 *690:10 0
7 *1475:A *1475:B 1.54556e-05
8 *2006:RESET_B *1475:B 0
9 *2006:RESET_B *511:6 0
10 *2008:D *511:6 0
*RES
1 *1474:Y *511:6 21.012 
2 *511:6 *1809:A 22.024 
3 *511:6 *1475:B 20.4576 
*END

*D_NET *512 0.00142542
*CONN
*I *1478:A I *D sg13g2_nor2_1
*I *1815:A I *D sg13g2_xnor2_1
*I *1476:Y O *D sg13g2_inv_1
*CAP
1 *1478:A 0
2 *1815:A 0.000408892
3 *1476:Y 0.000121216
4 *512:8 0.000530108
5 *1815:A *1104:97 0.000274583
6 *512:8 *1476:A 7.52158e-05
7 *512:8 *513:16 0
8 *512:8 *514:10 0
9 *1815:B *1815:A 1.54008e-05
*RES
1 *1476:Y *512:8 41.144 
2 *512:8 *1815:A 43.9248 
3 *512:8 *1478:A 40 
*END

*D_NET *513 0.00102003
*CONN
*I *1478:B I *D sg13g2_nor2_1
*I *1573:B I *D sg13g2_nor2_1
*I *1477:Y O *D sg13g2_inv_1
*CAP
1 *1478:B 4.67555e-05
2 *1573:B 0
3 *1477:Y 0.000161297
4 *513:16 0.000210658
5 *513:8 0.000418711
6 *1478:B *1875:CLK 0
7 *513:8 *1875:CLK 0
8 *513:16 *1476:A 0.00018261
9 *513:16 *1021:10 0
10 *512:8 *513:16 0
*RES
1 *1477:Y *513:8 21.5224 
2 *513:8 *513:16 42.024 
3 *513:16 *1573:B 20 
4 *513:8 *1478:B 20.4576 
*END

*D_NET *514 0.00120831
*CONN
*I *1483:B I *D sg13g2_nand2_1
*I *2253:A I *D sg13g2_buf_1
*I *1478:Y O *D sg13g2_nor2_1
*CAP
1 *1483:B 0.000107342
2 *2253:A 0
3 *1478:Y 0.000254746
4 *514:14 0.000325452
5 *514:10 0.000472856
6 *1483:B *578:20 4.79124e-05
7 *514:10 *1476:A 0
8 *514:10 *1875:CLK 0
9 *514:10 *578:8 0
10 *514:10 *1021:10 0
11 *514:14 *1875:CLK 0
12 *514:14 *519:8 0
13 *514:14 *578:20 0
14 *507:73 *1483:B 0
15 *512:8 *514:10 0
*RES
1 *1478:Y *514:10 42.3936 
2 *514:10 *514:14 22.1208 
3 *514:14 *2253:A 20 
4 *514:14 *1483:B 21.2056 
*END

*D_NET *517 0.0171304
*CONN
*I *1558:B1 I *D sg13g2_a21oi_1
*I *2125:A I *D sg13g2_buf_1
*I *2124:A I *D sg13g2_buf_1
*I *1522:B1 I *D sg13g2_a21oi_1
*I *1525:B1 I *D sg13g2_a21oi_1
*I *1550:B1 I *D sg13g2_a21oi_1
*I *1576:A I *D sg13g2_nand2_1
*I *1483:A I *D sg13g2_nand2_1
*I *1481:Y O *D sg13g2_nor2_1
*CAP
1 *1558:B1 0
2 *2125:A 0.000154495
3 *2124:A 0.000128399
4 *1522:B1 0.000216269
5 *1525:B1 0.000104383
6 *1550:B1 0.00019871
7 *1576:A 0
8 *1483:A 0.000158802
9 *1481:Y 0.00017692
10 *517:71 0.000585482
11 *517:67 0.00088786
12 *517:52 0.00105566
13 *517:46 0.000614003
14 *517:40 0.000783368
15 *517:20 0.000416276
16 *517:16 0.00324654
17 *517:10 0.00367525
18 *517:8 0.00017692
19 *1483:A *2135:A 0.000266579
20 *1483:A *2261:A 0
21 *1483:A *578:20 0.000169292
22 *1522:B1 *1522:A1 0
23 *1522:B1 *571:18 0
24 *1522:B1 *825:60 0
25 *1522:B1 *837:8 0
26 *1522:B1 *928:59 0
27 *1522:B1 *1136:37 0
28 *1525:B1 *928:59 0
29 *1525:B1 *1136:37 0.000176633
30 *1550:B1 *558:10 0.000345318
31 *2124:A *710:43 0
32 *2124:A *718:56 0
33 *2125:A *567:18 0.000427575
34 *2125:A *710:49 7.52158e-05
35 *2125:A *829:26 0
36 *517:8 *1662:C 0
37 *517:8 *547:35 7.51285e-05
38 *517:8 *831:32 0
39 *517:8 *899:10 0
40 *517:16 *1500:A2 0.000449343
41 *517:16 *2056:D 0
42 *517:16 *2057:RESET_B 4.77863e-05
43 *517:16 *2063:RESET_B 0
44 *517:16 *1121:27 0
45 *517:20 *2135:A 1.54008e-05
46 *517:20 *2261:A 0
47 *517:40 *1559:A 8.00842e-05
48 *517:40 *521:12 0.000241275
49 *517:40 *521:61 0
50 *517:46 *566:14 3.77051e-05
51 *517:46 *567:14 0
52 *517:46 *567:18 0.000181781
53 *517:46 *710:49 0.000128247
54 *517:46 *829:26 0
55 *517:52 *1551:A 7.31538e-06
56 *517:52 *557:42 0.000214151
57 *517:52 *710:43 0.000597428
58 *517:67 *710:43 0
59 *517:67 *718:56 0
60 *517:67 *718:66 0.000274693
61 *517:71 *571:18 0
62 *517:71 *825:60 0
63 *517:71 *837:8 0
64 *1550:A2 *517:52 0
65 *264:8 *517:16 0
66 *267:38 *517:16 0
67 *272:8 *517:16 0
68 *385:24 *517:16 0
69 *387:36 *517:16 0
70 *392:24 *517:16 0
71 *392:41 *517:40 0.000515114
72 *392:41 *517:52 4.77425e-05
73 *392:52 *517:52 0.000177224
74 *507:84 *517:16 0
*RES
1 *1481:Y *517:8 41.3552 
2 *517:8 *517:10 20 
3 *517:10 *517:16 46.2856 
4 *517:16 *517:20 22.1208 
5 *517:20 *1483:A 21.5202 
6 *517:20 *1576:A 20 
7 *517:10 *517:40 6.3184 
8 *517:40 *517:46 21.2056 
9 *517:46 *517:52 43.5992 
10 *517:52 *1550:B1 41.7776 
11 *517:52 *517:67 24.268 
12 *517:67 *517:71 22.4112 
13 *517:71 *1525:B1 41.012 
14 *517:71 *1522:B1 41.9448 
15 *517:67 *2124:A 21.1264 
16 *517:46 *2125:A 41.7776 
17 *517:40 *1558:B1 20 
*END

*D_NET *519 0.00813856
*CONN
*I *1489:B1 I *D sg13g2_o21ai_1
*I *1491:B1 I *D sg13g2_o21ai_1
*I *1492:B1 I *D sg13g2_o21ai_1
*I *1807:B1 I *D sg13g2_o21ai_1
*I *1494:B1 I *D sg13g2_o21ai_1
*I *2132:A I *D sg13g2_buf_1
*I *1483:Y O *D sg13g2_nand2_1
*CAP
1 *1489:B1 0
2 *1491:B1 0.000286272
3 *1492:B1 0.000104642
4 *1807:B1 0
5 *1494:B1 3.13955e-05
6 *2132:A 0
7 *1483:Y 0.00012002
8 *519:85 0.00029355
9 *519:51 0.00074002
10 *519:42 0.000435797
11 *519:36 0.000794357
12 *519:21 0.000713317
13 *519:10 0.00159851
14 *519:8 0.00145072
15 *1491:B1 *1491:A2 1.54008e-05
16 *1491:B1 *1105:73 0
17 *1492:B1 *1235:B 0
18 *1492:B1 *1492:A2 3.97831e-05
19 *1492:B1 *1105:73 0
20 *1494:B1 *1494:A2 4.77425e-05
21 *519:8 *578:20 0.000209763
22 *519:10 *1897:RESET_B 0
23 *519:10 *578:38 0
24 *519:10 *966:25 0
25 *519:10 *1126:8 0
26 *519:21 *1494:A2 7.51285e-05
27 *519:21 *1126:8 0
28 *519:36 *1494:A2 3.23417e-05
29 *519:36 *1864:CLK 0
30 *519:42 *1807:A2 1.54008e-05
31 *519:42 *1864:CLK 0
32 *519:51 *1492:A2 0.000403884
33 *519:51 *1702:A 0
34 *519:51 *1807:A2 9.7025e-05
35 *519:85 *680:10 0
36 *519:85 *1138:64 0.00011236
37 *519:85 *1138:71 1.54008e-05
38 *1198:A2 *519:36 0.000177326
39 *1491:A1 *1491:B1 0.00012816
40 *1704:A2 *519:36 0
41 *1704:A2 *519:42 0
42 *1704:B1 *519:36 0
43 *79:10 *1492:B1 7.31538e-06
44 *81:10 *519:36 0
45 *112:10 *519:10 0
46 *222:10 *519:51 0
47 *222:10 *519:85 0
48 *322:8 *519:10 0
49 *322:8 *519:21 0
50 *323:27 *519:21 0.000128247
51 *506:33 *519:10 0
52 *514:14 *519:8 0
53 *516:58 *519:36 6.46834e-05
54 *516:58 *519:85 0
55 *516:72 *519:85 0
*RES
1 *1483:Y *519:8 41.1968 
2 *519:8 *519:10 11.9152 
3 *519:10 *2132:A 40 
4 *519:10 *519:21 22.4112 
5 *519:21 *1494:B1 20.2728 
6 *519:21 *519:36 3.5816 
7 *519:36 *519:42 0.8272 
8 *519:42 *1807:B1 20 
9 *519:42 *519:51 23.2296 
10 *519:51 *1492:B1 40.9482 
11 *519:51 *1491:B1 42.508 
12 *519:36 *519:85 42.42 
13 *519:85 *1489:B1 20 
*END

*D_NET *521 0.00575915
*CONN
*I *1549:A2 I *D sg13g2_a22oi_1
*I *1548:B I *D sg13g2_nor2_1
*I *1534:A I *D sg13g2_nor2b_2
*I *2268:A I *D sg13g2_buf_1
*I *1498:A2 I *D sg13g2_a21oi_1
*I *1501:A2 I *D sg13g2_a21oi_1
*I *1496:Y O *D sg13g2_inv_1
*CAP
1 *1549:A2 0
2 *1548:B 0
3 *1534:A 0
4 *2268:A 0.000452738
5 *1498:A2 0
6 *1501:A2 0
7 *1496:Y 0.000799259
8 *521:67 6.65975e-05
9 *521:61 0.000706279
10 *521:27 0.000602271
11 *521:16 0.000429677
12 *521:12 0.000437053
13 *521:8 0.000316487
14 *2268:A *1498:A1 8.00842e-05
15 *2268:A *1498:B1 0
16 *2268:A *1507:A1 0
17 *2268:A *1510:A2 0
18 *2268:A *830:31 0.000209637
19 *2268:A *832:46 0
20 *2268:A *922:12 0
21 *2268:A *922:27 0.00027432
22 *521:8 *830:31 0
23 *521:8 *832:46 7.64441e-05
24 *521:12 *1501:B1 0
25 *521:16 *1498:A1 0
26 *521:16 *547:35 0.000716077
27 *521:27 *523:8 0
28 *521:27 *547:35 5.30319e-05
29 *521:61 *1559:B 4.78743e-05
30 *521:61 *564:10 0
31 *521:61 *1106:78 0
32 *521:67 *826:43 0.00023464
33 *521:67 *829:26 0
34 *1550:A2 *521:61 1.54008e-05
35 *318:12 *521:61 0
36 *392:41 *521:61 0
37 *392:52 *521:61 0
38 *393:55 *521:61 0
39 *517:40 *521:12 0.000241275
40 *517:40 *521:61 0
*RES
1 *1496:Y *521:8 41.3552 
2 *521:8 *521:12 21.3816 
3 *521:12 *521:16 22.8336 
4 *521:16 *1501:A2 40 
5 *521:16 *521:27 21.144 
6 *521:27 *1498:A2 20 
7 *521:27 *2268:A 24.2856 
8 *521:12 *1534:A 20 
9 *1496:Y *521:61 25.544 
10 *521:61 *521:67 40.9328 
11 *521:67 *1548:B 20 
12 *521:61 *1549:A2 20 
*END

*D_NET *523 0.00661181
*CONN
*I *1500:A1 I *D sg13g2_a21oi_1
*I *1600:A1 I *D sg13g2_a21oi_1
*I *1498:Y O *D sg13g2_a21oi_1
*CAP
1 *1500:A1 0
2 *1600:A1 0
3 *1498:Y 0.000714638
4 *523:22 8.36545e-05
5 *523:16 0.00105297
6 *523:8 0.00168396
7 *523:8 *525:14 0.00222581
8 *523:8 *531:10 0
9 *523:8 *832:46 0
10 *523:16 *1500:A2 1.54008e-05
11 *523:16 *1505:A 8.01283e-05
12 *523:16 *1600:A2 0
13 *523:16 *1604:A1 0
14 *523:16 *1893:RESET_B 0
15 *523:16 *2259:A 0
16 *523:16 *527:12 0
17 *523:16 *893:10 0
18 *523:16 *961:20 4.78028e-05
19 *523:16 *998:8 0
20 *523:16 *1101:32 0
21 *523:16 *1101:43 0
22 *523:16 *1129:14 0
23 *523:16 *1129:22 0
24 *523:22 *524:10 0.000345897
25 *523:22 *1101:32 0.000184311
26 *1893:D *523:16 0
27 *1893:CLK *523:16 0
28 *1926:D *523:16 0.00017724
29 *206:8 *523:8 0
30 *206:14 *523:8 0
31 *521:27 *523:8 0
*RES
1 *1498:Y *523:8 48.7472 
2 *523:8 *523:16 28.2368 
3 *523:16 *523:22 41.3552 
4 *523:22 *1600:A1 20 
5 *523:16 *1500:A1 20 
*END

*D_NET *524 0.00230674
*CONN
*I *1500:B1 I *D sg13g2_a21oi_1
*I *1499:Y O *D sg13g2_nor2_1
*CAP
1 *1500:B1 0
2 *1499:Y 0.000553205
3 *524:10 0.000553205
4 *524:10 *593:8 0.000723756
5 *524:10 *964:20 0.000130676
6 *523:22 *524:10 0.000345897
*RES
1 *1499:Y *524:10 45.6408 
2 *524:10 *1500:B1 40 
*END

*D_NET *525 0.0065162
*CONN
*I *1503:A1 I *D sg13g2_a21oi_1
*I *1602:A1 I *D sg13g2_a21oi_1
*I *1501:Y O *D sg13g2_a21oi_1
*CAP
1 *1503:A1 0
2 *1602:A1 0.000235663
3 *1501:Y 2.46565e-05
4 *525:14 0.00206463
5 *525:8 0.00185362
6 *1602:A1 *1602:B1 0
7 *1602:A1 *1101:18 0
8 *1602:A1 *1109:37 0
9 *1602:A1 *1132:12 0
10 *525:14 *1206:A1 0
11 *525:14 *1505:A 0
12 *525:14 *531:10 0
13 *525:14 *547:35 0
14 *525:14 *831:32 0
15 *525:14 *1101:18 0
16 *525:14 *1109:37 0
17 *525:14 *1121:54 0
18 *1925:D *525:14 0.000111827
19 *85:8 *525:14 0
20 *206:8 *525:14 0
21 *523:8 *525:14 0.00222581
*RES
1 *1501:Y *525:8 40.2728 
2 *525:8 *525:14 39.052 
3 *525:14 *1602:A1 21.936 
4 *525:14 *1503:A1 20 
*END

*D_NET *526 0.00109007
*CONN
*I *1503:B1 I *D sg13g2_a21oi_1
*I *1502:Y O *D sg13g2_nor2_1
*CAP
1 *1503:B1 3.3173e-05
2 *1502:Y 0.000162429
3 *526:8 0.000195601
4 *1503:B1 *1109:37 4.7803e-05
5 *526:8 *999:23 7.52158e-05
6 *526:8 *1121:52 0.000394566
7 *526:8 *1121:54 0.00018128
*RES
1 *1502:Y *526:8 42.2 
2 *526:8 *1503:B1 40.2728 
*END

*D_NET *527 0.00422928
*CONN
*I *1506:A1 I *D sg13g2_a21oi_1
*I *1604:A1 I *D sg13g2_a21oi_1
*I *1504:Y O *D sg13g2_a21oi_1
*CAP
1 *1506:A1 0
2 *1604:A1 0.000272481
3 *1504:Y 0.000523123
4 *527:12 0.000643723
5 *527:8 0.000894366
6 *1604:A1 *1506:B1 0
7 *1604:A1 *1604:B1 4.78192e-05
8 *527:8 *1504:B1 0
9 *527:8 *1606:A2 0
10 *527:8 *531:10 0.00184777
11 *527:8 *922:18 0
12 *527:8 *1127:10 0
13 *527:8 *1127:12 0
14 *527:12 *1506:B1 0
15 *527:12 *2259:A 0
16 *1893:D *1604:A1 0
17 *407:14 *1604:A1 0
18 *407:14 *527:12 0
19 *523:16 *1604:A1 0
20 *523:16 *527:12 0
*RES
1 *1504:Y *527:8 47.2688 
2 *527:8 *527:12 22.86 
3 *527:12 *1604:A1 22.2352 
4 *527:12 *1506:A1 20 
*END

*D_NET *528 0.000677695
*CONN
*I *1506:B1 I *D sg13g2_a21oi_1
*I *1505:Y O *D sg13g2_nor2_1
*CAP
1 *1506:B1 3.1922e-05
2 *1505:Y 0.000117187
3 *528:8 0.000149109
4 *528:8 *1505:A 7.52158e-05
5 *528:8 *1506:A2 0.00018128
6 *1604:A1 *1506:B1 0
7 *85:8 *528:8 7.51285e-05
8 *407:14 *1506:B1 4.78521e-05
9 *407:14 *528:8 0
10 *527:12 *1506:B1 0
*RES
1 *1505:Y *528:8 41.3552 
2 *528:8 *1506:B1 40.2728 
*END

*D_NET *529 0.00189798
*CONN
*I *1509:A1 I *D sg13g2_a21oi_1
*I *1606:A1 I *D sg13g2_a21oi_1
*I *1507:Y O *D sg13g2_a21oi_1
*CAP
1 *1509:A1 0.000152899
2 *1606:A1 0.000153607
3 *1507:Y 0.000265253
4 *529:12 0.000306506
5 *529:10 0.000265253
6 *1509:A1 *1509:B1 0
7 *1509:A1 *1923:RESET_B 0
8 *1606:A1 *1507:A2 0
9 *1606:A1 *1606:B1 0
10 *1606:A1 *1923:RESET_B 0
11 *529:10 *1507:A2 0
12 *529:10 *1510:A2 0.000145052
13 *529:10 *567:18 0.000609408
14 *529:10 *922:18 0
*RES
1 *1507:Y *529:10 43.2384 
2 *529:10 *529:12 20 
3 *529:12 *1606:A1 21.3816 
4 *529:12 *1509:A1 21.364 
*END

*D_NET *530 0.00253072
*CONN
*I *1509:B1 I *D sg13g2_a21oi_1
*I *1508:Y O *D sg13g2_nor2_1
*CAP
1 *1509:B1 3.37198e-05
2 *1508:Y 0.000224278
3 *530:8 0.000257998
4 *1509:B1 *1507:A2 0
5 *530:8 *1509:A2 0.000235156
6 *530:8 *567:18 0.00108715
7 *530:8 *932:14 0.000692418
8 *1509:A1 *1509:B1 0
*RES
1 *1508:Y *530:8 44.312 
2 *530:8 *1509:B1 40.2728 
*END

*D_NET *531 0.00863608
*CONN
*I *1608:A1 I *D sg13g2_a21oi_1
*I *1512:A1 I *D sg13g2_a21oi_1
*I *1510:Y O *D sg13g2_a21oi_1
*CAP
1 *1608:A1 0.000270081
2 *1512:A1 0.000112659
3 *1510:Y 2.47826e-05
4 *531:10 0.00228642
5 *531:8 0.00192846
6 *1512:A1 *1512:B1 0
7 *1608:A1 *669:12 0
8 *1608:A1 *695:12 0.000450995
9 *1608:A1 *1132:36 0
10 *531:10 *1501:B1 0
11 *531:10 *1504:B1 0
12 *531:10 *695:12 0.00120592
13 *531:10 *832:46 0.000397034
14 *531:10 *1132:36 0
15 *1891:D *1608:A1 0.000111945
16 *206:8 *531:10 0
17 *206:14 *531:10 0
18 *206:64 *531:10 0
19 *523:8 *531:10 0
20 *525:14 *531:10 0
21 *527:8 *531:10 0.00184777
*RES
1 *1510:Y *531:8 40.2728 
2 *531:8 *531:10 22.8976 
3 *531:10 *1512:A1 40.8272 
4 *531:10 *1608:A1 42.9744 
*END

*D_NET *532 0.000241675
*CONN
*I *1512:B1 I *D sg13g2_a21oi_1
*I *1511:Y O *D sg13g2_nor2_1
*CAP
1 *1512:B1 0.000105409
2 *1511:Y 0.000105409
3 *1512:B1 *917:53 1.54008e-05
4 *1512:B1 *999:8 0
5 *1512:A1 *1512:B1 0
6 *87:10 *1512:B1 1.54556e-05
*RES
1 *1511:Y *1512:B1 41.056 
*END

*D_NET *533 0.00602088
*CONN
*I *1610:A1 I *D sg13g2_a21oi_1
*I *1515:A1 I *D sg13g2_a21oi_1
*I *1513:Y O *D sg13g2_a21oi_1
*CAP
1 *1610:A1 0.000593973
2 *1515:A1 6.84852e-05
3 *1513:Y 0
4 *533:12 0.00284991
5 *533:6 0.00218745
6 *1515:A1 *1515:A2 9.56932e-05
7 *1515:A1 *1696:A2 0
8 *1610:A1 *1514:A 0
9 *1610:A1 *534:8 0
10 *1610:A1 *598:8 0
11 *1610:A1 *696:12 0
12 *1610:A1 *1108:34 0.000112689
13 *1610:A1 *1132:49 0.000112689
14 *533:12 *1632:A0 0
15 *533:12 *534:8 0
16 *533:12 *560:12 0
17 *533:12 *567:18 0
18 *533:12 *928:35 0
19 *533:12 *928:50 0
20 *533:12 *932:12 0
21 *533:12 *932:14 0
22 *533:12 *985:21 0
23 *533:12 *996:14 0
24 *1696:A1 *1610:A1 0
25 *1696:A1 *533:12 0
26 *522:31 *533:12 0
*RES
1 *1513:Y *533:6 40 
2 *533:6 *533:12 20.5128 
3 *533:12 *1515:A1 40.6424 
4 *533:12 *1610:A1 46.0104 
*END

*D_NET *534 0.000773908
*CONN
*I *1515:B1 I *D sg13g2_a21oi_1
*I *1514:Y O *D sg13g2_nor2_1
*CAP
1 *1515:B1 2.54717e-05
2 *1514:Y 0.000337589
3 *534:8 0.000363061
4 *1515:B1 *1515:A2 4.77863e-05
5 *534:8 *1514:A 0
6 *534:8 *1696:A2 0
7 *534:8 *1921:RESET_B 0
8 *534:8 *996:14 0
9 *1610:A1 *534:8 0
10 *522:46 *1515:B1 0
11 *533:12 *534:8 0
*RES
1 *1514:Y *534:8 42.8336 
2 *534:8 *1515:B1 40.2728 
*END

*D_NET *535 0.00481755
*CONN
*I *1612:A1 I *D sg13g2_a21oi_1
*I *1518:A1 I *D sg13g2_a21oi_1
*I *1516:Y O *D sg13g2_a21oi_1
*CAP
1 *1612:A1 0.000292022
2 *1518:A1 0
3 *1516:Y 0
4 *535:12 0.00105693
5 *535:6 0.000764911
6 *1612:A1 *1518:A2 4.78521e-05
7 *1612:A1 *1612:A2 1.54008e-05
8 *1612:A1 *2267:A 0.000112447
9 *535:12 *1884:CLK 0
10 *535:12 *536:10 0
11 *535:12 *541:14 0.00252799
12 *535:12 *828:38 0
13 *535:12 *1127:64 0
14 *535:12 *1148:14 0
15 *535:12 *1148:26 0
*RES
1 *1516:Y *535:6 40 
2 *535:6 *535:12 30.2872 
3 *535:12 *1518:A1 20 
4 *535:12 *1612:A1 22.5344 
*END

*D_NET *536 0.00223137
*CONN
*I *1518:B1 I *D sg13g2_a21oi_1
*I *1517:Y O *D sg13g2_nor2_1
*CAP
1 *1518:B1 0
2 *1517:Y 0.000704776
3 *536:10 0.000704776
4 *536:10 *1611:B 0
5 *536:10 *1920:CLK 0.000821814
6 *536:10 *541:14 0
7 *536:10 *599:10 0
8 *536:10 *957:16 0
9 *536:10 *993:8 0
10 *536:10 *1148:48 0
11 *535:12 *536:10 0
*RES
1 *1517:Y *536:10 47.3304 
2 *536:10 *1518:B1 40 
*END

*D_NET *537 0.0100946
*CONN
*I *1614:A1 I *D sg13g2_a21oi_1
*I *1521:A1 I *D sg13g2_a21oi_1
*I *1519:Y O *D sg13g2_a21oi_1
*CAP
1 *1614:A1 0.000802062
2 *1521:A1 8.81787e-05
3 *1519:Y 0
4 *537:12 0.00326571
5 *537:6 0.00237547
6 *1521:A1 *1521:A2 0.000144911
7 *1521:A1 *1521:B1 0
8 *1521:A1 *723:70 0
9 *1521:A1 *990:8 0
10 *1614:A1 *1888:RESET_B 0
11 *1614:A1 *2180:A 0
12 *1614:A1 *538:8 0
13 *1614:A1 *663:10 0
14 *1614:A1 *1108:90 0.000404082
15 *537:12 *1517:B 0
16 *537:12 *1530:A1 0
17 *537:12 *538:8 0
18 *537:12 *542:8 0
19 *537:12 *543:8 0
20 *537:12 *544:12 0
21 *537:12 *723:76 0
22 *537:12 *842:54 0
23 *537:12 *916:32 0
24 *537:12 *916:41 0
25 *537:12 *916:54 0
26 *537:12 *921:77 0
27 *537:12 *928:87 0.000553097
28 *537:12 *988:18 0.00172523
29 *537:12 *1017:8 0
30 *537:12 *1110:102 0.000128097
31 *537:12 *1135:16 0
32 *537:12 *1135:25 0
33 *90:8 *537:12 0
34 *180:10 *537:12 0.000607738
35 *407:34 *537:12 0
36 *515:76 *1614:A1 0
*RES
1 *1519:Y *537:6 40 
2 *537:6 *537:12 25.5816 
3 *537:12 *1521:A1 40.8272 
4 *537:12 *1614:A1 46.5648 
*END

*D_NET *538 0.000614737
*CONN
*I *1521:B1 I *D sg13g2_a21oi_1
*I *1520:Y O *D sg13g2_nor2_1
*CAP
1 *1521:B1 4.296e-05
2 *1520:Y 0.000226593
3 *538:8 0.000269554
4 *1521:B1 *723:70 0
5 *538:8 *1919:RESET_B 0
6 *538:8 *992:10 7.56299e-05
7 *1521:A1 *1521:B1 0
8 *1614:A1 *538:8 0
9 *537:12 *538:8 0
*RES
1 *1520:Y *538:8 41.9888 
2 *538:8 *1521:B1 40.2728 
*END

*D_NET *539 0.00857785
*CONN
*I *1524:A1 I *D sg13g2_a21oi_1
*I *1616:A1 I *D sg13g2_a21oi_1
*I *1522:Y O *D sg13g2_a21oi_1
*CAP
1 *1524:A1 0
2 *1616:A1 0
3 *1522:Y 0
4 *539:18 7.5837e-05
5 *539:12 0.00250217
6 *539:6 0.00242633
7 *539:12 *1524:A2 1.54008e-05
8 *539:12 *1524:B1 0
9 *539:12 *1696:A2 0
10 *539:12 *1879:RESET_B 0.000129163
11 *539:12 *1921:CLK 0
12 *539:12 *560:12 0
13 *539:12 *723:47 0
14 *539:12 *931:16 0
15 *539:12 *931:34 0
16 *539:12 *954:8 0
17 *539:12 *980:12 0.000874159
18 *539:12 *996:33 0.00162136
19 *539:12 *1108:70 4.78192e-05
20 *539:12 *1111:28 0.000159839
21 *539:12 *1148:67 0
22 *539:18 *540:8 0.000340704
23 *539:18 *601:8 0.000128663
24 *539:18 *954:16 0.00012816
25 *1887:D *539:12 0
26 *1918:D *539:12 0
27 *206:81 *539:12 0.000128247
28 *407:26 *539:12 0
*RES
1 *1522:Y *539:6 40 
2 *539:6 *539:12 45.8632 
3 *539:12 *539:18 41.3552 
4 *539:18 *1616:A1 20 
5 *539:12 *1524:A1 20 
*END

*D_NET *540 0.00159012
*CONN
*I *1524:B1 I *D sg13g2_a21oi_1
*I *1523:Y O *D sg13g2_nor2_1
*CAP
1 *1524:B1 3.01756e-05
2 *1523:Y 0.000213867
3 *540:8 0.000244043
4 *1524:B1 *1524:A2 0
5 *1524:B1 *723:12 4.77425e-05
6 *540:8 *1615:B 0.000212543
7 *540:8 *601:8 0
8 *540:8 *954:16 0
9 *540:8 *1131:23 0.000501045
10 *539:12 *1524:B1 0
11 *539:18 *540:8 0.000340704
*RES
1 *1523:Y *540:8 42.8336 
2 *540:8 *1524:B1 40.2728 
*END

*D_NET *541 0.00800999
*CONN
*I *1618:A1 I *D sg13g2_a21oi_1
*I *1527:A1 I *D sg13g2_a21oi_1
*I *1525:Y O *D sg13g2_a21oi_1
*CAP
1 *1618:A1 0
2 *1527:A1 0.000515157
3 *1525:Y 0.000127271
4 *541:14 0.00243027
5 *541:8 0.00204238
6 *1527:A1 *1527:B1 1.54008e-05
7 *1527:A1 *1618:A2 0
8 *1527:A1 *1618:B1 4.77425e-05
9 *1527:A1 *916:8 0
10 *1527:A1 *1110:102 0
11 *541:8 *928:68 0
12 *541:8 *1136:37 0
13 *541:14 *1618:A2 1.54008e-05
14 *541:14 *1920:CLK 0
15 *541:14 *571:18 0
16 *541:14 *723:25 0
17 *541:14 *974:23 0
18 *541:14 *1110:102 0
19 *541:14 *1127:38 0
20 *89:12 *541:14 0.000288377
21 *123:12 *541:14 0
22 *535:12 *541:14 0.00252799
23 *536:10 *541:14 0
*RES
1 *1525:Y *541:8 40.8272 
2 *541:8 *541:14 39.5536 
3 *541:14 *1527:A1 24.4 
4 *541:14 *1618:A1 20 
*END

*D_NET *542 0.00114522
*CONN
*I *1527:B1 I *D sg13g2_a21oi_1
*I *1526:Y O *D sg13g2_nor2_1
*CAP
1 *1527:B1 2.87192e-05
2 *1526:Y 0.000185945
3 *542:8 0.000214664
4 *1527:B1 *1110:102 4.77702e-05
5 *542:8 *1517:B 0.000181609
6 *542:8 *916:10 0.000236388
7 *542:8 *916:32 0.000234727
8 *542:8 *1110:102 0
9 *1527:A1 *1527:B1 1.54008e-05
10 *537:12 *542:8 0
*RES
1 *1526:Y *542:8 42.4112 
2 *542:8 *1527:B1 40.2728 
*END

*D_NET *543 0.003823
*CONN
*I *1530:A1 I *D sg13g2_a21oi_1
*I *1620:A1 I *D sg13g2_a21oi_1
*I *1528:Y O *D sg13g2_a21oi_1
*CAP
1 *1530:A1 0.000277873
2 *1620:A1 3.28354e-05
3 *1528:Y 0
4 *543:8 0.00126944
5 *543:6 0.000958731
6 *1530:A1 *1619:A 0
7 *1530:A1 *544:12 0
8 *1530:A1 *1134:21 0
9 *1530:A1 *1134:30 0
10 *1530:A1 *1135:12 1.5412e-05
11 *1530:A1 *1135:79 0
12 *1620:A1 *1620:B1 0
13 *1620:A1 *1134:21 1.54446e-05
14 *1620:A1 *1134:30 3.23417e-05
15 *543:8 *1619:A 0
16 *543:8 *1622:A1 0.000288014
17 *543:8 *1911:CLK 0
18 *543:8 *545:10 0.000393612
19 *543:8 *724:51 0
20 *543:8 *1106:114 0
21 *1916:D *1530:A1 1.54008e-05
22 *94:8 *543:8 0.000342708
23 *180:10 *543:8 0
24 *407:34 *543:8 0.000181192
25 *537:12 *1530:A1 0
26 *537:12 *543:8 0
*RES
1 *1528:Y *543:6 40 
2 *543:6 *543:8 10.2256 
3 *543:8 *1620:A1 40.2728 
4 *543:8 *1530:A1 42.3848 
*END

*D_NET *544 0.00156991
*CONN
*I *1530:B1 I *D sg13g2_a21oi_1
*I *1529:Y O *D sg13g2_nor2_1
*CAP
1 *1530:B1 0
2 *1529:Y 0.000373633
3 *544:12 0.000373633
4 *544:12 *1135:16 0.000822642
5 *1530:A1 *544:12 0
6 *537:12 *544:12 0
*RES
1 *1529:Y *544:12 44.2504 
2 *544:12 *1530:B1 40 
*END

*D_NET *545 0.00161616
*CONN
*I *1622:A1 I *D sg13g2_a21oi_1
*I *1533:A1 I *D sg13g2_a21oi_1
*I *1531:Y O *D sg13g2_a21oi_1
*CAP
1 *1622:A1 0.000106399
2 *1533:A1 0
3 *1531:Y 0.00033681
4 *545:10 0.000443209
5 *545:10 *1528:B1 4.81157e-05
6 *545:10 *928:87 0
7 *543:8 *1622:A1 0.000288014
8 *543:8 *545:10 0.000393612
*RES
1 *1531:Y *545:10 42.8952 
2 *545:10 *1533:A1 40 
3 *545:10 *1622:A1 41.144 
*END

*D_NET *546 0.000488629
*CONN
*I *1533:B1 I *D sg13g2_a21oi_1
*I *1532:Y O *D sg13g2_nor2_1
*CAP
1 *1533:B1 0.000172311
2 *1532:Y 0.000172311
3 *1533:B1 *928:79 0
4 *1533:B1 *988:18 0
5 *1533:B1 *1137:29 0.000144008
*RES
1 *1532:Y *1533:B1 41.3816 
*END

*D_NET *547 0.0142214
*CONN
*I *1538:B1 I *D sg13g2_a221oi_1
*I *1535:B1 I *D sg13g2_a221oi_1
*I *1541:B1 I *D sg13g2_a221oi_1
*I *1544:B1 I *D sg13g2_a221oi_1
*I *1662:C I *D sg13g2_nand3_1
*I *1534:Y O *D sg13g2_nor2b_2
*CAP
1 *1538:B1 0.000389442
2 *1535:B1 0
3 *1541:B1 6.63151e-05
4 *1544:B1 0
5 *1662:C 0.000859204
6 *1534:Y 0
7 *547:63 0.000560616
8 *547:46 0.000435562
9 *547:35 0.0032982
10 *547:6 0.00395933
11 *1538:B1 *1535:B2 0
12 *1538:B1 *1535:A1 1.54008e-05
13 *1538:B1 *1538:B2 1.54118e-05
14 *1538:B1 *1538:A2 0
15 *1538:B1 *550:10 0.000485985
16 *1541:B1 *1544:B2 4.78356e-05
17 *1541:B1 *839:29 4.77425e-05
18 *1541:B1 *921:37 0.000130055
19 *1662:C *1498:A1 0
20 *1662:C *831:32 0
21 *1662:C *832:46 0
22 *1662:C *834:37 0.000128663
23 *1662:C *899:10 0
24 *547:35 *1498:B1 0.000338454
25 *547:35 *1501:B1 0
26 *547:35 *1513:B1 0.000194368
27 *547:35 *1519:A1 8.0194e-05
28 *547:35 *1544:A2 0
29 *547:35 *710:43 0
30 *547:35 *718:56 0
31 *547:35 *718:66 0
32 *547:35 *825:54 0
33 *547:35 *831:32 0
34 *547:35 *839:29 0.000377132
35 *547:35 *840:25 0
36 *547:35 *921:8 0.000208414
37 *547:35 *921:25 0.000703956
38 *547:35 *921:27 0
39 *547:35 *921:73 0
40 *547:35 *922:12 0.000404263
41 *547:35 *922:27 0
42 *547:35 *928:87 0
43 *547:35 *1136:37 0
44 *547:35 *1136:46 0
45 *547:46 *1541:A2 4.79124e-05
46 *547:46 *1544:A2 0
47 *547:46 *839:29 0.000259183
48 *547:63 *1535:A1 4.77425e-05
49 *547:63 *550:10 1.54008e-05
50 *547:63 *550:12 7.61954e-05
51 *547:63 *921:37 0.00018416
52 *517:8 *1662:C 0
53 *517:8 *547:35 7.51285e-05
54 *521:16 *547:35 0.000716077
55 *521:27 *547:35 5.30319e-05
56 *525:14 *547:35 0
*RES
1 *1534:Y *547:6 40 
2 *547:6 *1662:C 46.908 
3 *547:6 *547:35 48.3976 
4 *547:35 *1544:B1 20 
5 *547:35 *547:46 21.8392 
6 *547:46 *1541:B1 40.7832 
7 *547:46 *547:63 21.628 
8 *547:63 *1535:B1 20 
9 *547:63 *1538:B1 23.7136 
*END

*D_NET *548 0.0067394
*CONN
*I *1537:A1 I *D sg13g2_a21oi_1
*I *1624:A1 I *D sg13g2_a21oi_1
*I *1535:Y O *D sg13g2_a221oi_1
*CAP
1 *1537:A1 0
2 *1624:A1 0.00039527
3 *1535:Y 0
4 *548:12 0.0026799
5 *548:6 0.00228463
6 *1624:A1 *1536:B 8.00291e-05
7 *1624:A1 *1537:B1 0.000240334
8 *1624:A1 *1624:A2 4.77425e-05
9 *1624:A1 *2263:A 0
10 *1624:A1 *1135:41 0
11 *548:12 *550:12 0
12 *548:12 *551:8 0.000617122
13 *548:12 *699:8 0
14 *548:12 *924:10 0
15 *548:12 *1110:64 0
16 *548:12 *1134:64 0.000346756
17 *1624:B1 *1624:A1 4.76243e-05
18 *1883:D *1624:A1 0
19 *1914:D *1624:A1 0
*RES
1 *1535:Y *548:6 40 
2 *548:6 *548:12 39.5536 
3 *548:12 *1624:A1 23.784 
4 *548:12 *1537:A1 20 
*END

*D_NET *549 0.000713685
*CONN
*I *1537:B1 I *D sg13g2_a21oi_1
*I *1536:Y O *D sg13g2_nor2_1
*CAP
1 *1537:B1 0.00013263
2 *1536:Y 0.00013263
3 *1537:B1 *986:8 0
4 *1537:B1 *1135:41 0.00020809
5 *1624:A1 *1537:B1 0.000240334
*RES
1 *1536:Y *1537:B1 41.3816 
*END

*D_NET *550 0.00500385
*CONN
*I *1540:A1 I *D sg13g2_a21oi_1
*I *1626:A1 I *D sg13g2_a21oi_1
*I *1538:Y O *D sg13g2_a221oi_1
*CAP
1 *1540:A1 0.000139348
2 *1626:A1 0
3 *1538:Y 0.000346629
4 *550:12 0.00154775
5 *550:10 0.00175503
6 *1540:A1 *551:8 7.63467e-05
7 *1540:A1 *1134:64 7.61954e-05
8 *550:10 *1535:B2 0.000145098
9 *550:10 *711:10 4.78192e-05
10 *550:12 *575:22 0
11 *550:12 *1134:64 0.00029205
12 *1538:B1 *550:10 0.000485985
13 *184:8 *550:12 0
14 *547:63 *550:10 1.54008e-05
15 *547:63 *550:12 7.61954e-05
16 *548:12 *550:12 0
*RES
1 *1538:Y *550:10 43.1592 
2 *550:10 *550:12 11.0704 
3 *550:12 *1626:A1 40 
4 *550:12 *1540:A1 41.144 
*END

*D_NET *551 0.00132617
*CONN
*I *1540:B1 I *D sg13g2_a21oi_1
*I *1539:Y O *D sg13g2_nor2_1
*CAP
1 *1540:B1 7.4042e-05
2 *1539:Y 0.000204046
3 *551:8 0.000278088
4 *1540:B1 *1882:RESET_B 0
5 *551:8 *986:14 7.65281e-05
6 *1540:A1 *551:8 7.63467e-05
7 *1913:D *1540:B1 0
8 *548:12 *551:8 0.000617122
*RES
1 *1539:Y *551:8 42.4112 
2 *551:8 *1540:B1 40.572 
*END

*D_NET *552 0.00312353
*CONN
*I *1628:A1 I *D sg13g2_a21oi_1
*I *1543:A1 I *D sg13g2_a21oi_1
*I *1541:Y O *D sg13g2_a221oi_1
*CAP
1 *1628:A1 0.000308464
2 *1543:A1 2.31146e-05
3 *1541:Y 0.000778036
4 *552:14 0.00110961
5 *1543:A1 *1543:A2 4.23522e-05
6 *1543:A1 *912:54 4.23522e-05
7 *1628:A1 *1542:A 0
8 *1628:A1 *1133:39 0.000181608
9 *552:14 *1541:B2 0
10 *552:14 *1544:B2 0
11 *552:14 *2141:A 0.000404082
12 *552:14 *840:39 0.000233902
13 *552:14 *921:56 0
*RES
1 *1541:Y *552:14 47.2424 
2 *552:14 *1543:A1 40.242 
3 *552:14 *1628:A1 42.8952 
*END

*D_NET *553 0.000525963
*CONN
*I *1543:B1 I *D sg13g2_a21oi_1
*I *1542:Y O *D sg13g2_nor2_1
*CAP
1 *1543:B1 2.52224e-05
2 *1542:Y 0.000188633
3 *553:8 0.000213855
4 *1543:B1 *912:54 5.05102e-05
5 *1912:D *1543:B1 4.77425e-05
*RES
1 *1542:Y *553:8 41.3552 
2 *553:8 *1543:B1 40.2728 
*END

*D_NET *554 0.00121148
*CONN
*I *1546:A1 I *D sg13g2_a21oi_1
*I *1630:A1 I *D sg13g2_a21oi_1
*I *1544:Y O *D sg13g2_a221oi_1
*CAP
1 *1546:A1 0.000168436
2 *1630:A1 5.05263e-05
3 *1544:Y 0.000267398
4 *554:10 0.000218962
5 *554:8 0.000267398
6 *1546:A1 *1535:A1 0
7 *1546:A1 *840:33 0
8 *1546:A1 *912:35 0.000143413
9 *1546:A1 *1137:40 1.54008e-05
10 *1546:A1 *1137:69 0
11 *1630:A1 *840:33 7.99451e-05
12 *1630:A1 *912:35 0
13 *554:8 *575:22 0
14 *554:8 *840:33 0
15 *554:8 *1136:50 0
*RES
1 *1544:Y *554:8 42.4112 
2 *554:8 *554:10 20 
3 *554:10 *1630:A1 20.4576 
4 *554:10 *1546:A1 21.496 
*END

*D_NET *555 0.000260605
*CONN
*I *1546:B1 I *D sg13g2_a21oi_1
*I *1545:Y O *D sg13g2_nor2_1
*CAP
1 *1546:B1 0.000130302
2 *1545:Y 0.000130302
3 *1546:B1 *1535:A1 0
4 *1546:B1 *1137:40 0
*RES
1 *1545:Y *1546:B1 41.1528 
*END

*D_NET *556 0.00299921
*CONN
*I *1696:A2 I *D sg13g2_a21oi_1
*I *1553:A1 I *D sg13g2_o21ai_1
*I *1547:Y O *D sg13g2_inv_1
*CAP
1 *1696:A2 0.00072862
2 *1553:A1 0.000705978
3 *1547:Y 0
4 *556:6 0.0014346
5 *1553:A1 *561:8 0.000130011
6 *1553:A1 *996:14 0
7 *1696:A2 *1514:A 0
8 *1696:A2 *1514:B 0
9 *1696:A2 *1515:A2 0
10 *1696:A2 *1921:RESET_B 0
11 *1696:A2 *996:14 0
12 *1696:A2 *996:20 0
13 *1515:A1 *1696:A2 0
14 *1921:D *1696:A2 0
15 *534:8 *1696:A2 0
16 *539:12 *1696:A2 0
*RES
1 *1547:Y *556:6 40 
2 *556:6 *1553:A1 47.0576 
3 *556:6 *1696:A2 46.248 
*END

*D_NET *557 0.00677167
*CONN
*I *1569:B1 I *D sg13g2_a221oi_1
*I *1564:B1 I *D sg13g2_a221oi_1
*I *1549:B2 I *D sg13g2_a22oi_1
*I *1557:B2 I *D sg13g2_a22oi_1
*I *1548:Y O *D sg13g2_nor2_1
*CAP
1 *1569:B1 2.5074e-05
2 *1564:B1 0.000539631
3 *1549:B2 5.95211e-05
4 *1557:B2 0.000732968
5 *1548:Y 0
6 *557:42 0.00133972
7 *557:8 0.000942112
8 *557:4 0.000924638
9 *1549:B2 *558:10 4.78192e-05
10 *1557:B2 *1557:B1 0
11 *1557:B2 *1557:A2 4.77425e-05
12 *1557:B2 *559:8 0
13 *1557:B2 *564:19 0
14 *1557:B2 *712:40 0
15 *1557:B2 *717:67 0
16 *1557:B2 *718:66 0
17 *1557:B2 *729:10 0.000127853
18 *1557:B2 *826:35 0
19 *1557:B2 *830:18 0
20 *1557:B2 *836:42 0
21 *1557:B2 *1093:12 0.000552365
22 *1557:B2 *1106:78 0
23 *1564:B1 *570:16 0.000127936
24 *1564:B1 *571:18 0
25 *1564:B1 *574:12 0
26 *1564:B1 *837:16 0
27 *1569:B1 *564:34 4.78521e-05
28 *557:8 *559:8 0
29 *557:8 *560:12 0
30 *557:8 *718:66 0
31 *557:8 *826:43 0
32 *557:42 *1551:A 3.96571e-05
33 *557:42 *1551:B 4.77425e-05
34 *557:42 *560:10 7.93167e-05
35 *557:42 *710:43 0
36 *557:42 *711:33 0.000436862
37 *557:42 *837:8 0
38 *1550:A2 *1549:B2 0
39 *1550:A2 *557:42 0
40 *1568:B1 *1564:B1 0
41 *1851:A0 *1569:B1 4.78521e-05
42 *2039:RESET_B *557:42 0
43 *320:8 *1557:B2 0
44 *387:74 *1564:B1 0.000390854
45 *392:52 *557:42 0
46 *517:52 *557:42 0.000214151
*RES
1 *1548:Y *557:4 20 
2 *557:4 *557:8 21.144 
3 *557:8 *1557:B2 46.4064 
4 *557:8 *1549:B2 40.4576 
5 *557:4 *557:42 27.0356 
6 *557:42 *1564:B1 44.5848 
7 *557:42 *1569:B1 40.2728 
*END

*D_NET *558 0.00118218
*CONN
*I *1551:A I *D sg13g2_nand2_1
*I *1549:Y O *D sg13g2_a22oi_1
*CAP
1 *1551:A 2.66484e-05
2 *1549:Y 0.000312816
3 *558:10 0.000339464
4 *558:10 *1549:B1 1.54008e-05
5 *558:10 *711:33 4.77425e-05
6 *558:10 *837:20 0
7 *1549:B2 *558:10 4.78192e-05
8 *1550:A2 *558:10 0
9 *1550:B1 *558:10 0.000345318
10 *1856:A *558:10 0
11 *1856:B *558:10 0
12 *517:52 *1551:A 7.31538e-06
13 *557:42 *1551:A 3.96571e-05
*RES
1 *1549:Y *558:10 43.1064 
2 *558:10 *1551:A 40.2266 
*END

*D_NET *559 0.000805534
*CONN
*I *1551:B I *D sg13g2_nand2_1
*I *1550:Y O *D sg13g2_a21oi_1
*CAP
1 *1551:B 6.89441e-05
2 *1550:Y 0.000100256
3 *559:8 0.0001692
4 *1551:B *560:10 1.54008e-05
5 *559:8 *718:66 0.000291566
6 *1550:A2 *1551:B 0.000112426
7 *1557:B2 *559:8 0
8 *557:8 *559:8 0
9 *557:42 *1551:B 4.77425e-05
*RES
1 *1550:Y *559:8 41.144 
2 *559:8 *1551:B 40.6424 
*END

*D_NET *560 0.00373004
*CONN
*I *1632:A0 I *D sg13g2_mux2_1
*I *1552:A I *D sg13g2_nand2_1
*I *1551:Y O *D sg13g2_nand2_1
*CAP
1 *1632:A0 0.000236324
2 *1552:A 8.26027e-05
3 *1551:Y 8.08929e-05
4 *560:12 0.00166427
5 *560:10 0.00142623
6 *1552:A *1552:B 0
7 *1552:A *932:12 0.000145005
8 *1632:A0 *561:8 0
9 *1632:A0 *931:12 0
10 *560:12 *561:8 0
11 *560:12 *718:66 0
12 *560:12 *826:43 0
13 *1550:A2 *560:10 0
14 *1551:B *560:10 1.54008e-05
15 *1632:S *1632:A0 0
16 *101:10 *560:12 0
17 *407:18 *1552:A 0
18 *533:12 *1632:A0 0
19 *533:12 *560:12 0
20 *539:12 *560:12 0
21 *557:8 *560:12 0
22 *557:42 *560:10 7.93167e-05
*RES
1 *1551:Y *560:10 40.7304 
2 *560:10 *560:12 12.5488 
3 *560:12 *1552:A 40.8272 
4 *560:12 *1632:A0 42.1824 
*END

*D_NET *561 0.000896422
*CONN
*I *1553:B1 I *D sg13g2_o21ai_1
*I *1552:Y O *D sg13g2_nand2_1
*CAP
1 *1553:B1 3.23797e-05
2 *1552:Y 0.000343125
3 *561:8 0.000375505
4 *1553:B1 *1553:A2 1.54008e-05
5 *1553:A1 *561:8 0.000130011
6 *1632:A0 *561:8 0
7 *1879:D *1553:B1 0
8 *560:12 *561:8 0
*RES
1 *1552:Y *561:8 43.256 
2 *561:8 *1553:B1 40.2728 
*END

*D_NET *562 0.00291428
*CONN
*I *1698:A2 I *D sg13g2_a21oi_1
*I *1561:A1 I *D sg13g2_o21ai_1
*I *1554:Y O *D sg13g2_inv_1
*CAP
1 *1698:A2 0.000229985
2 *1561:A1 0
3 *1554:Y 0
4 *562:10 0.00050513
5 *562:4 0.000735115
6 *562:10 *2240:A 0.000585012
7 *562:10 *568:8 0.000128247
8 *562:10 *669:12 0
9 *562:10 *695:12 0
10 *562:10 *1109:50 0.000715333
11 *1698:A1 *1698:A2 1.54556e-05
12 *1698:B1 *1698:A2 0
13 *522:27 *1698:A2 0
*RES
1 *1554:Y *562:4 20 
2 *562:4 *562:10 46.424 
3 *562:10 *1561:A1 20 
4 *562:4 *1698:A2 21.8656 
*END

*D_NET *563 0.000534108
*CONN
*I *1556:A I *D sg13g2_inv_1
*I *1555:Y O *D sg13g2_nand2_1
*CAP
1 *1556:A 0.000145999
2 *1555:Y 0.000145999
3 *1556:A *1106:61 0
4 *393:55 *1556:A 0.00024211
*RES
1 *1555:Y *1556:A 41.3816 
*END

*D_NET *564 0.0064368
*CONN
*I *1569:A1 I *D sg13g2_a221oi_1
*I *1564:A1 I *D sg13g2_a221oi_1
*I *1557:A1 I *D sg13g2_a22oi_1
*I *1556:Y O *D sg13g2_inv_1
*CAP
1 *1569:A1 0
2 *1564:A1 0
3 *1557:A1 0
4 *1556:Y 0.000552169
5 *564:34 0.000740312
6 *564:19 0.00155894
7 *564:12 0.000818631
8 *564:10 0.000552169
9 *564:10 *1854:A 0
10 *564:10 *565:8 0
11 *564:10 *829:26 0.000863159
12 *564:19 *1564:B2 0
13 *564:19 *1564:A2 0
14 *564:19 *712:40 0
15 *564:19 *830:18 0
16 *564:19 *836:42 8.02595e-05
17 *564:19 *940:36 0
18 *564:19 *1106:88 0
19 *564:34 *1564:C1 0
20 *564:34 *1564:A2 0
21 *564:34 *1569:A2 0
22 *564:34 *575:10 0.00014338
23 *564:34 *825:54 0.00107992
24 *564:34 *828:38 0
25 *1557:B2 *564:19 0
26 *1569:B1 *564:34 4.78521e-05
27 *1851:A0 *564:34 0
28 *205:10 *564:34 0
29 *521:61 *564:10 0
*RES
1 *1556:Y *564:10 44.8488 
2 *564:10 *564:12 20 
3 *564:12 *1557:A1 20 
4 *564:12 *564:19 6.7408 
5 *564:19 *1564:A1 20 
6 *564:19 *564:34 46.7056 
7 *564:34 *1569:A1 20 
*END

*D_NET *565 0.00157591
*CONN
*I *1559:A I *D sg13g2_nand2_1
*I *1557:Y O *D sg13g2_a22oi_1
*CAP
1 *1559:A 5.28114e-05
2 *1557:Y 0.000556295
3 *565:8 0.000609106
4 *1559:A *1559:B 0
5 *565:8 *566:14 7.52149e-05
6 *565:8 *567:14 7.56299e-05
7 *565:8 *829:26 0
8 *565:8 *830:31 0
9 *565:8 *836:42 0.000126769
10 *393:55 *565:8 0
11 *517:40 *1559:A 8.00842e-05
12 *564:10 *565:8 0
*RES
1 *1557:Y *565:8 44.312 
2 *565:8 *1559:A 40.4576 
*END

*D_NET *566 0.000638408
*CONN
*I *1559:B I *D sg13g2_nand2_1
*I *1558:Y O *D sg13g2_a21oi_1
*CAP
1 *1559:B 6.31811e-05
2 *1558:Y 0.000132759
3 *566:14 0.00019594
4 *566:14 *567:14 8.57335e-05
5 *1559:A *1559:B 0
6 *517:46 *566:14 3.77051e-05
7 *521:61 *1559:B 4.78743e-05
8 *565:8 *566:14 7.52149e-05
*RES
1 *1558:Y *566:14 41.3552 
2 *566:14 *1559:B 40.572 
*END

*D_NET *567 0.00631319
*CONN
*I *1560:A I *D sg13g2_nand2_1
*I *1633:A0 I *D sg13g2_mux2_1
*I *1559:Y O *D sg13g2_nand2_1
*CAP
1 *1560:A 0.000220288
2 *1633:A0 4.62351e-05
3 *1559:Y 0.000151545
4 *567:18 0.00156173
5 *567:14 0.00144675
6 *1560:A *1553:A2 0.000209851
7 *1560:A *917:8 0
8 *1560:A *931:6 0
9 *1560:A *931:12 0
10 *1633:A0 *1553:A2 0
11 *1633:A0 *931:12 8.02269e-05
12 *567:14 *830:31 0
13 *567:18 *1605:A 0
14 *567:18 *669:12 0
15 *567:18 *829:26 0
16 *567:18 *830:31 0
17 *567:18 *932:12 0
18 *567:18 *932:14 0
19 *567:18 *1127:10 0
20 *2125:A *567:18 0.000427575
21 *392:41 *567:14 0.000129283
22 *392:41 *567:18 0
23 *517:46 *567:14 0
24 *517:46 *567:18 0.000181781
25 *529:10 *567:18 0.000609408
26 *530:8 *567:18 0.00108715
27 *533:12 *567:18 0
28 *565:8 *567:14 7.56299e-05
29 *566:14 *567:14 8.57335e-05
*RES
1 *1559:Y *567:14 41.7512 
2 *567:14 *567:18 34.872 
3 *567:18 *1633:A0 20.4576 
4 *567:18 *1560:A 22.0768 
*END

*D_NET *568 0.000732854
*CONN
*I *1561:B1 I *D sg13g2_o21ai_1
*I *1560:Y O *D sg13g2_nand2_1
*CAP
1 *1561:B1 3.02592e-05
2 *1560:Y 7.27224e-05
3 *568:8 0.000102982
4 *1561:B1 *917:8 1.54008e-05
5 *1561:B1 *917:15 4.77425e-05
6 *568:8 *669:12 0.000287758
7 *1909:D *1561:B1 4.77425e-05
8 *562:10 *568:8 0.000128247
*RES
1 *1560:Y *568:8 41.144 
2 *568:8 *1561:B1 40.2728 
*END

*D_NET *569 0.00798516
*CONN
*I *1563:A2 I *D sg13g2_a21oi_1
*I *1669:A1 I *D sg13g2_a21oi_1
*I *1562:Y O *D sg13g2_inv_1
*CAP
1 *1563:A2 0
2 *1669:A1 0.000323427
3 *1562:Y 0.000286827
4 *569:33 0.000630892
5 *569:25 0.0029842
6 *569:8 0.00296356
7 *1669:A1 *1669:A2 0.000112667
8 *1669:A1 *722:23 0
9 *1669:A1 *909:54 0
10 *569:8 *709:16 0
11 *569:8 *712:14 0
12 *569:25 *1564:A2 0
13 *569:25 *1996:RESET_B 0
14 *569:25 *1996:CLK 0
15 *569:25 *1997:CLK 0
16 *569:25 *2021:CLK 0
17 *569:25 *712:22 0
18 *569:25 *726:8 0
19 *569:25 *827:31 0.000144779
20 *569:25 *909:17 0
21 *569:25 *909:32 0
22 *569:25 *909:36 0
23 *569:33 *1564:A2 0
24 *569:33 *1706:A 0
25 *569:33 *570:16 0
26 *569:33 *840:25 0
27 *569:33 *843:25 0.00044322
28 *569:33 *1106:88 0
29 *569:33 *1148:26 0
30 *1708:A *569:25 0
31 *205:10 *569:25 0
32 *224:6 *569:33 1.54008e-05
33 *224:14 *569:25 0
34 *387:74 *569:33 8.01938e-05
*RES
1 *1562:Y *569:8 42.4112 
2 *569:8 *1669:A1 43.2648 
3 *569:8 *569:25 39.4216 
4 *569:25 *569:33 45.5616 
5 *569:33 *1563:A2 20 
*END

*D_NET *570 0.00112868
*CONN
*I *1564:C1 I *D sg13g2_a221oi_1
*I *1563:Y O *D sg13g2_a21oi_1
*CAP
1 *1564:C1 5.22723e-05
2 *1563:Y 0.00027146
3 *570:16 0.000323732
4 *1564:C1 *1564:B2 1.54556e-05
5 *570:16 *571:12 0.000143756
6 *570:16 *571:18 0.000178621
7 *570:16 *940:36 0
8 *1564:B1 *570:16 0.000127936
9 *205:10 *1564:C1 0
10 *387:74 *570:16 1.54449e-05
11 *564:34 *1564:C1 0
12 *569:33 *570:16 0
*RES
1 *1563:Y *570:16 42.7104 
2 *570:16 *1564:C1 40.4576 
*END

*D_NET *571 0.00648819
*CONN
*I *1635:A1 I *D sg13g2_a21oi_1
*I *1566:A1 I *D sg13g2_a21oi_1
*I *1564:Y O *D sg13g2_a221oi_1
*CAP
1 *1635:A1 0
2 *1566:A1 0.000323733
3 *1564:Y 9.41233e-05
4 *571:18 0.00165558
5 *571:12 0.00142597
6 *1566:A1 *1566:A2 1.53311e-05
7 *1566:A1 *1566:B1 0
8 *1566:A1 *2269:A 0
9 *1566:A1 *1137:12 0
10 *571:12 *825:54 9.07988e-05
11 *571:18 *825:54 0.00241686
12 *571:18 *825:60 0
13 *571:18 *1127:51 0
14 *1522:B1 *571:18 0
15 *1564:B1 *571:18 0
16 *1635:B1 *1566:A1 0
17 *1908:RESET_B *1566:A1 0.000143413
18 *1908:RESET_B *571:18 0
19 *132:8 *571:18 0
20 *205:10 *571:12 0
21 *387:74 *571:18 0
22 *517:71 *571:18 0
23 *541:14 *571:18 0
24 *570:16 *571:12 0.000143756
25 *570:16 *571:18 0.000178621
*RES
1 *1564:Y *571:12 41.056 
2 *571:12 *571:18 33.376 
3 *571:18 *1566:A1 23.1328 
4 *571:18 *1635:A1 20 
*END

*D_NET *572 0.000484627
*CONN
*I *1566:B1 I *D sg13g2_a21oi_1
*I *1565:Y O *D sg13g2_nor2_1
*CAP
1 *1566:B1 3.90794e-05
2 *1565:Y 0.000165444
3 *572:8 0.000204524
4 *572:8 *980:12 7.55794e-05
5 *1566:A1 *1566:B1 0
*RES
1 *1565:Y *572:8 41.3552 
2 *572:8 *1566:B1 40.2728 
*END

*D_NET *573 0.00452588
*CONN
*I *1671:A1 I *D sg13g2_a21oi_1
*I *1568:A2 I *D sg13g2_a21oi_1
*I *1567:Y O *D sg13g2_inv_1
*CAP
1 *1671:A1 0
2 *1568:A2 0
3 *1567:Y 0.00011251
4 *573:20 6.19836e-05
5 *573:14 0.00203243
6 *573:10 0.00208296
7 *573:10 *701:27 0
8 *573:10 *702:25 0
9 *573:10 *722:88 0.000129078
10 *573:14 *729:14 0
11 *573:14 *1106:90 0
12 *573:14 *1106:114 0
13 *573:20 *574:12 0
14 *573:20 *1106:88 0
15 *573:20 *1123:71 9.66887e-05
16 *1568:B1 *573:20 0
17 *387:74 *573:20 1.02309e-05
*RES
1 *1567:Y *573:10 41.2056 
2 *573:10 *573:14 40.6008 
3 *573:14 *573:20 40.6006 
4 *573:20 *1568:A2 20 
5 *573:10 *1671:A1 40 
*END

*D_NET *574 0.000986764
*CONN
*I *1569:C1 I *D sg13g2_a221oi_1
*I *1568:Y O *D sg13g2_a21oi_1
*CAP
1 *1569:C1 7.18833e-05
2 *1568:Y 0.000149544
3 *574:12 0.000221427
4 *1569:C1 *1569:B2 0.000144791
5 *1569:C1 *1123:71 0.000162845
6 *574:12 *1090:14 0.000236274
7 *574:12 *1106:88 0
8 *574:12 *1123:71 0
9 *1564:B1 *574:12 0
10 *573:20 *574:12 0
*RES
1 *1568:Y *574:12 41.5048 
2 *574:12 *1569:C1 40.8272 
*END

*D_NET *575 0.0128353
*CONN
*I *1571:A1 I *D sg13g2_a21oi_1
*I *1637:A1 I *D sg13g2_a21oi_1
*I *1569:Y O *D sg13g2_a221oi_1
*CAP
1 *1571:A1 7.521e-05
2 *1637:A1 0.000311193
3 *1569:Y 0.000532176
4 *575:22 0.00142987
5 *575:14 0.00219502
6 *575:10 0.00168373
7 *1571:A1 *1571:B1 1.54008e-05
8 *1637:A1 *1571:B1 4.78688e-05
9 *1637:A1 *703:23 0
10 *575:10 *1569:A2 0.000273218
11 *575:10 *828:38 0.00156583
12 *575:10 *840:25 0.00119262
13 *575:10 *1148:26 0
14 *575:14 *1528:B1 8.00842e-05
15 *575:14 *1535:A1 0.000403114
16 *575:14 *1545:A 8.03692e-05
17 *575:14 *843:25 0
18 *575:14 *928:79 0
19 *575:14 *1136:37 0.000824439
20 *575:14 *1136:46 0.00105098
21 *575:14 *1137:40 0
22 *575:22 *1535:B2 0
23 *575:22 *1538:B2 0
24 *575:22 *1538:A2 0.000575663
25 *575:22 *703:23 0
26 *575:22 *840:33 0
27 *575:22 *912:54 0
28 *575:22 *912:69 0
29 *575:22 *912:80 0
30 *575:22 *1136:84 0.000210364
31 *1637:B1 *1637:A1 0
32 *1851:A0 *575:10 0
33 *1876:D *1571:A1 0
34 *1876:D *1637:A1 0
35 *1876:D *575:22 0
36 *1880:D *575:22 0.000144715
37 *1907:D *1571:A1 0
38 *1907:D *1637:A1 0
39 *1912:D *575:22 0
40 *550:12 *575:22 0
41 *554:8 *575:22 0
42 *564:34 *575:10 0.00014338
*RES
1 *1569:Y *575:10 47.7792 
2 *575:10 *575:14 30.8064 
3 *575:14 *575:22 49.3104 
4 *575:22 *1637:A1 22.816 
5 *575:22 *1571:A1 20.7568 
*END

*D_NET *576 0.000639622
*CONN
*I *1571:B1 I *D sg13g2_a21oi_1
*I *1570:Y O *D sg13g2_nor2_1
*CAP
1 *1571:B1 2.79051e-05
2 *1570:Y 0.000132407
3 *576:8 0.000160312
4 *576:8 *1570:A 7.49652e-05
5 *576:8 *1571:A2 0.000180763
6 *576:8 *712:14 0
7 *1571:A1 *1571:B1 1.54008e-05
8 *1637:A1 *1571:B1 4.78688e-05
9 *187:8 *576:8 0
*RES
1 *1570:Y *576:8 41.3552 
2 *576:8 *1571:B1 40.2728 
*END

*D_NET *577 0.00160264
*CONN
*I *1578:A1 I *D sg13g2_o21ai_1
*I *1572:Y O *D sg13g2_inv_1
*CAP
1 *1578:A1 0.00013896
2 *1572:Y 0.000392173
3 *577:8 0.000531133
4 *1578:A1 *1578:A2 1.54556e-05
5 *1578:A1 *929:54 0.000242423
6 *577:8 *1896:CLK 0
7 *577:8 *592:8 0
8 *577:8 *933:43 0.00023464
9 *1906:D *1578:A1 4.78524e-05
*RES
1 *1572:Y *577:8 44.1008 
2 *577:8 *1578:A1 41.3816 
*END

*D_NET *578 0.0100656
*CONN
*I *2131:A I *D sg13g2_buf_1
*I *1582:A2 I *D sg13g2_o21ai_1
*I *1594:A2 I *D sg13g2_o21ai_1
*I *1580:A2 I *D sg13g2_o21ai_1
*I *1584:A2 I *D sg13g2_o21ai_1
*I *2261:A I *D sg13g2_buf_1
*I *1576:B I *D sg13g2_nand2_1
*I *1573:Y O *D sg13g2_nor2_1
*CAP
1 *2131:A 0.000400866
2 *1582:A2 0
3 *1594:A2 6.23599e-05
4 *1580:A2 0
5 *1584:A2 3.03288e-05
6 *2261:A 0.000270815
7 *1576:B 0
8 *1573:Y 0.000166057
9 *578:65 0.000144107
10 *578:50 0.000370293
11 *578:48 0.000439588
12 *578:44 0.00133801
13 *578:38 0.0017972
14 *578:20 0.000816692
15 *578:8 0.000951629
16 *1584:A2 *1584:B1 4.77425e-05
17 *1594:A2 *933:68 0.000193509
18 *1594:A2 *933:70 1.54008e-05
19 *2131:A *1897:RESET_B 0
20 *2131:A *2135:A 0
21 *2131:A *933:10 0
22 *2261:A *1121:8 0
23 *578:8 *1021:10 0
24 *578:20 *1897:RESET_B 0
25 *578:20 *2135:A 0.000274677
26 *578:20 *933:10 0
27 *578:20 *1021:10 0.000144833
28 *578:20 *1121:8 0
29 *578:38 *933:10 0
30 *578:44 *1588:A1 0
31 *578:44 *1596:A1 4.78028e-05
32 *578:44 *1596:A2 0
33 *578:44 *929:48 0
34 *578:44 *929:54 0
35 *578:44 *933:10 0
36 *578:44 *933:62 0.00086673
37 *578:44 *933:68 1.54008e-05
38 *578:48 *1582:A1 4.77425e-05
39 *578:48 *933:68 0.00026428
40 *578:50 *1584:B1 8.00667e-05
41 *578:50 *933:70 0
42 *578:65 *1580:B1 4.78192e-05
43 *578:65 *1580:A1 1.54556e-05
44 *578:65 *585:8 0.000287343
45 *578:65 *972:12 0
46 *1483:A *2261:A 0
47 *1483:A *578:20 0.000169292
48 *1483:B *578:20 4.79124e-05
49 *108:10 *578:44 0
50 *112:10 *2131:A 0
51 *112:10 *578:38 0
52 *506:8 *578:65 0.000501874
53 *514:10 *578:8 0
54 *514:14 *578:20 0
55 *517:20 *2261:A 0
56 *519:8 *578:20 0.000209763
57 *519:10 *578:38 0
*RES
1 *1573:Y *578:8 41.3552 
2 *578:8 *578:20 25.2976 
3 *578:20 *1576:B 20 
4 *578:20 *2261:A 22.0504 
5 *578:8 *578:38 21.9888 
6 *578:38 *578:44 10.824 
7 *578:44 *578:48 1.8656 
8 *578:48 *578:50 1.7512 
9 *578:50 *1584:A2 20.2728 
10 *578:50 *578:65 42.2616 
11 *578:65 *1580:A2 20 
12 *578:48 *1594:A2 20.968 
13 *578:44 *1582:A2 20 
14 *578:38 *2131:A 23.3704 
*END

*D_NET *581 0.00652762
*CONN
*I *1592:B1 I *D sg13g2_o21ai_1
*I *1590:B1 I *D sg13g2_o21ai_1
*I *1804:B1 I *D sg13g2_o21ai_1
*I *1802:B1 I *D sg13g2_o21ai_1
*I *1586:B1 I *D sg13g2_o21ai_1
*I *2135:A I *D sg13g2_buf_1
*I *1576:Y O *D sg13g2_nand2_1
*CAP
1 *1592:B1 0.000246282
2 *1590:B1 0
3 *1804:B1 0
4 *1802:B1 0.000633006
5 *1586:B1 0
6 *2135:A 0.00032749
7 *1576:Y 5.64571e-05
8 *581:58 0.000699129
9 *581:34 0.000658936
10 *581:30 0.00070018
11 *581:19 0.000617318
12 *581:8 0.000779862
13 *1592:B1 *1592:A2 1.54008e-05
14 *1592:B1 *2258:A 0
15 *1592:B1 *1109:29 0
16 *1592:B1 *1140:30 0
17 *1802:B1 *1585:A 0
18 *1802:B1 *1590:A2 1.54008e-05
19 *1802:B1 *1802:A2 8.02927e-05
20 *1802:B1 *929:27 0
21 *1802:B1 *929:100 8.00842e-05
22 *1802:B1 *1105:23 4.79124e-05
23 *1802:B1 *1105:34 0
24 *1802:B1 *1109:29 0
25 *581:19 *586:8 0.000128248
26 *581:19 *929:10 0
27 *581:30 *586:8 0
28 *581:34 *1590:A2 3.23417e-05
29 *581:58 *1590:A2 0.00050103
30 *581:58 *2258:A 0
31 *581:58 *1105:34 0
32 *1483:A *2135:A 0.000266579
33 *1866:D *1802:B1 4.77425e-05
34 *1867:D *1802:B1 1.54008e-05
35 *2131:A *2135:A 0
36 *110:10 *1592:B1 1.54008e-05
37 *159:10 *1802:B1 0.0001448
38 *290:8 *581:30 0.000128247
39 *290:8 *581:58 0
40 *507:84 *581:19 0
41 *507:84 *581:30 0
42 *507:84 *581:58 0
43 *517:20 *2135:A 1.54008e-05
44 *578:20 *2135:A 0.000274677
*RES
1 *1576:Y *581:8 40.5104 
2 *581:8 *2135:A 43.2296 
3 *581:8 *581:19 4.1008 
4 *581:19 *1586:B1 40 
5 *581:19 *581:30 2.0504 
6 *581:30 *581:34 20.2728 
7 *581:34 *1802:B1 25.28 
8 *581:34 *1804:B1 20 
9 *581:30 *581:58 24.0392 
10 *581:58 *1590:B1 20 
11 *581:58 *1592:B1 22.3232 
*END

*D_NET *583 0.00241492
*CONN
*I *1580:A1 I *D sg13g2_o21ai_1
*I *1579:Y O *D sg13g2_inv_1
*CAP
1 *1580:A1 0.000239929
2 *1579:Y 0.000334467
3 *583:8 0.000574396
4 *1580:A1 *972:12 0
5 *1580:A1 *1102:36 0
6 *583:8 *1102:32 0.000501962
7 *583:8 *1102:69 0.00074871
8 *583:8 *1146:90 0
9 *1903:D *1580:A1 0
10 *578:65 *1580:A1 1.54556e-05
*RES
1 *1579:Y *583:8 44.9456 
2 *583:8 *1580:A1 42.1208 
*END

*D_NET *584 0.000281282
*CONN
*I *1582:A1 I *D sg13g2_o21ai_1
*I *1581:Y O *D sg13g2_inv_1
*CAP
1 *1582:A1 0.00011677
2 *1581:Y 0.00011677
3 *578:48 *1582:A1 4.77425e-05
*RES
1 *1581:Y *1582:A1 41.2056 
*END

*D_NET *585 0.000511681
*CONN
*I *1584:A1 I *D sg13g2_o21ai_1
*I *1583:Y O *D sg13g2_inv_1
*CAP
1 *1584:A1 0
2 *1583:Y 0.000112169
3 *585:8 0.000112169
4 *585:8 *972:12 0
5 *506:8 *585:8 0
6 *507:44 *585:8 0
7 *578:65 *585:8 0.000287343
*RES
1 *1583:Y *585:8 41.3552 
2 *585:8 *1584:A1 40 
*END

*D_NET *586 0.00167235
*CONN
*I *1586:A1 I *D sg13g2_o21ai_1
*I *1585:Y O *D sg13g2_inv_1
*CAP
1 *1586:A1 3.03288e-05
2 *1585:Y 0.000237643
3 *586:8 0.000267972
4 *1586:A1 *1586:A2 4.77425e-05
5 *586:8 *1585:A 7.51285e-05
6 *586:8 *929:10 7.52149e-05
7 *586:8 *929:21 0.00023464
8 *586:8 *929:100 0.00023464
9 *290:8 *586:8 0.00034079
10 *581:19 *586:8 0.000128248
11 *581:30 *586:8 0
*RES
1 *1585:Y *586:8 43.0448 
2 *586:8 *1586:A1 40.2728 
*END

*D_NET *587 0.000751501
*CONN
*I *1588:A1 I *D sg13g2_o21ai_1
*I *1587:Y O *D sg13g2_inv_1
*CAP
1 *1588:A1 0.000368023
2 *1587:Y 0.000368023
3 *1588:A1 *1588:A2 1.54556e-05
4 *1588:A1 *949:10 0
5 *108:10 *1588:A1 0
6 *578:44 *1588:A1 0
*RES
1 *1587:Y *1588:A1 43.3264 
*END

*D_NET *588 0.00154355
*CONN
*I *1590:A1 I *D sg13g2_o21ai_1
*I *1589:Y O *D sg13g2_inv_1
*CAP
1 *1590:A1 0
2 *1589:Y 0.00070765
3 *588:8 0.00070765
4 *588:8 *1902:RESET_B 0
5 *588:8 *673:12 0
6 *588:8 *969:8 0
7 *588:8 *1105:49 0
8 *588:8 *1105:60 0
9 *588:8 *1105:73 0
10 *79:10 *588:8 0.000128247
11 *506:52 *588:8 0
*RES
1 *1589:Y *588:8 47.0576 
2 *588:8 *1590:A1 40 
*END

*D_NET *589 0.00130289
*CONN
*I *1592:A1 I *D sg13g2_o21ai_1
*I *1591:Y O *D sg13g2_inv_1
*CAP
1 *1592:A1 0
2 *1591:Y 0.000241705
3 *589:8 0.000241705
4 *589:8 *1140:22 0.000128742
5 *589:8 *1140:24 0.000290724
6 *589:8 *1140:30 0.000400014
*RES
1 *1591:Y *589:8 43.0448 
2 *589:8 *1592:A1 40 
*END

*D_NET *590 0.00034148
*CONN
*I *1594:A1 I *D sg13g2_o21ai_1
*I *1593:Y O *D sg13g2_inv_1
*CAP
1 *1594:A1 0
2 *1593:Y 0.000132304
3 *590:8 0.000132304
4 *590:8 *1593:A 7.6873e-05
5 *590:8 *1183:18 0
6 *506:8 *590:8 0
*RES
1 *1593:Y *590:8 41.3552 
2 *590:8 *1594:A1 40 
*END

*D_NET *591 0.00202901
*CONN
*I *1596:A1 I *D sg13g2_o21ai_1
*I *1595:Y O *D sg13g2_inv_1
*CAP
1 *1596:A1 2.57863e-05
2 *1595:Y 0.000338171
3 *591:8 0.000363958
4 *1596:A1 *1596:A2 4.77425e-05
5 *591:8 *1596:A2 0.000235055
6 *591:8 *1897:RESET_B 0
7 *591:8 *929:33 0.00050063
8 *591:8 *933:10 0.000128248
9 *591:8 *1105:10 0
10 *289:8 *591:8 0.000341621
11 *578:44 *1596:A1 4.78028e-05
*RES
1 *1595:Y *591:8 44.5232 
2 *591:8 *1596:A1 40.2728 
*END

*D_NET *592 0.00121605
*CONN
*I *1598:A1 I *D sg13g2_o21ai_1
*I *1597:Y O *D sg13g2_inv_1
*CAP
1 *1598:A1 2.56698e-05
2 *1597:Y 0.000407143
3 *592:8 0.000432813
4 *592:8 *1572:A 0.000235556
5 *592:8 *1598:A2 7.52158e-05
6 *592:8 *1896:CLK 0
7 *592:8 *933:43 0
8 *592:8 *965:25 0
9 *1906:D *1598:A1 3.96571e-05
10 *577:8 *592:8 0
*RES
1 *1597:Y *592:8 44.312 
2 *592:8 *1598:A1 40.2266 
*END

*D_NET *593 0.00142799
*CONN
*I *1600:B1 I *D sg13g2_a21oi_1
*I *1599:Y O *D sg13g2_nor2_1
*CAP
1 *1600:B1 9.17913e-05
2 *1599:Y 0.000195155
3 *593:8 0.000286946
4 *1600:B1 *1500:A2 0
5 *593:8 *964:20 0.000130344
6 *1895:D *1600:B1 0
7 *524:10 *593:8 0.000723756
*RES
1 *1599:Y *593:8 42.8336 
2 *593:8 *1600:B1 40.7568 
*END

*D_NET *594 0.00164346
*CONN
*I *1602:B1 I *D sg13g2_a21oi_1
*I *1601:Y O *D sg13g2_nor2_1
*CAP
1 *1602:B1 3.19611e-05
2 *1601:Y 0.000158704
3 *594:8 0.000190665
4 *1602:B1 *1109:37 4.79124e-05
5 *594:8 *671:12 0.000713588
6 *594:8 *1109:81 0
7 *594:8 *1132:25 0.00050063
8 *1602:A1 *1602:B1 0
*RES
1 *1601:Y *594:8 42.8336 
2 *594:8 *1602:B1 40.2728 
*END

*D_NET *595 0.000534124
*CONN
*I *1604:B1 I *D sg13g2_a21oi_1
*I *1603:Y O *D sg13g2_nor2_1
*CAP
1 *1604:B1 2.78801e-05
2 *1603:Y 0.000124633
3 *595:8 0.000152513
4 *595:8 *1101:49 0
5 *595:8 *1129:28 0.000181279
6 *1604:A1 *1604:B1 4.78192e-05
7 *407:14 *595:8 0
*RES
1 *1603:Y *595:8 41.3552 
2 *595:8 *1604:B1 40.2728 
*END

*D_NET *596 0.00090045
*CONN
*I *1606:B1 I *D sg13g2_a21oi_1
*I *1605:Y O *D sg13g2_nor2_1
*CAP
1 *1606:B1 3.29776e-05
2 *1605:Y 0.00018198
3 *596:8 0.000214958
4 *1606:B1 *1507:A1 0
5 *1606:B1 *1507:A2 0
6 *596:8 *1605:A 7.49652e-05
7 *596:8 *1606:A2 0.000395569
8 *1606:A1 *1606:B1 0
*RES
1 *1605:Y *596:8 42.2 
2 *596:8 *1606:B1 40.2728 
*END

*D_NET *597 0.00102944
*CONN
*I *1608:B1 I *D sg13g2_a21oi_1
*I *1607:Y O *D sg13g2_nor2_1
*CAP
1 *1608:B1 3.77166e-05
2 *1607:Y 0.00017799
3 *597:8 0.000215706
4 *597:8 *1607:B 0.00018128
5 *597:8 *695:12 0
6 *597:8 *1132:36 0.00018128
7 *597:8 *1132:45 0.00023547
*RES
1 *1607:Y *597:8 42.2 
2 *597:8 *1608:B1 40.2728 
*END

*D_NET *598 0.000548867
*CONN
*I *1610:B1 I *D sg13g2_a21oi_1
*I *1609:Y O *D sg13g2_nor2_1
*CAP
1 *1610:B1 2.89295e-05
2 *1609:Y 0.000130971
3 *598:8 0.0001599
4 *1610:B1 *1108:34 4.77863e-05
5 *598:8 *1711:A1 0
6 *598:8 *1132:55 0.00018128
7 *1610:A1 *598:8 0
*RES
1 *1609:Y *598:8 41.3552 
2 *598:8 *1610:B1 40.2728 
*END

*D_NET *599 0.00203263
*CONN
*I *1612:B1 I *D sg13g2_a21oi_1
*I *1611:Y O *D sg13g2_nor2_1
*CAP
1 *1612:B1 0
2 *1611:Y 0.000514604
3 *599:10 0.000514604
4 *599:10 *957:16 7.51285e-05
5 *599:10 *1148:48 0.000395067
6 *599:10 *1148:59 0.000533225
7 *120:10 *599:10 0
8 *536:10 *599:10 0
*RES
1 *1611:Y *599:10 45.6408 
2 *599:10 *1612:B1 40 
*END

*D_NET *600 0.000688772
*CONN
*I *1614:B1 I *D sg13g2_a21oi_1
*I *1613:Y O *D sg13g2_nor2_1
*CAP
1 *1614:B1 3.62132e-05
2 *1613:Y 0.000137778
3 *600:8 0.000173991
4 *1614:B1 *2180:A 0
5 *600:8 *1613:B 0.000159598
6 *600:8 *773:12 0
7 *600:8 *1131:73 0.000181192
*RES
1 *1613:Y *600:8 41.3552 
2 *600:8 *1614:B1 40.2728 
*END

*D_NET *601 0.00107278
*CONN
*I *1616:B1 I *D sg13g2_a21oi_1
*I *1615:Y O *D sg13g2_nor2_1
*CAP
1 *1616:B1 4.41063e-05
2 *1615:Y 0.000257143
3 *601:8 0.00030125
4 *601:8 *1523:A 0.000341621
5 *601:8 *1615:A 0
6 *601:8 *1615:B 0
7 *539:18 *601:8 0.000128663
8 *540:8 *601:8 0
*RES
1 *1615:Y *601:8 42.6224 
2 *601:8 *1616:B1 40.2728 
*END

*D_NET *602 0.00121824
*CONN
*I *1618:B1 I *D sg13g2_a21oi_1
*I *1617:Y O *D sg13g2_nor2_1
*CAP
1 *1618:B1 3.28747e-05
2 *1617:Y 0.00021119
3 *602:8 0.000244065
4 *1618:B1 *1110:102 0
5 *602:8 *1920:CLK 0.000554204
6 *602:8 *723:12 0.00012816
7 *602:8 *1131:47 0
8 *1527:A1 *1618:B1 4.77425e-05
*RES
1 *1617:Y *602:8 42.6224 
2 *602:8 *1618:B1 40.2728 
*END

*D_NET *603 0.000514692
*CONN
*I *1620:B1 I *D sg13g2_a21oi_1
*I *1619:Y O *D sg13g2_nor2_1
*CAP
1 *1620:B1 0.000184963
2 *1619:Y 0.000184963
3 *1620:B1 *661:12 0
4 *1620:B1 *1134:30 0
5 *1620:A1 *1620:B1 0
6 *1885:D *1620:B1 0.000144767
*RES
1 *1619:Y *1620:B1 41.7072 
*END

*D_NET *823 0.00246809
*CONN
*P axi_lite_i[0] I
*I *2327:A I *D sg13g2_dlygate4sd3_1
*CAP
1 axi_lite_i[0] 0.00106426
2 *2327:A 0.00106426
3 *2327:A *2004:RESET_B 0.000339573
4 axi_lite_o[0] *2327:A 0
5 *134:12 *2327:A 0
*RES
1 axi_lite_i[0] *2327:A 31.1496 
*END

*D_NET *822 0.00236874
*CONN
*P axi_lite_i[10] I
*I *2227:A I *D sg13g2_buf_1
*CAP
1 axi_lite_i[10] 0.00118437
2 *2227:A 0.00118437
3 *2324:A *2227:A 0
*RES
1 axi_lite_i[10] *2227:A 32.408 
*END

*D_NET *821 0.00563977
*CONN
*P axi_lite_i[11] I
*I *2301:A I *D sg13g2_dlygate4sd3_1
*CAP
1 axi_lite_i[11] 0.00160824
2 *2301:A 0
3 *821:11 0.00160824
4 *821:11 *2225:A 0
5 *2293:A *821:11 0.000274693
6 *2302:A *821:11 0.0001127
7 *2315:A *821:11 8.02269e-05
8 *800:13 *821:11 0.00195567
*RES
1 axi_lite_i[11] *821:11 37.644 
2 *821:11 *2301:A 20 
*END

*D_NET *820 0.00163427
*CONN
*P axi_lite_i[12] I
*I *2315:A I *D sg13g2_dlygate4sd3_1
*CAP
1 axi_lite_i[12] 0.000777022
2 *2315:A 0.000777022
3 *2315:A *821:11 8.02269e-05
4 *2302:A *2315:A 0
*RES
1 axi_lite_i[12] *2315:A 48.316 
*END

*D_NET *818 0.00143967
*CONN
*P axi_lite_i[13] I
*I *2313:A I *D sg13g2_dlygate4sd3_1
*CAP
1 axi_lite_i[13] 0.000719837
2 *2313:A 0.000719837
*RES
1 axi_lite_i[13] *2313:A 47.8584 
*END

*D_NET *808 0.007441
*CONN
*P axi_lite_i[15] I
*I *2303:A I *D sg13g2_dlygate4sd3_1
*CAP
1 axi_lite_i[15] 0.00297107
2 *2303:A 0.00297107
3 *2303:A *1238:A 0
4 *2303:A *1239:B 0
5 *2303:A *1941:RESET_B 0
6 *2303:A *1968:RESET_B 0
7 *2303:A *2223:A 0.000242017
8 *2303:A *2317:A 0
9 *2303:A *914:66 0
10 *2303:A *915:35 0.000273869
11 *2303:A *920:47 0.000209505
12 *2303:A *920:57 4.77425e-05
13 *2303:A *920:88 0.000176753
14 *2303:A *1170:12 0
15 *1299:A0 *2303:A 0
16 *1337:B1 *2303:A 8.0128e-05
17 *1357:A *2303:A 0
18 *1434:A1 *2303:A 0
19 *1941:D *2303:A 0
20 *1967:D *2303:A 0
21 *2028:D *2303:A 0
22 *436:12 *2303:A 0
23 *610:8 *2303:A 0.000468858
24 *612:12 *2303:A 0
*RES
1 axi_lite_i[15] *2303:A 46.2592 
*END

*D_NET *817 0.00460269
*CONN
*P axi_lite_i[16] I
*I *2298:A I *D sg13g2_dlygate4sd3_1
*CAP
1 axi_lite_i[16] 0.00132508
2 *2298:A 0.000303457
3 *817:9 0.00162854
4 *2298:A *1968:RESET_B 0.000274583
5 *2298:A *914:66 0.000274189
6 *817:9 *1968:CLK 8.0194e-05
7 *817:9 *1165:10 0.000442309
8 *1942:CLK *2298:A 0.000274332
9 *2317:A *817:9 0
10 *285:10 *817:9 0
11 *612:12 *2298:A 0
12 *612:12 *817:9 0
*RES
1 axi_lite_i[16] *817:9 32.3552 
2 *817:9 *2298:A 43.0448 
*END

*D_NET *816 0.0020329
*CONN
*P axi_lite_i[17] I
*I *2317:A I *D sg13g2_dlygate4sd3_1
*CAP
1 axi_lite_i[17] 0.00101645
2 *2317:A 0.00101645
3 *2317:A *817:9 0
4 *2303:A *2317:A 0
*RES
1 axi_lite_i[17] *2317:A 29.1168 
*END

*D_NET *815 0.00386231
*CONN
*P axi_lite_i[18] I
*I *2311:A I *D sg13g2_dlygate4sd3_1
*CAP
1 axi_lite_i[18] 0.00141325
2 *2311:A 0.00141325
3 *2311:A *2214:A 0.000529058
4 *2300:A *2311:A 0.000506761
*RES
1 axi_lite_i[18] *2311:A 33.1648 
*END

*D_NET *814 0.00165243
*CONN
*P axi_lite_i[19] I
*I *2304:A I *D sg13g2_dlygate4sd3_1
*CAP
1 axi_lite_i[19] 0.000826214
2 *2304:A 0.000826214
*RES
1 axi_lite_i[19] *2304:A 28.7296 
*END

*D_NET *813 0.00193826
*CONN
*P axi_lite_i[1] I
*I *2310:A I *D sg13g2_dlygate4sd3_1
*CAP
1 axi_lite_i[1] 0.000969131
2 *2310:A 0.000969131
3 axi_lite_o[35] *2310:A 0
*RES
1 axi_lite_i[1] *2310:A 30.3224 
*END

*D_NET *812 0.00344183
*CONN
*P axi_lite_i[20] I
*I *2321:A I *D sg13g2_dlygate4sd3_1
*CAP
1 axi_lite_i[20] 0.000215791
2 *2321:A 0
3 *812:17 0.00150512
4 *812:11 0.00172091
*RES
1 axi_lite_i[20] *812:11 41.7952 
2 *812:11 *812:17 37.0192 
3 *812:17 *2321:A 40 
*END

*D_NET *811 0.00312286
*CONN
*P axi_lite_i[21] I
*I *2307:A I *D sg13g2_dlygate4sd3_1
*CAP
1 axi_lite_i[21] 0.00145359
2 *2307:A 0.00145359
3 *2307:A *2214:A 0
4 *2307:A *2217:A 0
5 *2307:A *2220:A 0.00021568
6 *2307:A *915:64 0
7 *1420:A *2307:A 0
8 *2291:A *2307:A 0
*RES
1 axi_lite_i[21] *2307:A 34.6608 
*END

*D_NET *810 0.00282243
*CONN
*P axi_lite_i[22] I
*I *2291:A I *D sg13g2_dlygate4sd3_1
*CAP
1 axi_lite_i[22] 0.00130636
2 *2291:A 0.00130636
3 *2291:A *2214:A 0.000209713
4 *2291:A *2307:A 0
*RES
1 axi_lite_i[22] *2291:A 31.9152 
*END

*D_NET *809 0.00277183
*CONN
*P axi_lite_i[23] I
*I *2300:A I *D sg13g2_dlygate4sd3_1
*CAP
1 axi_lite_i[23] 0.00113254
2 *2300:A 0.00113254
3 *2300:A *2311:A 0.000506761
*RES
1 axi_lite_i[23] *2300:A 29.1168 
*END

*D_NET *807 0.00167548
*CONN
*P axi_lite_i[24] I
*I *2314:A I *D sg13g2_dlygate4sd3_1
*CAP
1 axi_lite_i[24] 0.000837742
2 *2314:A 0.000837742
3 *797:17 *2314:A 0
*RES
1 axi_lite_i[24] *2314:A 47.8584 
*END

*D_NET *797 0.00231621
*CONN
*P axi_lite_i[25] I
*I *2299:A I *D sg13g2_dlygate4sd3_1
*CAP
1 axi_lite_i[25] 0.0011581
2 *2299:A 0
3 *797:17 0.0011581
4 *797:17 *2212:A 0
5 *797:17 *2314:A 0
6 *620:10 *797:17 0
*RES
1 axi_lite_i[25] *797:17 30.8856 
2 *797:17 *2299:A 20 
*END

*D_NET *806 0.00208524
*CONN
*P axi_lite_i[26] I
*I *2292:A I *D sg13g2_dlygate4sd3_1
*CAP
1 axi_lite_i[26] 0.000994774
2 *2292:A 0.000994774
3 *2292:A *2208:A 8.02924e-05
4 *2309:A *2292:A 1.54008e-05
5 *805:9 *2292:A 0
*RES
1 axi_lite_i[26] *2292:A 48.316 
*END

*D_NET *805 0.00209788
*CONN
*P axi_lite_i[27] I
*I *2312:A I *D sg13g2_dlygate4sd3_1
*CAP
1 axi_lite_i[27] 0.00104894
2 *2312:A 0
3 *805:9 0.00104894
4 *805:9 *2212:A 0
5 *805:9 *2292:A 0
6 *621:10 *805:9 0
*RES
1 axi_lite_i[27] *805:9 30.9032 
2 *805:9 *2312:A 20 
*END

*D_NET *804 0.00231785
*CONN
*P axi_lite_i[28] I
*I *2309:A I *D sg13g2_dlygate4sd3_1
*CAP
1 axi_lite_i[28] 0.00115123
2 *2309:A 0.00115123
3 *2309:A *2208:A 0
4 *2309:A *2292:A 1.54008e-05
*RES
1 axi_lite_i[28] *2309:A 49.5128 
*END

*D_NET *803 0.00144334
*CONN
*P axi_lite_i[29] I
*I *2308:A I *D sg13g2_dlygate4sd3_1
*CAP
1 axi_lite_i[29] 0.000721669
2 *2308:A 0.000721669
3 *2308:A intr_gpio_o[2] 0
*RES
1 axi_lite_i[29] *2308:A 47.8584 
*END

*D_NET *802 0.00215933
*CONN
*P axi_lite_i[30] I
*I *2294:A I *D sg13g2_dlygate4sd3_1
*CAP
1 axi_lite_i[30] 0.0010558
2 *2294:A 0.0010558
3 *2294:A intr_gpio_o[2] 0
4 *2294:A *2207:A 4.77425e-05
*RES
1 axi_lite_i[30] *2294:A 48.6856 
*END

*D_NET *801 0.00231581
*CONN
*P axi_lite_i[31] I
*I *2293:A I *D sg13g2_dlygate4sd3_1
*CAP
1 axi_lite_i[31] 0.00102056
2 *2293:A 0.00102056
3 *2293:A *821:11 0.000274693
4 *2302:A *2293:A 0
*RES
1 axi_lite_i[31] *2293:A 49.9704 
*END

*D_NET *800 0.003661
*CONN
*P axi_lite_i[32] I
*I *2305:A I *D sg13g2_dlygate4sd3_1
*CAP
1 axi_lite_i[32] 0.000852667
2 *2305:A 0
3 *800:13 0.000852667
4 *800:13 *821:11 0.00195567
*RES
1 axi_lite_i[32] *800:13 30.7096 
2 *800:13 *2305:A 20 
*END

*D_NET *799 0.00145624
*CONN
*P axi_lite_i[33] I
*I *2306:A I *D sg13g2_dlygate4sd3_1
*CAP
1 axi_lite_i[33] 0.000728121
2 *2306:A 0.000728121
*RES
1 axi_lite_i[33] *2306:A 47.8584 
*END

*D_NET *798 0.0019271
*CONN
*P axi_lite_i[34] I
*I *2302:A I *D sg13g2_dlygate4sd3_1
*CAP
1 axi_lite_i[34] 0.000907198
2 *2302:A 0.000907198
3 *2302:A *2293:A 0
4 *2302:A *2315:A 0
5 *2302:A *821:11 0.0001127
*RES
1 axi_lite_i[34] *2302:A 48.8616 
*END

*D_NET *796 0.00169704
*CONN
*P axi_lite_i[47] I
*I *2324:A I *D sg13g2_dlygate4sd3_1
*CAP
1 axi_lite_i[47] 0.000848521
2 *2324:A 0.000848521
3 *2324:A *2227:A 0
4 *2323:A *2324:A 0
*RES
1 axi_lite_i[47] *2324:A 28.9144 
*END

*D_NET *786 0.00189433
*CONN
*P axi_lite_i[51] I
*I *2323:A I *D sg13g2_dlygate4sd3_1
*CAP
1 axi_lite_i[51] 0.000947165
2 *2323:A 0.000947165
3 *2323:A *2324:A 0
4 *2323:A *795:11 0
5 *2287:A *2323:A 0
*RES
1 axi_lite_i[51] *2323:A 29.3016 
*END

*D_NET *795 0.00272761
*CONN
*P axi_lite_i[52] I
*I *2322:A I *D sg13g2_dlygate4sd3_1
*CAP
1 axi_lite_i[52] 0.000574582
2 *2322:A 0.000789222
3 *795:11 0.0013638
4 *2322:A *1375:A 0
5 *2322:A *2198:A 0
6 *2322:A *2201:A 0
7 *2322:A *1154:10 0
8 *2322:A *1189:12 0
9 *2287:A *2322:A 0
10 *2287:A *795:11 0
11 *2323:A *795:11 0
*RES
1 axi_lite_i[52] *795:11 45.1744 
2 *795:11 *2322:A 27.6648 
*END

*D_NET *794 0.00355919
*CONN
*P axi_lite_i[53] I
*I *2318:A I *D sg13g2_dlygate4sd3_1
*CAP
1 axi_lite_i[53] 0.000115191
2 *2318:A 0.00105708
3 *794:11 0.00117227
4 *2326:A *2318:A 0.00103081
5 *2326:A *794:11 0
6 *658:18 *2318:A 0
7 *793:11 *794:11 0.000183828
8 *793:17 *2318:A 0
*RES
1 axi_lite_i[53] *794:11 41.1352 
2 *794:11 *2318:A 30.4368 
*END

*D_NET *793 0.00773118
*CONN
*P axi_lite_i[54] I
*I *2320:A I *D sg13g2_dlygate4sd3_1
*CAP
1 axi_lite_i[54] 0.00030857
2 *2320:A 0
3 *793:17 0.0027062
4 *793:11 0.00301477
5 *793:11 *794:11 0.000183828
6 *793:17 *1826:A 0
7 *793:17 *2005:RESET_B 4.77425e-05
8 *793:17 *2005:CLK 0
9 *793:17 *2015:CLK 0
10 *793:17 *2019:CLK 0
11 *793:17 *2318:A 0
12 *793:17 *1097:63 0.000241979
13 *793:17 *1187:8 0
14 axi_lite_o[36] *793:17 0
15 *1835:B1 *793:17 0
16 *2019:RESET_B *793:17 0
17 *2159:A *793:17 0.000566299
18 *360:12 *793:17 0
19 *360:21 *793:17 0
20 *406:16 *793:17 0.00012816
21 *467:10 *793:17 0.000533635
22 *467:27 *793:17 0
23 *615:20 *793:17 0
24 *652:24 *793:17 0
*RES
1 axi_lite_i[54] *793:11 43.2736 
2 *793:11 *793:17 45.3352 
3 *793:17 *2320:A 40 
*END

*D_NET *792 0.00203474
*CONN
*P axi_lite_i[5] I
*I *2295:A I *D sg13g2_dlygate4sd3_1
*CAP
1 axi_lite_i[5] 0.00101737
2 *2295:A 0.00101737
*RES
1 axi_lite_i[5] *2295:A 30.7448 
*END

*D_NET *791 0.00182291
*CONN
*P axi_lite_i[6] I
*I *2288:A I *D sg13g2_dlygate4sd3_1
*CAP
1 axi_lite_i[6] 0.000911454
2 *2288:A 0.000911454
*RES
1 axi_lite_i[6] *2288:A 29.3016 
*END

*D_NET *790 0.00842648
*CONN
*P axi_lite_i[7] I
*I *2316:A I *D sg13g2_dlygate4sd3_1
*CAP
1 axi_lite_i[7] 0.00275171
2 *2316:A 0
3 *790:17 0.00275171
4 *790:17 *1217:B 8.02598e-05
5 *790:17 *1222:A 8.02598e-05
6 *790:17 *1927:RESET_B 0
7 *790:17 *1928:RESET_B 0
8 *790:17 *1183:14 0
9 axi_lite_o[31] *790:17 0
10 *1201:A2 *790:17 0.00023464
11 *1201:B1 *790:17 0
12 *1223:A *790:17 0
13 *1224:A1 *790:17 0.000121759
14 *1224:B1 *790:17 0
15 *81:10 *790:17 0
16 *325:14 *790:17 0.0014089
17 *518:26 *790:17 0
18 *520:35 *790:17 8.03692e-05
19 *520:39 *790:17 0.00023464
20 *520:54 *790:17 0.000341119
21 *676:10 *790:17 0
22 *682:12 *790:17 0.00034112
23 *683:8 *790:17 0
24 *684:12 *790:17 0
25 *757:12 *790:17 0
26 *763:10 *790:17 0
*RES
1 axi_lite_i[7] *790:17 48.4152 
2 *790:17 *2316:A 20 
*END

*D_NET *789 0.00168668
*CONN
*P axi_lite_i[8] I
*I *2319:A I *D sg13g2_dlygate4sd3_1
*CAP
1 axi_lite_i[8] 0.000843339
2 *2319:A 0.000843339
*RES
1 axi_lite_i[8] *2319:A 28.9144 
*END

*D_NET *788 0.00290905
*CONN
*P axi_lite_i[9] I
*I *2326:A I *D sg13g2_dlygate4sd3_1
*CAP
1 axi_lite_i[9] 0.000939118
2 *2326:A 0.000939118
3 *2326:A *2318:A 0.00103081
4 *2326:A *794:11 0
5 axi_lite_o[36] *2326:A 0
6 *658:18 *2326:A 0
*RES
1 axi_lite_i[9] *2326:A 29.5128 
*END

*D_NET *781 0.00234831
*CONN
*P axi_lite_o[0] O
*I *2187:X O *D sg13g2_buf_1
*CAP
1 axi_lite_o[0] 0.00117416
2 *2187:X 0.00117416
3 axi_lite_o[0] *2004:RESET_B 0
4 axi_lite_o[0] *2004:CLK 0
5 axi_lite_o[0] *2327:A 0
6 *749:8 axi_lite_o[0] 0
*RES
1 *2187:X axi_lite_o[0] 31.8712 
*END

*D_NET *780 0.00191498
*CONN
*P axi_lite_o[10] O
*I *2186:X O *D sg13g2_buf_1
*CAP
1 axi_lite_o[10] 0.000957491
2 *2186:X 0
3 *780:6 0.000957491
4 axi_lite_o[10] *956:10 0
*RES
1 *2186:X *780:6 40 
2 *780:6 axi_lite_o[10] 10.3928 
*END

*D_NET *779 0.00203723
*CONN
*P axi_lite_o[11] O
*I *2185:X O *D sg13g2_buf_1
*CAP
1 axi_lite_o[11] 0.00101861
2 *2185:X 0.00101861
3 axi_lite_o[11] *1014:10 0
4 *740:8 axi_lite_o[11] 0
*RES
1 *2185:X axi_lite_o[11] 30.1376 
*END

*D_NET *778 0.00241765
*CONN
*P axi_lite_o[12] O
*I *2184:X O *D sg13g2_buf_1
*CAP
1 axi_lite_o[12] 0.00112069
2 *2184:X 4.81965e-05
3 *778:8 0.00116889
4 *778:8 *1237:A1 0
5 axi_lite_o[13] axi_lite_o[12] 0
6 *773:12 axi_lite_o[12] 0
7 *774:8 *778:8 7.98712e-05
*RES
1 *2184:X *778:8 40.4576 
2 *778:8 axi_lite_o[12] 9.7592 
*END

*D_NET *777 0.00285729
*CONN
*P axi_lite_o[13] O
*I *2183:X O *D sg13g2_buf_1
*CAP
1 axi_lite_o[13] 0.00128974
2 *2183:X 0.000138907
3 *777:10 0.00142865
4 axi_lite_o[13] axi_lite_o[12] 0
5 *777:10 *992:10 0
6 axi_lite_o[14] *777:10 0
7 axi_lite_o[15] axi_lite_o[13] 0
8 *662:12 axi_lite_o[13] 0
9 *773:12 axi_lite_o[13] 0
10 *774:8 *777:10 0
*RES
1 *2183:X *777:10 41.2848 
2 *777:10 axi_lite_o[13] 10.1816 
*END

*D_NET *776 0.00187605
*CONN
*P axi_lite_o[14] O
*I *2182:X O *D sg13g2_buf_1
*CAP
1 axi_lite_o[14] 0.000938024
2 *2182:X 0.000938024
3 axi_lite_o[14] *777:10 0
4 axi_lite_o[15] axi_lite_o[14] 0
*RES
1 *2182:X axi_lite_o[14] 48.7032 
*END

*D_NET *774 0.00350147
*CONN
*P axi_lite_o[15] O
*I *2181:X O *D sg13g2_buf_1
*CAP
1 axi_lite_o[15] 0.00127952
2 *2181:X 0.000431278
3 *774:8 0.0017108
4 axi_lite_o[15] axi_lite_o[13] 0
5 axi_lite_o[15] axi_lite_o[14] 0
6 *774:8 *1237:A1 0
7 *774:8 *777:10 0
8 *774:8 *778:8 7.98712e-05
9 *774:8 *956:10 0
10 *2181:A *774:8 0
*RES
1 *2181:X *774:8 43.4144 
2 *774:8 axi_lite_o[15] 9.548 
*END

*D_NET *773 0.00363973
*CONN
*P axi_lite_o[16] O
*I *2180:X O *D sg13g2_buf_1
*CAP
1 axi_lite_o[16] 3.98729e-05
2 *2180:X 0
3 *773:12 0.00181987
4 *773:6 0.00177999
5 *773:12 axi_lite_o[12] 0
6 *773:12 axi_lite_o[13] 0
7 *773:12 *1613:A 0
8 *773:12 *1613:B 0
9 *773:12 *956:10 0
10 *773:12 *1131:73 0
11 *600:8 *773:12 0
12 *662:12 *773:12 0
*RES
1 *2180:X *773:6 40 
2 *773:6 *773:12 36.0952 
3 *773:12 axi_lite_o[16] 20.2552 
*END

*D_NET *772 0.00195335
*CONN
*P axi_lite_o[17] O
*I *2179:X O *D sg13g2_buf_1
*CAP
1 axi_lite_o[17] 0.000926453
2 *2179:X 5.02227e-05
3 *772:8 0.000976676
4 *696:12 axi_lite_o[17] 0
*RES
1 *2179:X *772:8 40.4576 
2 *772:8 axi_lite_o[17] 10.1816 
*END

*D_NET *771 0.00226324
*CONN
*P axi_lite_o[18] O
*I *2178:X O *D sg13g2_buf_1
*CAP
1 axi_lite_o[18] 0.00108125
2 *2178:X 5.0373e-05
3 *771:8 0.00113162
4 *771:8 *1208:A1 0
5 *696:12 axi_lite_o[18] 0
6 *743:8 axi_lite_o[18] 0
*RES
1 *2178:X *771:8 40.4576 
2 *771:8 axi_lite_o[18] 10.1816 
*END

*D_NET *770 0.0033627
*CONN
*P axi_lite_o[19] O
*I *2177:X O *D sg13g2_buf_1
*CAP
1 axi_lite_o[19] 0.00157963
2 *2177:X 0.000101716
3 *770:8 0.00168135
4 axi_lite_o[19] *1607:B 0
5 *770:8 *1930:CLK 0
6 axi_lite_o[20] axi_lite_o[19] 0
7 *515:38 axi_lite_o[19] 0
8 *672:8 axi_lite_o[19] 0
9 *744:12 axi_lite_o[19] 0
*RES
1 *2177:X *770:8 40.8272 
2 *770:8 axi_lite_o[19] 15.884 
*END

*D_NET *670 0.00181559
*CONN
*P axi_lite_o[1] O
*I *2229:L_LO O *D sg13g2_tielo
*CAP
1 axi_lite_o[1] 0.000907796
2 *2229:L_LO 0.000907796
3 axi_lite_o[1] axi_lite_o[9] 0
*RES
1 *2229:L_LO axi_lite_o[1] 48.58 
*END

*D_NET *769 0.00299142
*CONN
*P axi_lite_o[20] O
*I *2176:X O *D sg13g2_buf_1
*CAP
1 axi_lite_o[20] 0.00121759
2 *2176:X 0
3 *769:6 0.00121759
4 axi_lite_o[20] axi_lite_o[19] 0
5 *672:8 axi_lite_o[20] 0.000556237
*RES
1 *2176:X *769:6 40 
2 *769:6 axi_lite_o[20] 13.772 
*END

*D_NET *768 0.00272948
*CONN
*P axi_lite_o[21] O
*I *2175:X O *D sg13g2_buf_1
*CAP
1 axi_lite_o[21] 0.001114
2 *2175:X 0.000250743
3 *768:8 0.00136474
4 *768:8 *1231:A 0
*RES
1 *2175:X *768:8 42.3056 
2 *768:8 axi_lite_o[21] 11.2376 
*END

*D_NET *767 0.00369447
*CONN
*P axi_lite_o[22] O
*I *2174:X O *D sg13g2_buf_1
*CAP
1 axi_lite_o[22] 0.00123192
2 *2174:X 0
3 *767:6 0.00123192
4 axi_lite_o[22] *1140:87 0.00104664
5 *346:8 axi_lite_o[22] 0.000183978
6 *761:12 axi_lite_o[22] 0
*RES
1 *2174:X *767:6 40 
2 *767:6 axi_lite_o[22] 14.4056 
*END

*D_NET *766 0.00205364
*CONN
*P axi_lite_o[23] O
*I *2173:X O *D sg13g2_buf_1
*CAP
1 axi_lite_o[23] 0.000930801
2 *2173:X 9.60181e-05
3 *766:8 0.00102682
4 axi_lite_o[23] *1006:8 0
5 *766:8 *1225:A 0
6 *333:8 axi_lite_o[23] 0
7 *685:10 axi_lite_o[23] 0
8 *754:8 *766:8 0
*RES
1 *2173:X *766:8 40.8272 
2 *766:8 axi_lite_o[23] 9.9704 
*END

*D_NET *935 0.00265308
*CONN
*P axi_lite_o[24] O
*I *2172:X O *D sg13g2_buf_1
*CAP
1 axi_lite_o[24] 0.00120733
2 *2172:X 0.000119211
3 *935:8 0.00132654
4 axi_lite_o[24] *1012:8 0
5 *935:8 *1142:25 0
6 axi_lite_o[34] axi_lite_o[24] 0
7 *686:10 axi_lite_o[24] 0
*RES
1 *2172:X *935:8 41.012 
2 *935:8 axi_lite_o[24] 10.604 
*END

*D_NET *763 0.00365471
*CONN
*P axi_lite_o[25] O
*I *2171:X O *D sg13g2_buf_1
*CAP
1 axi_lite_o[25] 0.00152454
2 *2171:X 7.63019e-05
3 *763:18 0.00171349
4 *763:10 0.000265247
5 *763:10 *790:17 0
6 *763:10 *1103:36 0
7 *763:18 *1103:36 0
8 axi_lite_o[28] axi_lite_o[25] 0
9 axi_lite_o[30] axi_lite_o[25] 0
10 *683:8 axi_lite_o[25] 0
11 *757:12 axi_lite_o[25] 0
12 *757:12 *763:10 7.51285e-05
*RES
1 *2171:X *763:10 40.7568 
2 *763:10 *763:18 41.6808 
3 *763:18 axi_lite_o[25] 12.0824 
*END

*D_NET *762 0.00614442
*CONN
*P axi_lite_o[26] O
*I *2170:X O *D sg13g2_buf_1
*CAP
1 axi_lite_o[26] 0.00140775
2 *2170:X 0.00124487
3 *762:8 0.00265261
4 axi_lite_o[26] *1013:8 0
5 axi_lite_o[26] *1138:64 0.000128663
6 *762:8 *1235:B 0
7 *762:8 *1491:A2 0
8 *762:8 *1702:A 0
9 *762:8 *1138:64 0
10 *762:8 *1138:71 0
11 axi_lite_o[29] axi_lite_o[26] 0
12 *1198:A2 *762:8 0
13 *1492:A1 *762:8 0
14 *1704:A2 *762:8 0
15 *222:10 *762:8 0.000500843
16 *323:10 axi_lite_o[26] 0
17 *515:27 *762:8 0.000209681
18 *675:8 axi_lite_o[26] 0
19 *681:8 axi_lite_o[26] 0
*RES
1 *2170:X *762:8 30.0496 
2 *762:8 axi_lite_o[26] 34.1944 
*END

*D_NET *761 0.00355416
*CONN
*P axi_lite_o[27] O
*I *2169:X O *D sg13g2_buf_1
*CAP
1 axi_lite_o[27] 7.16767e-05
2 *2169:X 0
3 *761:12 0.00177708
4 *761:6 0.00170541
5 *761:12 axi_lite_o[22] 0
6 *761:12 *1008:8 0
*RES
1 *2169:X *761:6 40 
2 *761:6 *761:12 37.8904 
3 *761:12 axi_lite_o[27] 20.8272 
*END

*D_NET *760 0.00268594
*CONN
*P axi_lite_o[28] O
*I *2168:X O *D sg13g2_buf_1
*CAP
1 axi_lite_o[28] 0.00131154
2 *2168:X 3.14273e-05
3 *760:8 0.00134297
4 axi_lite_o[28] axi_lite_o[25] 0
5 *760:8 *1103:36 0
6 axi_lite_o[33] axi_lite_o[28] 0
7 *339:8 axi_lite_o[28] 0
*RES
1 *2168:X *760:8 40.2728 
2 *760:8 axi_lite_o[28] 12.232 
*END

*D_NET *759 0.00300116
*CONN
*P axi_lite_o[29] O
*I *2167:X O *D sg13g2_buf_1
*CAP
1 axi_lite_o[29] 0.00094919
2 *2167:X 0.000405809
3 *759:8 0.001355
4 axi_lite_o[29] axi_lite_o[26] 0
5 axi_lite_o[29] *1013:8 0.000291165
6 *759:8 *1142:23 0
7 *759:8 *1142:25 0
8 axi_lite_o[2] axi_lite_o[29] 0
9 *2166:A *759:8 0
10 *686:10 axi_lite_o[29] 0
*RES
1 *2167:X *759:8 43.5992 
2 *759:8 axi_lite_o[29] 10.12 
*END

*D_NET *758 0.00198548
*CONN
*P axi_lite_o[2] O
*I *2166:X O *D sg13g2_buf_1
*CAP
1 axi_lite_o[2] 0.000992739
2 *2166:X 0.000992739
3 axi_lite_o[2] axi_lite_o[29] 0
4 axi_lite_o[34] axi_lite_o[2] 0
*RES
1 *2166:X axi_lite_o[2] 49.6008 
*END

*D_NET *757 0.00475609
*CONN
*P axi_lite_o[30] O
*I *2165:X O *D sg13g2_buf_1
*CAP
1 axi_lite_o[30] 0.00126977
2 *2165:X 0.000475172
3 *757:12 0.00174494
4 axi_lite_o[30] axi_lite_o[25] 0
5 *757:12 axi_lite_o[25] 0
6 *757:12 *763:10 7.51285e-05
7 *757:12 *790:17 0
8 *757:12 *930:39 4.77299e-05
9 *757:12 *1103:36 4.74263e-05
10 axi_lite_o[32] axi_lite_o[30] 0
11 *683:8 *757:12 0.00109593
*RES
1 *2165:X *757:12 46.0456 
2 *757:12 axi_lite_o[30] 8.492 
*END

*D_NET *756 0.00227248
*CONN
*P axi_lite_o[31] O
*I *2164:X O *D sg13g2_buf_1
*CAP
1 axi_lite_o[31] 0.00113624
2 *2164:X 0.00113624
3 axi_lite_o[31] *790:17 0
4 axi_lite_o[32] axi_lite_o[31] 0
*RES
1 *2164:X axi_lite_o[31] 49.8912 
*END

*D_NET *755 0.00278912
*CONN
*P axi_lite_o[32] O
*I *2163:X O *D sg13g2_buf_1
*CAP
1 axi_lite_o[32] 0.00106315
2 *2163:X 0.000331415
3 *755:8 0.00139456
4 axi_lite_o[32] axi_lite_o[30] 0
5 axi_lite_o[32] axi_lite_o[31] 0
6 *2164:A *755:8 0
7 *325:12 *755:8 0
*RES
1 *2163:X *755:8 42.6752 
2 *755:8 axi_lite_o[32] 8.2808 
*END

*D_NET *754 0.00226331
*CONN
*P axi_lite_o[33] O
*I *2162:X O *D sg13g2_buf_1
*CAP
1 axi_lite_o[33] 0.000837218
2 *2162:X 0.000294434
3 *754:8 0.00113165
4 axi_lite_o[33] axi_lite_o[28] 0
5 *754:8 *766:8 0
*RES
1 *2162:X *754:8 42.6752 
2 *754:8 axi_lite_o[33] 8.7032 
*END

*D_NET *752 0.00220919
*CONN
*P axi_lite_o[34] O
*I *2161:X O *D sg13g2_buf_1
*CAP
1 axi_lite_o[34] 0.00110459
2 *2161:X 0.00110459
3 axi_lite_o[34] axi_lite_o[24] 0
4 axi_lite_o[34] axi_lite_o[2] 0
*RES
1 *2161:X axi_lite_o[34] 48.5008 
*END

*D_NET *751 0.00197694
*CONN
*P axi_lite_o[35] O
*I *2160:X O *D sg13g2_buf_1
*CAP
1 axi_lite_o[35] 0.000988469
2 *2160:X 0.000988469
3 axi_lite_o[35] *2310:A 0
4 axi_lite_o[36] axi_lite_o[35] 0
*RES
1 *2160:X axi_lite_o[35] 28.932 
*END

*D_NET *750 0.0020714
*CONN
*P axi_lite_o[36] O
*I *2159:X O *D sg13g2_buf_1
*CAP
1 axi_lite_o[36] 0.0010357
2 *2159:X 0.0010357
3 axi_lite_o[36] axi_lite_o[35] 0
4 axi_lite_o[36] *2326:A 0
5 axi_lite_o[36] *793:17 0
*RES
1 *2159:X axi_lite_o[36] 28.932 
*END

*D_NET *689 0.0016097
*CONN
*P axi_lite_o[37] O
*I *2100:L_LO O *D sg13g2_tielo
*CAP
1 axi_lite_o[37] 0.000804849
2 *2100:L_LO 0.000804849
*RES
1 *2100:L_LO axi_lite_o[37] 48.6856 
*END

*D_NET *749 0.00289627
*CONN
*P axi_lite_o[38] O
*I *2158:X O *D sg13g2_buf_1
*CAP
1 axi_lite_o[38] 0.000546675
2 *2158:X 0.000901459
3 *749:8 0.00144813
4 *749:8 axi_lite_o[0] 0
5 *749:8 *1244:A 0
6 *749:8 *2004:CLK 0
*RES
1 *2158:X *749:8 48.7736 
2 *749:8 axi_lite_o[38] 25.808 
*END

*D_NET *748 0.00249778
*CONN
*P axi_lite_o[39] O
*I *2157:X O *D sg13g2_buf_1
*CAP
1 axi_lite_o[39] 0.00101618
2 *2157:X 0.00101618
3 axi_lite_o[40] axi_lite_o[39] 0.000465411
*RES
1 *2157:X axi_lite_o[39] 29.5304 
*END

*D_NET *747 0.00240529
*CONN
*P axi_lite_o[3] O
*I *2156:X O *D sg13g2_buf_1
*CAP
1 axi_lite_o[3] 0.00120265
2 *2156:X 0.00120265
3 axi_lite_o[4] axi_lite_o[3] 0
4 *740:8 axi_lite_o[3] 0
*RES
1 *2156:X axi_lite_o[3] 29.8384 
*END

*D_NET *746 0.00397636
*CONN
*P axi_lite_o[40] O
*I *2155:X O *D sg13g2_buf_1
*CAP
1 axi_lite_o[40] 0.00122521
2 *2155:X 0.00122521
3 axi_lite_o[40] axi_lite_o[39] 0.000465411
4 axi_lite_o[40] *2286:A 0.00106052
5 *2157:A axi_lite_o[40] 0
*RES
1 *2155:X axi_lite_o[40] 31.2816 
*END

*D_NET *745 0.00363109
*CONN
*P axi_lite_o[4] O
*I *2154:X O *D sg13g2_buf_1
*CAP
1 axi_lite_o[4] 0.000964349
2 *2154:X 0.000964349
3 axi_lite_o[4] axi_lite_o[3] 0
4 axi_lite_o[7] axi_lite_o[4] 0.0017024
5 axi_lite_o[8] axi_lite_o[4] 0
*RES
1 *2154:X axi_lite_o[4] 29.8384 
*END

*D_NET *744 0.00386433
*CONN
*P axi_lite_o[5] O
*I *2153:X O *D sg13g2_buf_1
*CAP
1 axi_lite_o[5] 3.40238e-05
2 *2153:X 0
3 *744:12 0.00193216
4 *744:6 0.00189814
5 *744:12 axi_lite_o[19] 0
6 *744:12 *1208:A1 0
*RES
1 *2153:X *744:6 40 
2 *744:6 *744:12 38.9728 
3 *744:12 axi_lite_o[5] 20.2552 
*END

*D_NET *743 0.00400704
*CONN
*P axi_lite_o[6] O
*I *2152:X O *D sg13g2_buf_1
*CAP
1 axi_lite_o[6] 0.000275159
2 *2152:X 0.000624662
3 *743:12 0.00137886
4 *743:8 0.00172836
5 *743:8 axi_lite_o[18] 0
*RES
1 *2152:X *743:8 45.1568 
2 *743:8 *743:12 30.4368 
3 *743:12 axi_lite_o[6] 22.7896 
*END

*D_NET *741 0.00460191
*CONN
*P axi_lite_o[7] O
*I *2151:X O *D sg13g2_buf_1
*CAP
1 axi_lite_o[7] 0.00140963
2 *2151:X 0.00140963
3 axi_lite_o[7] axi_lite_o[4] 0.0017024
4 axi_lite_o[7] *1701:A1 8.02595e-05
5 axi_lite_o[7] *912:95 0
6 axi_lite_o[7] *963:6 0
7 axi_lite_o[7] *1133:72 0
8 *2156:A axi_lite_o[7] 0
9 *694:14 axi_lite_o[7] 0
10 *740:8 axi_lite_o[7] 0
*RES
1 *2151:X axi_lite_o[7] 34.0624 
*END

*D_NET *740 0.0035259
*CONN
*P axi_lite_o[8] O
*I *2150:X O *D sg13g2_buf_1
*CAP
1 axi_lite_o[8] 0.00013935
2 *2150:X 0.0016236
3 *740:8 0.00176295
4 axi_lite_o[8] axi_lite_o[4] 0
5 *740:8 axi_lite_o[11] 0
6 *740:8 axi_lite_o[3] 0
7 *740:8 axi_lite_o[7] 0
8 *740:8 *1014:10 0
9 *2156:A *740:8 0
10 *661:12 *740:8 0
*RES
1 *2150:X *740:8 33.3232 
2 *740:8 axi_lite_o[8] 41.1616 
*END

*D_NET *739 0.00298748
*CONN
*P axi_lite_o[9] O
*I *2149:X O *D sg13g2_buf_1
*CAP
1 axi_lite_o[9] 0.00143719
2 *2149:X 5.65509e-05
3 *739:8 0.00149374
4 axi_lite_o[1] axi_lite_o[9] 0
5 *2149:A *739:8 0
*RES
1 *2149:X *739:8 40.4576 
2 *739:8 axi_lite_o[9] 14.4056 
*END

*D_NET *738 0.00366819
*CONN
*P cio_gpio_en_o[0] O
*I *2148:X O *D sg13g2_buf_1
*CAP
1 cio_gpio_en_o[0] 0.00136538
2 *2148:X 0.00136538
3 cio_gpio_en_o[0] *924:27 0.000501123
4 cio_gpio_en_o[2] cio_gpio_en_o[0] 0
5 *708:10 cio_gpio_en_o[0] 0.000436319
6 *734:10 cio_gpio_en_o[0] 0
*RES
1 *2148:X cio_gpio_en_o[0] 31.5016 
*END

*D_NET *737 0.00249494
*CONN
*P cio_gpio_en_o[1] O
*I *2147:X O *D sg13g2_buf_1
*CAP
1 cio_gpio_en_o[1] 0.00101666
2 *2147:X 0.00101666
3 cio_gpio_en_o[1] cio_gpio_o[3] 0
4 cio_gpio_en_o[3] cio_gpio_en_o[1] 0.00041387
5 cio_gpio_o[0] cio_gpio_en_o[1] 4.77537e-05
*RES
1 *2147:X cio_gpio_en_o[1] 28.9496 
*END

*D_NET *736 0.00250438
*CONN
*P cio_gpio_en_o[2] O
*I *2146:X O *D sg13g2_buf_1
*CAP
1 cio_gpio_en_o[2] 0.00114732
2 *2146:X 0.00114732
3 cio_gpio_en_o[2] cio_gpio_en_o[0] 0
4 cio_gpio_en_o[2] *924:27 0.000209746
5 cio_gpio_o[1] cio_gpio_en_o[2] 0
6 *732:8 cio_gpio_en_o[2] 0
*RES
1 *2146:X cio_gpio_en_o[2] 29.8384 
*END

*D_NET *735 0.00327159
*CONN
*P cio_gpio_en_o[3] O
*I *2145:X O *D sg13g2_buf_1
*CAP
1 cio_gpio_en_o[3] 0.00128369
2 *2145:X 0.00128369
3 cio_gpio_en_o[3] cio_gpio_en_o[1] 0.00041387
4 cio_gpio_en_o[3] cio_gpio_o[3] 0
5 cio_gpio_o[0] cio_gpio_en_o[3] 0
6 *701:48 cio_gpio_en_o[3] 0.000176685
7 *734:10 cio_gpio_en_o[3] 0.00011366
*RES
1 *2145:X cio_gpio_en_o[3] 30.6216 
*END

*D_NET *787 0.00267512
*CONN
*P cio_gpio_i[0] I
*I *2284:A I *D sg13g2_dlygate4sd3_1
*CAP
1 cio_gpio_i[0] 0.00133756
2 *2284:A 0
3 *787:9 0.00133756
4 *2328:A *787:9 0
*RES
1 cio_gpio_i[0] *787:9 31.6952 
2 *787:9 *2284:A 20 
*END

*D_NET *785 0.00224807
*CONN
*P cio_gpio_i[1] I
*I *2282:A I *D sg13g2_dlygate4sd3_1
*CAP
1 cio_gpio_i[1] 0.00112403
2 *2282:A 0
3 *785:9 0.00112403
*RES
1 cio_gpio_i[1] *785:9 31.22 
2 *785:9 *2282:A 20 
*END

*D_NET *784 0.00300958
*CONN
*P cio_gpio_i[2] I
*I *2286:A I *D sg13g2_dlygate4sd3_1
*CAP
1 cio_gpio_i[2] 0.00097453
2 *2286:A 0.00097453
3 axi_lite_o[40] *2286:A 0.00106052
*RES
1 cio_gpio_i[2] *2286:A 29.9 
*END

*D_NET *783 0.00190581
*CONN
*P cio_gpio_i[3] I
*I *2287:A I *D sg13g2_dlygate4sd3_1
*CAP
1 cio_gpio_i[3] 0.000952904
2 *2287:A 0.000952904
3 *2287:A *2322:A 0
4 *2287:A *2323:A 0
5 *2287:A *795:11 0
*RES
1 cio_gpio_i[3] *2287:A 29.6888 
*END

*D_NET *734 0.00361731
*CONN
*P cio_gpio_o[0] O
*I *2144:X O *D sg13g2_buf_1
*CAP
1 cio_gpio_o[0] 0.000135057
2 *2144:X 0.00139254
3 *734:10 0.0015276
4 cio_gpio_o[0] cio_gpio_en_o[1] 4.77537e-05
5 cio_gpio_o[0] cio_gpio_en_o[3] 0
6 *734:10 cio_gpio_en_o[0] 0
7 *734:10 cio_gpio_en_o[3] 0.00011366
8 *1637:B1 *734:10 0
9 *2141:A *734:10 0
10 *701:48 *734:10 0.0004007
11 *708:10 *734:10 0
*RES
1 *2144:X *734:10 31.5632 
2 *734:10 cio_gpio_o[0] 41.1352 
*END

*D_NET *733 0.00240206
*CONN
*P cio_gpio_o[1] O
*I *2143:X O *D sg13g2_buf_1
*CAP
1 cio_gpio_o[1] 0.00120103
2 *2143:X 0.00120103
3 cio_gpio_o[1] cio_gpio_en_o[2] 0
4 *722:88 cio_gpio_o[1] 0
5 *732:8 cio_gpio_o[1] 0
*RES
1 *2143:X cio_gpio_o[1] 32.1792 
*END

*D_NET *732 0.00244592
*CONN
*P cio_gpio_o[2] O
*I *2142:X O *D sg13g2_buf_1
*CAP
1 cio_gpio_o[2] 0.000244723
2 *2142:X 0.000978239
3 *732:8 0.00122296
4 *732:8 cio_gpio_en_o[2] 0
5 *732:8 cio_gpio_o[1] 0
*RES
1 *2142:X *732:8 49.6976 
2 *732:8 cio_gpio_o[2] 22.2176 
*END

*D_NET *819 0.00204066
*CONN
*P cio_gpio_o[3] O
*I *2141:X O *D sg13g2_buf_1
*CAP
1 cio_gpio_o[3] 0.00102033
2 *2141:X 0.00102033
3 cio_gpio_en_o[1] cio_gpio_o[3] 0
4 cio_gpio_en_o[3] cio_gpio_o[3] 0
5 *1876:D cio_gpio_o[3] 0
*RES
1 *2141:X cio_gpio_o[3] 29.8384 
*END

*D_NET *712 0.0186624
*CONN
*P clk_i I
*I *2238:A I *D sg13g2_buf_8
*CAP
1 clk_i 0.00104055
2 *2238:A 0.000193966
3 *712:40 0.0013771
4 *712:28 0.00198804
5 *712:22 0.00280392
6 *712:14 0.00610866
7 *712:8 0.0051502
8 *2238:A *1557:B1 0
9 *2238:A *1106:61 0
10 *712:14 *1570:A 0
11 *712:14 *1881:CLK 0
12 *712:14 *912:95 0
13 *712:14 *924:38 0
14 *712:14 *1133:72 0
15 *712:22 intr_gpio_o[3] 0
16 *712:22 *1996:CLK 0
17 *712:22 *1997:CLK 0
18 *712:22 *2112:A 0
19 *712:22 *835:6 0
20 *712:22 *909:32 0
21 *712:22 *909:36 0
22 *712:28 *729:14 0
23 *712:40 *1557:B1 0
24 *712:40 *826:35 0
25 *712:40 *1106:61 0
26 *712:40 *1106:78 0
27 *712:40 *1106:88 0
28 *1307:A0 *712:22 0
29 *1557:B2 *712:40 0
30 *1708:A *712:22 0
31 *1792:A0 *712:14 0
32 *1792:A1 *712:14 0
33 *1858:B1 *712:40 0
34 *187:8 *712:14 0
35 *285:10 *712:14 0
36 *285:14 *712:22 0
37 *393:59 *712:28 0
38 *413:35 *712:22 0
39 *564:19 *712:40 0
40 *569:8 *712:14 0
41 *569:25 *712:22 0
42 *576:8 *712:14 0
43 *703:23 *712:14 0
44 *708:18 *712:14 0
45 *709:16 *712:14 0
*RES
1 clk_i *712:8 30.7624 
2 *712:8 *712:14 39.7056 
3 *712:14 *712:22 35.444 
4 *712:22 *712:28 48.0344 
5 *712:28 *712:40 49.6976 
6 *712:40 *2238:A 21.7336 
*END

*D_NET *1106 0.0271002
*CONN
*I *2280:A I *D sg13g2_buf_8
*I *2245:A I *D sg13g2_buf_8
*I *1444:A I *D sg13g2_buf_8
*I *2232:A I *D sg13g2_buf_8
*I *2238:X O *D sg13g2_buf_8
*CAP
1 *2280:A 0.000114813
2 *2245:A 0.000108966
3 *1444:A 6.86298e-05
4 *2232:A 0.000101826
5 *2238:X 0.000304338
6 *1106:114 0.00179802
7 *1106:98 0.000623466
8 *1106:94 0.00266496
9 *1106:90 0.00413578
10 *1106:88 0.00133557
11 *1106:78 0.00186253
12 *1106:61 0.00103243
13 *1106:43 0.00197259
14 *1106:27 0.00260609
15 *1106:21 0.00490947
16 *1106:15 0.00193051
17 *1106:6 0.00153025
18 *1444:A *1139:83 0
19 *2280:A *1148:90 0
20 *1106:15 *1147:77 0
21 *1106:21 *1147:6 0
22 *1106:21 *1147:13 0
23 *1106:21 *1147:77 0
24 *1106:27 *2011:CLK 0
25 *1106:27 *2049:CLK 0
26 *1106:27 *2058:CLK 0
27 *1106:27 *1116:50 0
28 *1106:27 *1116:61 0
29 *1106:88 *1123:71 0
30 *1106:88 *1148:26 0
31 *1106:94 *1337:A1 0
32 *1106:94 *1125:10 0
33 *1106:98 *1113:77 0
34 *1528:B1 *1106:114 0
35 *1535:A1 *1106:114 0
36 *1555:B *1106:61 0
37 *1556:A *1106:61 0
38 *1557:B2 *1106:78 0
39 *1568:B1 *1106:88 0
40 *1679:B *1106:15 0
41 *1730:A0 *1106:15 0
42 *1764:B *1106:21 0
43 *1777:A_N *1106:43 0
44 *1786:S *1106:15 0
45 *1836:A *1106:114 0
46 *1853:B *1106:43 0
47 *1854:A *1106:78 0
48 *1856:A *1106:88 0
49 *1857:B *1106:78 0
50 *1858:B1 *1106:78 0
51 *1915:RESET_B *1106:114 0
52 *1969:CLK *1106:98 0
53 *1994:RESET_B *1106:15 0
54 *2011:RESET_B *2232:A 0
55 *2011:RESET_B *1106:27 0
56 *2037:CLK *1106:94 0
57 *2053:RESET_B *1106:15 0
58 *2074:RESET_B *1106:27 0
59 *2238:A *1106:61 0
60 *149:12 *1106:15 0
61 *164:10 *1106:43 0
62 *224:6 *1106:88 0
63 *262:8 *1106:43 0
64 *262:14 *1106:43 0
65 *273:24 *1106:43 0
66 *274:8 *1106:43 0
67 *307:35 *1106:114 0
68 *308:8 *1106:114 0
69 *318:12 *1106:78 0
70 *387:74 *1106:88 0
71 *392:10 *1106:43 0
72 *392:16 *1106:15 0
73 *399:12 *1106:27 0
74 *521:61 *1106:78 0
75 *543:8 *1106:114 0
76 *564:19 *1106:88 0
77 *569:33 *1106:88 0
78 *573:14 *1106:90 0
79 *573:14 *1106:114 0
80 *573:20 *1106:88 0
81 *574:12 *1106:88 0
82 *712:40 *1106:61 0
83 *712:40 *1106:78 0
84 *712:40 *1106:88 0
85 *718:84 *1106:6 0
86 *718:84 *1106:15 0
87 *718:84 *1106:61 0
88 *729:14 *1106:90 0
89 *729:14 *1106:114 0
90 *826:35 *1106:78 0
91 *827:41 *1106:94 0
92 *827:41 *1106:114 0
93 *834:37 *1106:15 0
94 *835:29 *1106:94 0
95 *839:29 *1106:114 0
96 *851:8 *1106:27 0
97 *851:12 *1106:27 0
98 *851:43 *1106:27 0
99 *851:56 *1106:27 0
100 *851:69 *1106:27 0
101 *861:12 *1106:27 0
102 *881:10 *1444:A 0
103 *881:10 *1106:43 0
104 *883:12 *1106:43 0
105 *886:8 *1106:27 0
106 *897:8 *1106:15 0
107 *897:8 *1106:21 0
108 *897:23 *1106:15 0
109 *897:27 *1106:15 0
110 *908:22 *1106:94 0
111 *908:24 *1106:94 0
112 *908:75 *1106:94 0
113 *912:14 *2280:A 0
114 *914:6 *1106:98 0
115 *914:14 *1106:94 0
116 *914:23 *1106:98 0
117 *914:38 *1106:98 0
118 *936:21 *1106:27 0
119 *936:34 *1106:27 0
120 *936:34 *1106:43 0
121 *936:70 *1106:43 0
122 *936:85 *1106:43 0
123 *938:60 *1106:15 0
124 *1079:25 *1106:27 0
125 *1079:27 *2232:A 0
126 *1079:27 *1106:27 0
127 *1093:12 *1106:78 0
*RES
1 *2238:X *1106:6 20.7348 
2 *1106:6 *1106:15 32.8348 
3 *1106:15 *1106:21 43.784 
4 *1106:21 *1106:27 42.88 
5 *1106:27 *2232:A 21.012 
6 *1106:21 *1106:43 15.2064 
7 *1106:43 *1444:A 40.6424 
8 *2238:X *1106:61 21.7512 
9 *1106:61 *1106:78 46.8288 
10 *1106:78 *1106:88 48.448 
11 *1106:88 *1106:90 2.6752 
12 *1106:90 *1106:94 35.928 
13 *1106:94 *1106:98 23.784 
14 *1106:98 *2245:A 20.8272 
15 *1106:90 *1106:114 32.584 
16 *1106:114 *2280:A 40.8272 
*END

*D_NET *1100 0.0247356
*CONN
*I *2275:A I *D sg13g2_buf_16
*I *2273:A I *D sg13g2_buf_16
*I *2247:A I *D sg13g2_buf_16
*I *2248:A I *D sg13g2_buf_16
*I *2249:A I *D sg13g2_buf_16
*I *2252:A I *D sg13g2_buf_16
*I *2121:A I *D sg13g2_buf_16
*I *2232:X O *D sg13g2_buf_8
*CAP
1 *2275:A 0.000376985
2 *2273:A 0
3 *2247:A 0
4 *2248:A 5.08636e-05
5 *2249:A 0.000560487
6 *2252:A 0
7 *2121:A 0.000576927
8 *2232:X 0.000224849
9 *1100:83 0.00197395
10 *1100:71 0.0024825
11 *1100:64 0.00136626
12 *1100:49 0.00237256
13 *1100:43 0.00129331
14 *1100:20 0.00105285
15 *1100:14 0.00166786
16 *1100:8 0.00106262
17 *2121:A *1120:69 0
18 *2121:A *1120:73 0
19 *2248:A *2058:CLK 0
20 *2249:A *1117:78 0
21 *1100:14 *2072:CLK 0.000240426
22 *1100:49 *1143:92 0
23 *1100:64 *2058:CLK 0
24 *1100:64 *1147:21 0.000234224
25 *1100:64 *1147:31 0
26 *1100:83 *1143:10 0.000501392
27 *1100:83 *1143:33 0
28 *1100:83 *1187:16 0
29 *1265:A1 *2275:A 0
30 *1374:A *1100:83 0
31 *1374:B *1100:83 0
32 *1438:B1 *1100:83 0
33 *1662:B *1100:64 0.000922891
34 *1724:B *1100:49 0
35 *1781:S *1100:64 0
36 *1817:B *1100:49 4.77425e-05
37 *1818:A1 *2275:A 0.000957803
38 *1818:A1 *1100:71 0.000287342
39 *1818:A2 *1100:43 5.30319e-05
40 *1818:A2 *1100:71 0.000235055
41 *1819:B *1100:8 0
42 *1833:B *1100:83 0
43 *1862:D *1100:49 0
44 *1940:D *1100:49 0
45 *1966:RESET_B *1100:83 0.000759767
46 *2015:D *1100:83 4.77699e-05
47 *2018:RESET_B *1100:83 0
48 *2018:D *1100:83 4.79124e-05
49 *2049:D *2249:A 0
50 *2065:D *2121:A 0
51 *2128:A *1100:14 0.000607501
52 *373:14 *2275:A 2.19969e-05
53 *401:12 *1100:20 0
54 *466:8 *1100:83 0.000144561
55 *466:16 *1100:83 0.000112683
56 *474:64 *1100:14 0.00111824
57 *474:64 *1100:43 0.000661386
58 *475:49 *1100:83 0
59 *475:58 *1100:49 0
60 *475:58 *1100:83 0
61 *475:66 *1100:49 0.00033942
62 *652:16 *1100:83 0
63 *706:28 *2249:A 0.000562706
64 *706:28 *1100:14 0.000240502
65 *707:14 *1100:8 0
66 *707:14 *1100:49 0
67 *834:12 *1100:64 0.000242483
68 *851:56 *1100:49 0
69 *851:69 *1100:64 0
70 *859:8 *1100:64 0
71 *859:18 *2248:A 0
72 *859:18 *1100:64 0
73 *873:22 *2121:A 0
74 *873:22 *1100:20 0.000234758
75 *873:56 *2249:A 0.000304677
76 *897:8 *1100:64 0
77 *936:21 *1100:64 0
78 *937:12 *2249:A 0.000112182
79 *937:34 *2249:A 0.000240167
80 *1079:58 *2275:A 0
81 *1086:14 *1100:83 0
82 *1095:12 *2249:A 0
83 *1095:33 *2121:A 0
84 *1095:33 *1100:20 0.000394981
85 *1095:37 *2121:A 0
86 *1095:65 *2121:A 0
87 *1095:71 *2121:A 0
*RES
1 *2232:X *1100:8 42.1208 
2 *1100:8 *1100:14 28.228 
3 *1100:14 *1100:20 44.9456 
4 *1100:20 *2121:A 25.192 
5 *1100:20 *2252:A 20 
6 *1100:14 *2249:A 25.2624 
7 *1100:8 *1100:43 2.8336 
8 *1100:43 *1100:49 48.0344 
9 *1100:49 *2248:A 40.5104 
10 *1100:49 *1100:64 33.5872 
11 *1100:64 *2247:A 20 
12 *1100:43 *1100:71 1.7776 
13 *1100:71 *1100:83 37.8904 
14 *1100:83 *2273:A 20 
15 *1100:71 *2275:A 44.4616 
*END

*D_NET *507 0.0279991
*CONN
*I *2272:A I *D sg13g2_buf_16
*I *2274:A I *D sg13g2_buf_16
*I *2271:A I *D sg13g2_buf_16
*I *2279:A I *D sg13g2_buf_16
*I *2277:A I *D sg13g2_buf_16
*I *2278:A I *D sg13g2_buf_16
*I *2276:A I *D sg13g2_buf_16
*I *1444:X O *D sg13g2_buf_8
*CAP
1 *2272:A 0.000511187
2 *2274:A 0
3 *2271:A 0
4 *2279:A 0
5 *2277:A 0.000378702
6 *2278:A 0.000780163
7 *2276:A 0.000110702
8 *1444:X 0.000715232
9 *507:100 0.000896533
10 *507:86 0.00140772
11 *507:84 0.00200997
12 *507:73 0.00217238
13 *507:59 0.0010845
14 *507:44 0.00198011
15 *507:27 0.00354532
16 *507:25 0.00133194
17 *507:10 0.000655896
18 *507:8 0.00201432
19 *2272:A *1492:A2 0
20 *2276:A *1104:82 0
21 *2277:A *1213:A 0.00017724
22 *2278:A *1256:A 0
23 *2278:A *1443:A 0
24 *2278:A *2007:RESET_B 0.000274496
25 *2278:A *943:8 0
26 *2278:A *1102:12 4.77425e-05
27 *2278:A *1146:82 0
28 *507:8 *1875:CLK 0
29 *507:8 *881:10 0
30 *507:8 *1104:97 0
31 *507:8 *1139:83 0
32 *507:10 *1815:B 0
33 *507:10 *1875:CLK 0
34 *507:10 *510:59 0
35 *507:10 *1104:82 0
36 *507:25 *510:67 0
37 *507:25 *949:10 0
38 *507:27 *1258:A 0
39 *507:27 *1443:A 0
40 *507:27 *1872:CLK 0
41 *507:27 *1901:RESET_B 0
42 *507:27 *1102:12 0.000194236
43 *507:27 *1144:47 0
44 *507:44 *585:8 0
45 *507:44 *684:12 0
46 *507:44 *930:82 0.000288917
47 *507:44 *972:12 0
48 *507:44 *972:27 0
49 *507:44 *1102:23 0.00151662
50 *507:44 *1102:32 0.000661472
51 *507:44 *1102:69 0.000874591
52 *507:44 *1103:8 0
53 *507:44 *1103:18 0
54 *507:44 *1126:74 0.00012816
55 *507:59 *877:8 0
56 *507:59 *1104:97 0
57 *507:59 *1147:91 0.000981323
58 *507:73 *1483:B 0
59 *507:73 *1121:8 0
60 *507:73 *1139:83 0
61 *507:84 *1895:CLK 0
62 *507:84 *1902:RESET_B 0.000554994
63 *507:84 *517:16 0
64 *507:84 *581:19 0
65 *507:84 *581:30 0
66 *507:84 *581:58 0
67 *507:84 *1105:49 0
68 *507:84 *1105:60 0
69 *507:84 *1105:73 0
70 *507:84 *1121:8 0
71 *507:84 *1121:27 0
72 *507:100 *1864:CLK 0.000287672
73 *507:100 *516:58 0.000714003
74 *507:100 *681:8 0
75 *507:100 *1126:8 0
76 *507:100 *1142:23 0.000820983
77 *1492:A1 *2272:A 0.000112437
78 *1795:A1 *507:59 0
79 *1930:D *2272:A 0
80 *1934:D *2277:A 0
81 *73:10 *2277:A 0
82 *73:10 *507:44 0
83 *154:8 *507:59 0
84 *161:8 *507:100 0
85 *164:10 *507:8 0.000468912
86 *290:8 *507:84 0
87 *335:12 *507:44 0.000123244
88 *336:8 *507:44 0
89 *341:8 *507:100 0
90 *342:8 *507:84 0
91 *381:8 *507:59 0
92 *383:10 *507:59 0
93 *385:18 *507:59 0
94 *388:10 *507:10 0.000177334
95 *388:10 *507:25 0
96 *388:10 *507:59 0
97 *506:8 *507:44 0
*RES
1 *1444:X *507:8 25.0072 
2 *507:8 *507:10 3.0448 
3 *507:10 *2276:A 21.1792 
4 *507:10 *507:25 41.3552 
5 *507:25 *507:27 10.252 
6 *507:27 *2278:A 27.2248 
7 *507:27 *507:44 38.5856 
8 *507:44 *2277:A 43.5288 
9 *507:8 *507:59 31.2816 
10 *507:59 *2279:A 40 
11 *1444:X *507:73 21.5664 
12 *507:73 *2271:A 20 
13 *507:73 *507:84 37.6792 
14 *507:84 *507:86 20 
15 *507:86 *507:100 49.9176 
16 *507:100 *2274:A 20 
17 *507:86 *2272:A 24.3208 
*END

*D_NET *1113 0.026238
*CONN
*I *2112:A I *D sg13g2_buf_16
*I *2111:A I *D sg13g2_buf_16
*I *2251:A I *D sg13g2_buf_16
*I *2090:A I *D sg13g2_buf_16
*I *1391:A I *D sg13g2_buf_16
*I *2246:A I *D sg13g2_buf_16
*I *2250:A I *D sg13g2_buf_16
*I *2245:X O *D sg13g2_buf_8
*CAP
1 *2112:A 0.000381685
2 *2111:A 5.41967e-05
3 *2251:A 0
4 *2090:A 0
5 *1391:A 0.000220267
6 *2246:A 0
7 *2250:A 0.000122636
8 *2245:X 0.00122492
9 *1113:109 0.00162316
10 *1113:89 0.00127805
11 *1113:83 0.001809
12 *1113:79 0.00171822
13 *1113:77 0.000749274
14 *1113:50 0.000959179
15 *1113:28 0.00160487
16 *1113:22 0.00284548
17 *1113:16 0.0028518
18 *1113:10 0.00122529
19 *1113:22 *1976:CLK 0
20 *1113:22 *1114:74 0
21 *1113:28 *1114:41 0
22 *1113:28 *1114:74 0
23 *1113:77 *1337:A1 0
24 *1113:77 *2257:A 0
25 *1113:77 *1125:10 0.000180726
26 *1113:83 *1123:36 0.000176784
27 *1113:83 *1123:83 0.000435782
28 *1113:83 *1123:92 4.77863e-05
29 *1113:109 *1125:16 0
30 *1113:109 *1170:18 0.000339229
31 *1307:A0 *2112:A 0.000566185
32 *1313:A *1113:28 0
33 *1318:A *1113:22 0
34 *1318:A *1113:28 0
35 *1323:A *1113:28 0
36 *1329:A *1113:22 0
37 *1335:A1 *1113:22 0
38 *1355:B *1113:50 0.000235055
39 *1356:A2 *1113:50 0
40 *1358:B1 *1113:109 0
41 *1410:A *1113:28 4.77425e-05
42 *1424:A *1391:A 0
43 *1424:B *1391:A 0
44 *1424:B *1113:50 0.000213373
45 *1430:A2 *1113:22 0
46 *1430:B1 *1113:22 0
47 *1462:A1 *1113:50 0.000234726
48 *1714:A *1113:109 0
49 *1717:B *1113:83 0.00012193
50 *1717:B *1113:109 0
51 *1844:A2 *1113:28 0
52 *1969:CLK *1113:77 0
53 *1970:D *1113:22 0
54 *1973:CLK *1113:16 0.000320685
55 *1973:CLK *1113:22 0.00061679
56 *1975:CLK *1113:22 0
57 *1981:RESET_B *1113:28 0.000588922
58 *2080:CLK *1113:89 0
59 *2086:A *1113:50 0
60 *2087:A *1113:28 0
61 *2088:A *1113:28 0
62 *36:8 *1113:50 0
63 *205:14 *1113:109 0.000554279
64 *205:22 *1113:109 0.000182519
65 *283:10 *1113:109 0
66 *349:27 *1113:109 0
67 *422:8 *1113:22 0
68 *426:8 *1113:28 0
69 *427:10 *1113:28 0
70 *436:12 *1113:77 0
71 *437:10 *1113:77 0.000714369
72 *453:8 *1113:16 0
73 *455:25 *1113:109 0.00023464
74 *458:16 *1113:109 0.000241979
75 *477:12 *1391:A 0
76 *477:80 *1391:A 0
77 *496:12 *1113:50 0
78 *580:54 *1113:28 0
79 *582:10 *1113:77 0
80 *582:25 *1113:77 0
81 *625:25 *2250:A 0
82 *710:10 *1113:109 0
83 *712:22 *2112:A 0
84 *714:8 *1113:16 0.000827594
85 *714:26 *1113:50 0
86 *715:18 *1113:89 0
87 *721:102 *1113:50 0
88 *721:110 *1113:50 0
89 *728:14 *1113:28 0
90 *825:8 *1113:89 4.7526e-05
91 *827:12 *2111:A 0
92 *827:12 *1113:89 0
93 *843:10 *2111:A 0
94 *843:10 *1113:89 0
95 *901:12 *1113:28 0
96 *901:19 *1113:28 0
97 *902:53 *1113:22 0
98 *905:60 *1113:50 0
99 *905:71 *1113:50 0.000181608
100 *905:81 *1113:50 4.77425e-05
101 *907:17 *1113:22 0
102 *907:21 *1391:A 4.77425e-05
103 *907:21 *1113:22 0
104 *907:25 *1113:50 7.51285e-05
105 *911:42 *1113:28 0.000289113
106 *911:57 *2250:A 0
107 *914:38 *1113:10 0
108 *1099:6 *1113:89 0
109 *1099:66 *1113:89 0
110 *1106:98 *1113:77 0
*RES
1 *2245:X *1113:10 43.7928 
2 *1113:10 *1113:16 9.108 
3 *1113:16 *1113:22 32.6632 
4 *1113:22 *1113:28 34.0888 
5 *1113:28 *2250:A 41.012 
6 *1113:22 *2246:A 20 
7 *1113:16 *1113:50 47.7528 
8 *1113:50 *1391:A 41.936 
9 *1113:10 *2090:A 40 
10 *2245:X *1113:77 46.9608 
11 *1113:77 *1113:79 20 
12 *1113:79 *1113:83 23.9688 
13 *1113:83 *1113:89 31.264 
14 *1113:89 *2251:A 20 
15 *1113:83 *2111:A 40.5104 
16 *1113:79 *1113:109 31.792 
17 *1113:109 *2112:A 43.2296 
*END

*D_NET *1148 0.0303744
*CONN
*I *2127:A I *D sg13g2_buf_16
*I *2097:A I *D sg13g2_buf_16
*I *2096:A I *D sg13g2_buf_16
*I *2126:A I *D sg13g2_buf_16
*I *1663:A I *D sg13g2_buf_16
*I *2091:A I *D sg13g2_buf_16
*I *2106:A I *D sg13g2_buf_16
*I *2280:X O *D sg13g2_buf_8
*CAP
1 *2127:A 2.22906e-05
2 *2097:A 0.00023219
3 *2096:A 0.000195616
4 *2126:A 0
5 *1663:A 0
6 *2091:A 7.05995e-05
7 *2106:A 0
8 *2280:X 0.00141451
9 *1148:94 0.00115531
10 *1148:90 0.0019764
11 *1148:67 0.00151538
12 *1148:59 0.00304242
13 *1148:52 0.00158997
14 *1148:48 0.00380698
15 *1148:26 0.000992317
16 *1148:14 0.00139467
17 *1148:8 0.00160087
18 *1517:B *1148:59 0
19 *1523:A *1148:67 8.02379e-05
20 *1523:B *1148:67 0
21 *1526:A *1148:59 0
22 *1609:A *1148:67 0
23 *1611:A *1148:52 0
24 *1611:B *1148:59 0
25 *1615:A *2096:A 0
26 *1615:B *2096:A 0
27 *1616:A2 *1148:67 0
28 *1621:A *1148:8 0
29 *1621:A *1148:14 0
30 *1621:A *1148:48 0
31 *1621:B *1148:14 8.01283e-05
32 *1673:A0 *1148:67 0
33 *1673:A1 *1148:59 0
34 *1882:RESET_B *1148:94 0.000238126
35 *1882:CLK *1148:94 0.000238641
36 *1884:CLK *1148:8 0
37 *1884:CLK *1148:14 0.000426697
38 *1887:D *1148:67 0
39 *1889:CLK *1148:52 0.000324206
40 *1890:D *1148:67 0
41 *1911:CLK *1148:90 0
42 *1915:CLK *1148:90 0.000112733
43 *2115:A *2091:A 0.000112308
44 *2242:A *1148:52 0
45 *2280:A *1148:90 0
46 *180:10 *1148:8 0
47 *206:68 *1148:52 0.00114852
48 *206:75 *1148:52 0.000583037
49 *407:34 *1148:90 0
50 *407:49 *2127:A 4.78195e-05
51 *407:49 *1148:90 0
52 *476:23 *1148:26 0.00151178
53 *515:42 *1148:67 0
54 *515:69 *2096:A 0
55 *515:69 *1148:59 0
56 *535:12 *1148:14 0
57 *535:12 *1148:26 0
58 *536:10 *1148:48 0
59 *539:12 *1148:67 0
60 *569:33 *1148:26 0
61 *575:10 *1148:26 0
62 *599:10 *1148:48 0.000395067
63 *599:10 *1148:59 0.000533225
64 *666:8 *1148:59 0
65 *694:14 *1148:8 0
66 *718:103 *1148:14 0.000394571
67 *718:103 *1148:26 0
68 *724:10 *1148:94 0.00048696
69 *724:78 *1148:94 0.000754858
70 *840:25 *1148:26 0.00182883
71 *843:25 *1148:26 0
72 *916:10 *1148:59 0
73 *916:32 *1148:59 0
74 *923:54 *1148:67 0.000112558
75 *923:74 *1148:67 0
76 *923:87 *1148:67 0
77 *954:8 *1148:67 0
78 *957:8 *1148:52 0
79 *957:16 *1148:59 0
80 *1007:10 *1148:90 0.000177399
81 *1017:8 *1148:48 0
82 *1106:88 *1148:26 0
83 *1108:62 *1148:67 8.02927e-05
84 *1108:77 *1148:67 0
85 *1108:90 *1148:67 0
86 *1109:37 *1148:52 0
87 *1110:64 *1148:94 0.00169687
88 *1111:8 *1148:52 0
89 *1111:17 *1148:52 0
90 *1111:28 *1148:52 0
91 *1111:41 *1148:52 0
92 *1111:48 *1148:52 0
93 *1127:64 *1148:48 0
94 *1132:49 *1148:67 0
95 *1133:39 *1148:90 0
*RES
1 *2280:X *1148:8 22.9744 
2 *1148:8 *1148:14 24.0832 
3 *1148:14 *1148:26 32.2936 
4 *1148:26 *2106:A 20 
5 *1148:14 *2091:A 40.6424 
6 *1148:8 *1148:48 28.2632 
7 *1148:48 *1148:52 35.2416 
8 *1148:52 *1663:A 20 
9 *1148:48 *1148:59 11.704 
10 *1148:59 *1148:67 32.3024 
11 *1148:67 *2126:A 20 
12 *1148:59 *2096:A 41.9888 
13 *2280:X *1148:90 28.3336 
14 *1148:90 *1148:94 32.9712 
15 *1148:94 *2097:A 42.1208 
16 *1148:90 *2127:A 20.2728 
*END

*D_NET *1120 0.00795304
*CONN
*I *2065:CLK I *D sg13g2_dfrbpq_1
*I *2083:CLK I *D sg13g2_dfrbpq_1
*I *2073:CLK I *D sg13g2_dfrbpq_1
*I *1961:CLK I *D sg13g2_dfrbpq_1
*I *1987:CLK I *D sg13g2_dfrbpq_1
*I *1988:CLK I *D sg13g2_dfrbpq_1
*I *1989:CLK I *D sg13g2_dfrbpq_1
*I *1963:CLK I *D sg13g2_dfrbpq_1
*I *2252:X O *D sg13g2_buf_16
*CAP
1 *2065:CLK 0
2 *2083:CLK 0.000613836
3 *2073:CLK 0.000135042
4 *1961:CLK 5.26209e-05
5 *1987:CLK 0.000253936
6 *1988:CLK 0.00045096
7 *1989:CLK 2.52671e-05
8 *1963:CLK 0.000204489
9 *2252:X 0.00010998
10 *1120:73 0.000950511
11 *1120:69 0.000748155
12 *1120:22 0.000257483
13 *1120:20 0.000977598
14 *1120:12 0.000868584
15 *1120:10 0.000554587
16 *1120:8 0.00104273
17 *1448:A1 *1120:10 0
18 *1448:A1 *1120:12 0
19 *1448:A1 *1120:20 0
20 *1961:RESET_B *1987:CLK 0
21 *1989:RESET_B *1963:CLK 0
22 *1989:RESET_B *1989:CLK 0
23 *2072:RESET_B *2083:CLK 1.54008e-05
24 *2072:RESET_B *1120:69 0
25 *2072:RESET_B *1120:73 0
26 *2072:D *2083:CLK 1.54008e-05
27 *2072:D *1120:73 0
28 *2121:A *1120:69 0
29 *2121:A *1120:73 0
30 *395:10 *1120:8 0.000176824
31 *395:10 *1120:10 0
32 *505:31 *1987:CLK 0
33 *505:31 *1120:20 0.000177306
34 *505:44 *1120:20 0.000306925
35 *706:20 *2083:CLK 0
36 *719:12 *1988:CLK 0
37 *719:14 *1988:CLK 0
38 *844:58 *1120:8 0
39 *925:12 *2073:CLK 0
40 *925:12 *2083:CLK 0
41 *925:12 *1120:10 0
42 *925:12 *1120:12 0
43 *925:12 *1120:20 0
44 *925:12 *1120:69 0
45 *1041:8 *1988:CLK 0
46 *1046:27 *1961:CLK 0
47 *1046:27 *1987:CLK 0
48 *1048:10 *1988:CLK 0
49 *1095:33 *1120:69 0
50 *1095:77 *1987:CLK 1.54008e-05
*RES
1 *2252:X *1120:8 41.012 
2 *1120:8 *1120:10 3.0448 
3 *1120:10 *1120:12 0.9328 
4 *1120:12 *1120:20 24.6992 
5 *1120:20 *1120:22 0.2992 
6 *1120:22 *1963:CLK 22.1032 
7 *1120:22 *1989:CLK 20.2728 
8 *1120:20 *1988:CLK 24.708 
9 *1120:12 *1987:CLK 42.4904 
10 *1120:10 *1961:CLK 40.6424 
11 *1120:8 *1120:69 24.3208 
12 *1120:69 *1120:73 21.936 
13 *1120:73 *2073:CLK 41.3552 
14 *1120:73 *2083:CLK 45.9136 
15 *1120:69 *2065:CLK 20 
*END

*D_NET *908 0.00865484
*CONN
*I *2037:CLK I *D sg13g2_dfrbpq_1
*I *2028:CLK I *D sg13g2_dfrbpq_1
*I *1969:CLK I *D sg13g2_dfrbpq_1
*I *2032:CLK I *D sg13g2_dfrbpq_1
*I *2029:CLK I *D sg13g2_dfrbpq_1
*I *2033:CLK I *D sg13g2_dfrbpq_1
*I *2030:CLK I *D sg13g2_dfrbpq_1
*I *2080:CLK I *D sg13g2_dfrbpq_1
*I *2111:X O *D sg13g2_buf_16
*CAP
1 *2037:CLK 0.00113401
2 *2028:CLK 0
3 *1969:CLK 0.00042097
4 *2032:CLK 0.000195013
5 *2029:CLK 0
6 *2033:CLK 0
7 *2030:CLK 0.000271719
8 *2080:CLK 0.000143167
9 *2111:X 0.000331877
10 *908:75 0.00127031
11 *908:34 0.00066707
12 *908:30 0.000682726
13 *908:24 0.000646407
14 *908:22 0.000947227
15 *908:20 0.000687252
16 *1969:CLK *1106:98 0
17 *1969:CLK *1113:77 0
18 *2030:CLK *2030:RESET_B 0
19 *2030:CLK *1098:35 0
20 *2030:CLK *1098:44 0
21 *2032:CLK *2032:RESET_B 0
22 *2032:CLK *914:6 0
23 *2032:CLK *914:23 0
24 *2037:CLK *1106:94 0
25 *2080:CLK *1113:89 0
26 *908:22 *1106:94 0
27 *908:24 *914:14 0
28 *908:24 *1106:94 0
29 *908:30 *2032:RESET_B 0
30 *908:30 *1098:66 0
31 *908:30 *1098:76 0
32 *908:34 *1098:44 0
33 *908:34 *1098:51 0
34 *908:75 *1106:94 0
35 *1299:A0 *2080:CLK 0
36 *1299:A0 *908:20 0
37 *1336:B *2037:CLK 0
38 *205:10 *2037:CLK 0.000274463
39 *436:12 *1969:CLK 0
40 *715:18 *2030:CLK 0
41 *715:18 *908:34 0
42 *726:8 *2037:CLK 0
43 *827:12 *2037:CLK 0
44 *827:12 *908:20 0
45 *827:12 *908:22 0
46 *827:12 *908:75 0
47 *835:29 *2037:CLK 0.000982628
48 *842:33 *2037:CLK 0
49 *843:41 *1969:CLK 0
50 *843:41 *908:24 0
51 *843:41 *908:30 0
*RES
1 *2111:X *2080:CLK 41.1968 
2 *2111:X *908:20 41.7512 
3 *908:20 *908:22 2.8336 
4 *908:22 *908:24 1.5664 
5 *908:24 *908:30 22.6576 
6 *908:30 *908:34 3.7136 
7 *908:34 *2030:CLK 22.4992 
8 *908:34 *2033:CLK 20 
9 *908:30 *2029:CLK 20 
10 *908:24 *2032:CLK 41.6544 
11 *908:22 *1969:CLK 43.4144 
12 *908:20 *908:75 1.144 
13 *908:75 *2028:CLK 40 
14 *908:75 *2037:CLK 49.0464 
*END

*D_NET *940 0.00821437
*CONN
*I *2079:CLK I *D sg13g2_dfrbpq_1
*I *2043:CLK I *D sg13g2_dfrbpq_1
*I *2046:CLK I *D sg13g2_dfrbpq_1
*I *2045:CLK I *D sg13g2_dfrbpq_1
*I *2038:CLK I *D sg13g2_dfrbpq_1
*I *2082:CLK I *D sg13g2_dfrbpq_1
*I *2044:CLK I *D sg13g2_dfrbpq_1
*I *2022:CLK I *D sg13g2_dfrbpq_1
*I *2106:X O *D sg13g2_buf_16
*CAP
1 *2079:CLK 0.000180219
2 *2043:CLK 0
3 *2046:CLK 0
4 *2045:CLK 0.000324739
5 *2038:CLK 0.000140913
6 *2082:CLK 0
7 *2044:CLK 0.000122774
8 *2022:CLK 0.000619822
9 *2106:X 0.000449521
10 *940:61 0.000717696
11 *940:50 0.000239673
12 *940:42 0.000796495
13 *940:40 0.000597036
14 *940:36 0.000766581
15 *940:10 0.000908143
16 *940:8 0.000909172
17 *2022:CLK *1099:12 0.000395177
18 *2022:CLK *1123:36 0
19 *2044:CLK *1099:14 0
20 *2044:CLK *1099:22 0
21 *940:36 *1564:B2 0
22 *1353:A *2022:CLK 0
23 *2044:D *2022:CLK 0
24 *2082:RESET_B *940:61 0
25 *205:10 *2079:CLK 0
26 *205:10 *940:8 0
27 *205:10 *940:36 0
28 *205:10 *940:40 0
29 *205:10 *940:42 0
30 *205:10 *940:50 0
31 *564:19 *940:36 0
32 *570:16 *940:36 0
33 *717:26 *940:50 0.000288588
34 *717:26 *940:61 0
35 *725:16 *2038:CLK 0
36 *725:16 *2045:CLK 0.000468869
37 *725:25 *2044:CLK 0
38 *725:25 *2079:CLK 0
39 *725:25 *940:8 0
40 *725:40 *2079:CLK 0
41 *825:29 *2022:CLK 0.000273497
42 *825:54 *2022:CLK 0
43 *825:54 *940:10 0
44 *825:54 *940:36 0
45 *830:18 *940:36 1.54556e-05
46 *830:18 *940:40 0
47 *830:18 *940:42 0
48 *830:18 *940:50 0
49 *836:10 *940:61 0
50 *836:42 *940:50 0
51 *849:10 *2038:CLK 0
52 *849:10 *2045:CLK 0
53 *910:31 *2045:CLK 0
*RES
1 *2106:X *940:8 42.1208 
2 *940:8 *940:10 1.5664 
3 *940:10 *2022:CLK 45.9576 
4 *940:10 *2044:CLK 41.012 
5 *940:8 *940:36 24.268 
6 *940:36 *940:40 2.4464 
7 *940:40 *940:42 2.3056 
8 *940:42 *940:50 42.3408 
9 *940:50 *2082:CLK 20 
10 *940:42 *940:61 42.4112 
11 *940:61 *2038:CLK 21.3376 
12 *940:61 *2045:CLK 23.2736 
13 *940:40 *2046:CLK 20 
14 *940:36 *2043:CLK 20 
15 *2106:X *2079:CLK 41.3816 
*END

*D_NET *718 0.0154181
*CONN
*I *1884:CLK I *D sg13g2_dfrbpq_1
*I *1877:CLK I *D sg13g2_dfrbpq_1
*I *2039:CLK I *D sg13g2_dfrbpq_1
*I *1994:CLK I *D sg13g2_dfrbpq_1
*I *1998:CLK I *D sg13g2_dfrbpq_1
*I *2020:CLK I *D sg13g2_dfrbpq_1
*I *2023:CLK I *D sg13g2_dfrbpq_1
*I *2036:CLK I *D sg13g2_dfrbpq_1
*I *2091:X O *D sg13g2_buf_16
*CAP
1 *1884:CLK 0.000373768
2 *1877:CLK 0.000162382
3 *2039:CLK 0
4 *1994:CLK 0
5 *1998:CLK 0.000542365
6 *2020:CLK 0.000135042
7 *2023:CLK 0
8 *2036:CLK 0
9 *2091:X 0.000573099
10 *718:103 0.00108152
11 *718:84 0.000607612
12 *718:72 0.00125765
13 *718:66 0.00156242
14 *718:56 0.00157954
15 *718:32 0.00134034
16 *718:23 0.00099075
17 *718:10 0.000639068
18 *718:6 0.00100613
19 *1877:CLK *1137:12 0.000272537
20 *1884:CLK *1127:64 0.000553541
21 *1884:CLK *1148:8 0
22 *1884:CLK *1148:14 0.000426697
23 *1998:CLK *1365:A 0.00018211
24 *1998:CLK *1544:A1 0.000106392
25 *1998:CLK *722:56 0
26 *1998:CLK *839:29 0
27 *1998:CLK *921:31 0
28 *2020:CLK *722:56 0
29 *718:10 *921:25 0
30 *718:23 *827:41 0.000394566
31 *718:23 *842:54 0
32 *718:23 *921:25 0
33 *718:56 *921:8 0
34 *718:56 *921:25 0
35 *718:72 *729:14 0
36 *718:84 *1730:A0 0
37 *718:84 *1730:S 8.00842e-05
38 *718:84 *832:46 0
39 *718:84 *1106:6 0
40 *718:84 *1106:15 0
41 *718:84 *1106:61 0
42 *718:103 *843:25 0
43 *718:103 *1127:64 0.000127744
44 *718:103 *1148:14 0.000394571
45 *718:103 *1148:26 0
46 *1541:B2 *1998:CLK 0
47 *1555:B *718:84 0
48 *1557:B2 *718:66 0
49 *1856:B *718:66 0
50 *1857:B *718:66 4.77537e-05
51 *1858:B1 *718:66 0
52 *2124:A *718:56 0
53 *307:18 *718:66 0
54 *320:8 *718:66 0.000234351
55 *387:53 *718:72 0
56 *460:8 *1998:CLK 0
57 *460:8 *2020:CLK 0
58 *476:23 *718:103 0
59 *517:67 *718:56 0
60 *517:67 *718:66 0.000274693
61 *535:12 *1884:CLK 0
62 *547:35 *718:56 0
63 *547:35 *718:66 0
64 *557:8 *718:66 0
65 *559:8 *718:66 0.000291566
66 *560:12 *718:66 0
67 *694:14 *1884:CLK 0
68 *710:43 *1998:CLK 0
69 *710:43 *718:10 0
70 *710:43 *718:23 0
71 *710:43 *718:32 0
72 *710:43 *718:56 0
73 *711:33 *718:32 0
74 *717:16 *718:84 0.000179801
75 *717:20 *718:72 0
76 *717:50 *718:72 0
*RES
1 *2091:X *718:6 20.2992 
2 *718:6 *718:10 3.0536 
3 *718:10 *2036:CLK 20 
4 *718:10 *718:23 43.5024 
5 *718:23 *2023:CLK 20 
6 *718:23 *718:32 24.8928 
7 *718:32 *2020:CLK 41.3552 
8 *718:32 *1998:CLK 45.192 
9 *718:6 *718:56 5.0072 
10 *718:56 *718:66 47.524 
11 *718:66 *718:72 46.1864 
12 *718:72 *718:84 44.7872 
13 *718:84 *1994:CLK 20 
14 *718:56 *2039:CLK 20 
15 *2091:X *718:103 44.9456 
16 *718:103 *1877:CLK 41.5664 
17 *718:103 *1884:CLK 44.136 
*END

*D_NET *924 0.0100824
*CONN
*I *1880:CLK I *D sg13g2_dfrbpq_1
*I *2002:CLK I *D sg13g2_dfrbpq_1
*I *1881:CLK I *D sg13g2_dfrbpq_1
*I *1876:CLK I *D sg13g2_dfrbpq_1
*I *1912:CLK I *D sg13g2_dfrbpq_1
*I *1907:CLK I *D sg13g2_dfrbpq_1
*I *1995:CLK I *D sg13g2_dfrbpq_1
*I *1999:CLK I *D sg13g2_dfrbpq_1
*I *2127:X O *D sg13g2_buf_16
*CAP
1 *1880:CLK 0.000241497
2 *2002:CLK 2.77263e-05
3 *1881:CLK 0.000379055
4 *1876:CLK 2.77263e-05
5 *1912:CLK 0.000203534
6 *1907:CLK 0
7 *1995:CLK 0.000194031
8 *1999:CLK 0
9 *2127:X 0.000993254
10 *924:51 0.000651665
11 *924:42 0.000602395
12 *924:38 0.00124801
13 *924:27 0.00140358
14 *924:23 0.000926254
15 *924:14 0.000563116
16 *924:10 0.000938936
17 *1880:CLK *1133:39 0.000274397
18 *1880:CLK *1137:69 0
19 *924:10 *1137:69 0
20 *924:38 *1133:72 0
21 *924:51 *1137:91 0
22 cio_gpio_en_o[0] *924:27 0.000501123
23 cio_gpio_en_o[2] *924:27 0.000209746
24 *1541:B2 *924:14 0
25 *1541:B2 *924:23 0
26 *1541:B2 *924:27 0
27 *1792:A1 *1995:CLK 0
28 *1881:D *1912:CLK 0
29 *1881:D *924:42 0
30 *1881:D *924:51 0
31 *2146:A *924:27 0
32 *2148:A *924:14 0.000112733
33 *2148:A *924:23 0.00058358
34 *2148:A *924:27 0
35 *548:12 *924:10 0
36 *701:48 *924:27 0
37 *703:23 *924:38 0
38 *708:10 *924:27 0
39 *712:14 *1881:CLK 0
40 *712:14 *924:38 0
41 *722:78 *924:14 0
42 *840:39 *924:10 0
43 *912:54 *924:10 0
44 *912:80 *924:51 0
45 *912:95 *1881:CLK 0
46 *912:95 *924:38 0
47 *912:95 *924:42 0
*RES
1 *2127:X *924:10 46.0632 
2 *924:10 *924:14 21.7512 
3 *924:14 *1999:CLK 20 
4 *924:14 *924:23 3.9248 
5 *924:23 *924:27 24.8928 
6 *924:27 *1995:CLK 41.9888 
7 *924:27 *924:38 6.8464 
8 *924:38 *924:42 21.5664 
9 *924:42 *1907:CLK 20 
10 *924:42 *924:51 3.7136 
11 *924:51 *1912:CLK 21.936 
12 *924:51 *1876:CLK 20.2992 
13 *924:38 *1881:CLK 43.8896 
14 *924:23 *2002:CLK 20.2992 
15 *2127:X *1880:CLK 42.288 
*END

*D_NET *724 0.00882597
*CONN
*I *1888:CLK I *D sg13g2_dfrbpq_1
*I *1883:CLK I *D sg13g2_dfrbpq_1
*I *1916:CLK I *D sg13g2_dfrbpq_1
*I *1915:CLK I *D sg13g2_dfrbpq_1
*I *1911:CLK I *D sg13g2_dfrbpq_1
*I *1885:CLK I *D sg13g2_dfrbpq_1
*I *1913:CLK I *D sg13g2_dfrbpq_1
*I *1882:CLK I *D sg13g2_dfrbpq_1
*I *2097:X O *D sg13g2_buf_16
*CAP
1 *1888:CLK 0.000530967
2 *1883:CLK 0
3 *1916:CLK 0
4 *1915:CLK 6.2178e-05
5 *1911:CLK 0.000251827
6 *1885:CLK 8.39609e-05
7 *1913:CLK 0
8 *1882:CLK 6.49273e-05
9 *2097:X 0.000182747
10 *724:78 0.00109693
11 *724:51 0.00110081
12 *724:40 0.00118993
13 *724:32 0.00053281
14 *724:23 0.000609088
15 *724:10 0.000595262
16 *724:8 0.000883603
17 *1882:CLK *1148:94 0.000238641
18 *1885:CLK *1110:27 0
19 *1911:CLK *1545:A 0
20 *1911:CLK *1133:15 0
21 *1911:CLK *1148:90 0
22 *1915:CLK *1915:RESET_B 0
23 *1915:CLK *1148:90 0.000112733
24 *724:10 *1148:94 0.00048696
25 *724:23 *1015:8 0
26 *724:23 *1110:36 0
27 *724:23 *1110:47 0
28 *724:23 *1135:87 4.77425e-05
29 *724:32 *1110:36 0
30 *724:40 *1110:27 0
31 *724:40 *1110:36 0
32 *724:40 *1110:86 0
33 *724:40 *1134:71 0
34 *724:51 *1545:A 0
35 *724:51 *1619:A 0
36 *724:51 *1885:RESET_B 0
37 *724:51 *983:8 0
38 *724:78 *1110:64 0
39 *724:78 *1148:94 0.000754858
40 *1685:S *724:32 0
41 *543:8 *1911:CLK 0
42 *543:8 *724:51 0
*RES
1 *2097:X *724:8 41.7512 
2 *724:8 *724:10 1.9888 
3 *724:10 *1882:CLK 40.9328 
4 *724:10 *724:23 23.4144 
5 *724:23 *1913:CLK 20 
6 *724:23 *724:32 2.0768 
7 *724:32 *724:40 42.948 
8 *724:40 *1885:CLK 20.6424 
9 *724:40 *724:51 27.48 
10 *724:51 *1911:CLK 42.3144 
11 *724:51 *1915:CLK 40.6424 
12 *724:32 *1916:CLK 20 
13 *724:8 *724:78 6.424 
14 *724:78 *1883:CLK 40 
15 *724:78 *1888:CLK 45.7904 
*END

*D_NET *723 0.0126394
*CONN
*I *1914:CLK I *D sg13g2_dfrbpq_1
*I *1919:CLK I *D sg13g2_dfrbpq_1
*I *1917:CLK I *D sg13g2_dfrbpq_1
*I *1887:CLK I *D sg13g2_dfrbpq_1
*I *1890:CLK I *D sg13g2_dfrbpq_1
*I *1921:CLK I *D sg13g2_dfrbpq_1
*I *1886:CLK I *D sg13g2_dfrbpq_1
*I *1920:CLK I *D sg13g2_dfrbpq_1
*I *2096:X O *D sg13g2_buf_16
*CAP
1 *1914:CLK 0.000567198
2 *1919:CLK 0
3 *1917:CLK 0
4 *1887:CLK 0.000144851
5 *1890:CLK 0.000256366
6 *1921:CLK 0.000280719
7 *1886:CLK 0
8 *1920:CLK 0.000734598
9 *2096:X 0.000691504
10 *723:93 0.000153447
11 *723:85 0.000926942
12 *723:76 0.000252394
13 *723:70 0.00078974
14 *723:47 0.000992758
15 *723:34 0.00103331
16 *723:25 0.000335788
17 *723:12 0.00126979
18 *1887:CLK *991:8 0
19 *1890:CLK *991:8 0
20 *1914:CLK *1914:RESET_B 0
21 *1914:CLK *1131:10 0
22 *1914:CLK *1131:73 0
23 *1920:CLK *1611:B 0
24 *723:12 *1524:A2 0
25 *723:12 *954:16 0.000395897
26 *723:12 *1131:10 0
27 *723:12 *1131:12 0
28 *723:12 *1131:23 0
29 *723:25 *954:16 4.78356e-05
30 *723:47 *1523:A 0
31 *723:47 *1108:70 0
32 *723:70 *1524:A2 0
33 *723:70 *990:8 0.000306893
34 *723:70 *1131:10 0
35 *723:85 *1131:10 0
36 *723:93 *1919:RESET_B 0.000501961
37 *1521:A1 *723:70 0
38 *1521:B1 *723:70 0
39 *1524:B1 *723:12 4.77425e-05
40 *1918:D *1921:CLK 0
41 *1918:D *723:12 0
42 *1918:D *723:25 0
43 *1918:D *723:34 0
44 *1919:D *723:85 0.000177323
45 *2180:A *1914:CLK 0
46 *2180:A *723:85 0
47 *90:8 *723:76 0
48 *90:8 *723:93 0
49 *123:12 *723:25 0
50 *515:57 *1887:CLK 0.000183785
51 *515:57 *1890:CLK 0.000436022
52 *536:10 *1920:CLK 0.000821814
53 *537:12 *723:76 0
54 *539:12 *1921:CLK 0
55 *539:12 *723:47 0
56 *541:14 *1920:CLK 0
57 *541:14 *723:25 0
58 *602:8 *1920:CLK 0.000554204
59 *602:8 *723:12 0.00012816
60 *662:12 *723:76 0
61 *662:12 *723:93 0.000608354
*RES
1 *2096:X *723:12 43.4584 
2 *723:12 *1920:CLK 47.2688 
3 *723:12 *723:25 21.5664 
4 *723:25 *1886:CLK 20 
5 *723:25 *723:34 1.5224 
6 *723:34 *1921:CLK 22.4904 
7 *723:34 *723:47 45.7904 
8 *723:47 *1890:CLK 22.4904 
9 *723:47 *1887:CLK 21.3112 
10 *2096:X *723:70 23.0448 
11 *723:70 *723:76 42.4112 
12 *723:76 *1917:CLK 20 
13 *723:70 *723:85 2.0504 
14 *723:85 *723:93 42.684 
15 *723:93 *1919:CLK 20 
16 *723:85 *1914:CLK 25.0776 
*END

*D_NET *923 0.014124
*CONN
*I *1918:CLK I *D sg13g2_dfrbpq_1
*I *1891:CLK I *D sg13g2_dfrbpq_1
*I *1930:CLK I *D sg13g2_dfrbpq_1
*I *1922:CLK I *D sg13g2_dfrbpq_1
*I *1925:CLK I *D sg13g2_dfrbpq_1
*I *1894:CLK I *D sg13g2_dfrbpq_1
*I *1910:CLK I *D sg13g2_dfrbpq_1
*I *1909:CLK I *D sg13g2_dfrbpq_1
*I *2126:X O *D sg13g2_buf_16
*CAP
1 *1918:CLK 0
2 *1891:CLK 0
3 *1930:CLK 0.000804088
4 *1922:CLK 0
5 *1925:CLK 0
6 *1894:CLK 0.000577533
7 *1910:CLK 0.000458748
8 *1909:CLK 0
9 *2126:X 0
10 *923:87 0.000656645
11 *923:74 0.000911362
12 *923:54 0.00105916
13 *923:50 0.000835722
14 *923:32 0.00103294
15 *923:14 0.000841264
16 *923:8 0.000979318
17 *923:6 0.000467327
18 *1894:CLK *1121:48 0
19 *1894:CLK *1132:36 0.000598187
20 *1910:CLK *985:8 0
21 *1910:CLK *996:14 0
22 *1930:CLK *959:14 0
23 *923:54 *959:14 0
24 *923:54 *1132:49 0
25 *923:54 *1148:67 0.000112558
26 *923:74 *959:14 0
27 *923:74 *1148:67 0
28 *923:87 *1108:62 0.000274583
29 *923:87 *1108:70 0.000181279
30 *923:87 *1148:67 0
31 *1207:S *1894:CLK 0
32 *1514:B *923:8 0.000160013
33 *1697:A *1910:CLK 0
34 *1697:A *923:14 0
35 *206:68 *1910:CLK 0
36 *206:68 *923:14 0
37 *206:75 *1910:CLK 0
38 *515:12 *1930:CLK 0
39 *515:38 *1930:CLK 0
40 *515:38 *923:54 0
41 *515:42 *923:74 0
42 *515:42 *923:87 0
43 *515:57 *923:87 0
44 *522:12 *923:32 0
45 *522:27 *923:32 0
46 *669:12 *923:8 0.000748721
47 *669:12 *923:14 0.00114077
48 *669:12 *923:50 0.00058617
49 *696:12 *923:8 0
50 *696:12 *923:50 0
51 *770:8 *1930:CLK 0
52 *917:30 *923:14 0.0010873
53 *917:49 *923:8 0.000557294
54 *917:49 *923:14 5.29681e-05
55 *917:53 *923:32 0
*RES
1 *2126:X *923:6 40 
2 *923:6 *923:8 3.0448 
3 *923:8 *923:14 25.9048 
4 *923:14 *1909:CLK 20 
5 *923:14 *1910:CLK 23.7136 
6 *923:8 *923:32 23.9688 
7 *923:32 *1894:CLK 25.4912 
8 *923:32 *1925:CLK 20 
9 *923:6 *923:50 3.6784 
10 *923:50 *923:54 22.1208 
11 *923:54 *1922:CLK 20 
12 *923:54 *1930:CLK 27.2512 
13 *923:50 *923:74 22.1032 
14 *923:74 *1891:CLK 20 
15 *923:74 *923:87 45.8256 
16 *923:87 *1918:CLK 20 
*END

*D_NET *206 0.0104079
*CONN
*I *1889:CLK I *D sg13g2_dfrbpq_1
*I *1879:CLK I *D sg13g2_dfrbpq_1
*I *1878:CLK I *D sg13g2_dfrbpq_1
*I *1893:CLK I *D sg13g2_dfrbpq_1
*I *1924:CLK I *D sg13g2_dfrbpq_1
*I *1908:CLK I *D sg13g2_dfrbpq_1
*I *1923:CLK I *D sg13g2_dfrbpq_1
*I *1892:CLK I *D sg13g2_dfrbpq_1
*I *1663:X O *D sg13g2_buf_16
*CAP
1 *1889:CLK 0.000184783
2 *1879:CLK 0
3 *1878:CLK 0
4 *1893:CLK 0.000666303
5 *1924:CLK 0
6 *1908:CLK 0.000267137
7 *1923:CLK 0
8 *1892:CLK 0
9 *1663:X 0.000360255
10 *206:81 4.02223e-05
11 *206:75 0.000604896
12 *206:68 0.00110116
13 *206:64 0.00108152
14 *206:23 0.000882366
15 *206:14 0.000979188
16 *206:8 0.000771986
17 *206:4 0.00107433
18 *1889:CLK *1148:52 0.000324206
19 *1893:CLK *1206:A0 3.24516e-05
20 *1893:CLK *1206:A1 0
21 *1893:CLK *1206:S 0
22 *1893:CLK *2133:A 0
23 *1893:CLK *2259:A 0
24 *1893:CLK *523:16 0
25 *1893:CLK *961:12 0.000177273
26 *1893:CLK *1129:22 0
27 *1908:CLK *932:27 0
28 *1908:CLK *1127:34 0
29 *206:8 *523:8 0
30 *206:8 *525:14 0
31 *206:8 *531:10 0
32 *206:14 *407:14 0
33 *206:14 *523:8 0
34 *206:14 *531:10 0
35 *206:14 *1101:53 0
36 *206:23 *1923:RESET_B 0
37 *206:23 *407:14 0
38 *206:23 *932:27 0
39 *206:23 *1127:34 0
40 *206:64 *531:10 0
41 *206:68 *1910:CLK 0
42 *206:68 *923:14 0
43 *206:68 *1109:46 0
44 *206:68 *1148:52 0.00114852
45 *206:75 *1910:CLK 0
46 *206:75 *996:14 0
47 *206:75 *1148:52 0.000583037
48 *206:81 *539:12 0.000128247
*RES
1 *1663:X *206:4 20 
2 *206:4 *206:8 23.4672 
3 *206:8 *206:14 23.08 
4 *206:14 *1892:CLK 20 
5 *206:14 *206:23 5.4032 
6 *206:23 *1923:CLK 20 
7 *206:23 *1908:CLK 22.6576 
8 *206:8 *1924:CLK 40 
9 *206:4 *1893:CLK 25.4912 
10 *1663:X *206:64 43.4672 
11 *206:64 *206:68 26.556 
12 *206:68 *1878:CLK 20 
13 *206:68 *206:75 3.4144 
14 *206:75 *206:81 40.5104 
15 *206:81 *1879:CLK 20 
16 *206:75 *1889:CLK 21.936 
*END

*D_NET *1139 0.012256
*CONN
*I *2010:CLK I *D sg13g2_dfrbpq_1
*I *1875:CLK I *D sg13g2_dfrbpq_1
*I *1926:CLK I *D sg13g2_dfrbpq_1
*I *2056:CLK I *D sg13g2_dfrbpq_1
*I *2057:CLK I *D sg13g2_dfrbpq_1
*I *2063:CLK I *D sg13g2_dfrbpq_1
*I *2055:CLK I *D sg13g2_dfrbpq_1
*I *2054:CLK I *D sg13g2_dfrbpq_1
*I *2271:X O *D sg13g2_buf_16
*CAP
1 *2010:CLK 6.68694e-05
2 *1875:CLK 0.000601929
3 *1926:CLK 0.000612419
4 *2056:CLK 0.000592627
5 *2057:CLK 0
6 *2063:CLK 0.000433508
7 *2055:CLK 0
8 *2054:CLK 4.7379e-05
9 *2271:X 0.000797043
10 *1139:83 0.00128157
11 *1139:32 0.000662242
12 *1139:30 0.00109595
13 *1139:26 0.00122969
14 *1139:17 0.000517839
15 *1139:8 0.000406803
16 *1444:A *1139:83 0
17 *1478:B *1875:CLK 0
18 *1507:A1 *2056:CLK 0
19 *1676:B *1139:26 4.77425e-05
20 *1681:A2 *1139:30 0.000237767
21 *1689:A *1139:26 0
22 *1693:A1 *2056:CLK 0
23 *1694:B1 *2056:CLK 0
24 *1784:A1 *1139:30 0.000393769
25 *2055:RESET_B *1139:8 0
26 *2055:RESET_B *1139:17 0
27 *2056:RESET_B *2063:CLK 0.000238641
28 *2056:RESET_B *1139:32 7.67102e-05
29 *211:36 *2056:CLK 0
30 *214:14 *2056:CLK 0.00037174
31 *214:35 *2056:CLK 0.000241088
32 *215:8 *1926:CLK 0.00023575
33 *215:8 *1139:30 0.000266746
34 *385:24 *2063:CLK 0
35 *507:8 *1875:CLK 0
36 *507:8 *1139:83 0
37 *507:10 *1875:CLK 0
38 *507:73 *1139:83 0
39 *510:67 *1875:CLK 0.000176967
40 *513:8 *1875:CLK 0
41 *514:10 *1875:CLK 0
42 *514:14 *1875:CLK 0
43 *833:38 *2056:CLK 0
44 *892:10 *1926:CLK 0.0005381
45 *892:10 *1139:17 0
46 *892:10 *1139:26 0
47 *892:10 *1139:30 7.48842e-05
48 *892:12 *1139:30 0.000287017
49 *892:14 *1139:30 0.000287056
50 *895:8 *2056:CLK 0.000339398
51 *895:27 *2056:CLK 9.67489e-05
52 *936:85 *1139:8 0
53 *1129:14 *1926:CLK 0
*RES
1 *2271:X *1139:8 21.6808 
2 *1139:8 *2054:CLK 20.5104 
3 *1139:8 *1139:17 1.5664 
4 *1139:17 *2055:CLK 20 
5 *1139:17 *1139:26 23.2296 
6 *1139:26 *1139:30 4.1624 
7 *1139:30 *1139:32 2.6224 
8 *1139:32 *2063:CLK 44.3472 
9 *1139:32 *2057:CLK 40 
10 *1139:30 *2056:CLK 45.7728 
11 *1139:26 *1926:CLK 46.908 
12 *2271:X *1139:83 25.9136 
13 *1139:83 *1875:CLK 25.6144 
14 *1139:83 *2010:CLK 20.7216 
*END

*D_NET *1140 0.0150985
*CONN
*I *1931:CLK I *D sg13g2_dfrbpq_1
*I *1933:CLK I *D sg13g2_dfrbpq_1
*I *1866:CLK I *D sg13g2_dfrbpq_1
*I *1899:CLK I *D sg13g2_dfrbpq_1
*I *1895:CLK I *D sg13g2_dfrbpq_1
*I *1897:CLK I *D sg13g2_dfrbpq_1
*I *1902:CLK I *D sg13g2_dfrbpq_1
*I *1900:CLK I *D sg13g2_dfrbpq_1
*I *2272:X O *D sg13g2_buf_16
*CAP
1 *1931:CLK 2.80462e-05
2 *1933:CLK 0.000354751
3 *1866:CLK 0.000721891
4 *1899:CLK 0.000185877
5 *1895:CLK 0.000504588
6 *1897:CLK 0.000698016
7 *1902:CLK 3.47831e-05
8 *1900:CLK 0.000151102
9 *2272:X 0.000151102
10 *1140:87 0.000892139
11 *1140:41 0.00128742
12 *1140:30 0.000565644
13 *1140:24 0.000683748
14 *1140:22 0.000969287
15 *1140:20 0.000704912
16 axi_lite_o[22] *1140:87 0.00104664
17 *1590:A2 *1140:30 0
18 *1591:A *1140:22 0
19 *1592:B1 *1140:30 0
20 *1803:A *1866:CLK 0
21 *1900:RESET_B *1866:CLK 0
22 *1902:RESET_B *1895:CLK 0
23 *1902:RESET_B *1140:41 0.000287672
24 *1902:D *1897:CLK 8.02379e-05
25 *1933:RESET_B *1933:CLK 0
26 *2241:A *1897:CLK 0
27 *2258:A *1866:CLK 0
28 *110:10 *1899:CLK 0
29 *345:10 *1931:CLK 0
30 *345:10 *1933:CLK 0
31 *506:44 *1866:CLK 0
32 *506:44 *1900:CLK 0
33 *507:84 *1895:CLK 0
34 *589:8 *1140:22 0.000128742
35 *589:8 *1140:24 0.000290724
36 *589:8 *1140:30 0.000400014
37 *673:12 *1140:22 0.000646025
38 *673:12 *1140:24 0.000268301
39 *673:12 *1140:30 0.00045383
40 *673:12 *1140:87 0.00102563
41 *929:10 *1897:CLK 0
42 *929:27 *1897:CLK 0.000533842
43 *971:8 *1866:CLK 0.000307019
44 *1105:86 *1933:CLK 0
45 *1105:96 *1140:87 0.00110061
46 *1109:12 *1897:CLK 0
47 *1109:29 *1897:CLK 0
48 *1109:29 *1140:30 0
49 *1121:27 *1895:CLK 0.000289003
50 *1121:48 *1899:CLK 0.000306936
51 *1129:6 *1895:CLK 0
*RES
1 *2272:X *1900:CLK 41.6808 
2 *2272:X *1140:20 40 
3 *1140:20 *1140:22 2.6224 
4 *1140:22 *1140:24 1.144 
5 *1140:24 *1140:30 24.8224 
6 *1140:30 *1902:CLK 20.2728 
7 *1140:30 *1140:41 21.144 
8 *1140:41 *1897:CLK 46.38 
9 *1140:41 *1895:CLK 44.9368 
10 *1140:24 *1899:CLK 41.7512 
11 *1140:22 *1866:CLK 46.556 
12 *1140:20 *1140:87 28.536 
13 *1140:87 *1933:CLK 23.2296 
14 *1140:87 *1931:CLK 20.2728 
*END

*D_NET *1117 0.013968
*CONN
*I *2070:CLK I *D sg13g2_dfrbpq_1
*I *2072:CLK I *D sg13g2_dfrbpq_1
*I *2067:CLK I *D sg13g2_dfrbpq_1
*I *2069:CLK I *D sg13g2_dfrbpq_1
*I *1985:CLK I *D sg13g2_dfrbpq_1
*I *1986:CLK I *D sg13g2_dfrbpq_1
*I *1962:CLK I *D sg13g2_dfrbpq_1
*I *2068:CLK I *D sg13g2_dfrbpq_1
*I *2249:X O *D sg13g2_buf_16
*CAP
1 *2070:CLK 0.000647616
2 *2072:CLK 0.000556829
3 *2067:CLK 0
4 *2069:CLK 0.000204078
5 *1985:CLK 0.000135042
6 *1986:CLK 0.00019924
7 *1962:CLK 0.000328352
8 *2068:CLK 0
9 *2249:X 5.11754e-05
10 *1117:100 0.000996112
11 *1117:78 0.00128527
12 *1117:66 0.00107694
13 *1117:25 0.000584049
14 *1117:23 0.000391946
15 *1117:14 0.000893474
16 *1117:8 0.000948281
17 *1446:A1 *1962:CLK 0.000556237
18 *1742:A *2069:CLK 4.77425e-05
19 *1742:A *1117:14 0.00012816
20 *1748:B *1117:78 0
21 *1756:B *1117:14 0.000234224
22 *1757:A1 *1117:14 0.000234224
23 *2047:RESET_B *2070:CLK 0.00120482
24 *2049:D *1117:78 0
25 *2128:A *2072:CLK 0
26 *2249:A *1117:78 0
27 *253:8 *1117:100 0
28 *255:10 *1117:78 7.99179e-05
29 *256:27 *2069:CLK 0
30 *256:35 *1117:8 0
31 *259:10 *1117:8 0.000128663
32 *259:10 *1117:14 0.000212127
33 *399:12 *1117:14 0
34 *399:12 *1117:78 0
35 *706:20 *2072:CLK 0
36 *706:28 *2072:CLK 0
37 *713:12 *2072:CLK 0
38 *721:59 *1986:CLK 0
39 *721:59 *1117:14 0.000128662
40 *721:59 *1117:23 0
41 *844:58 *1986:CLK 1.54008e-05
42 *844:58 *1117:14 0
43 *844:58 *1117:23 0
44 *844:67 *1986:CLK 0.000339437
45 *844:71 *1962:CLK 0
46 *844:107 *1985:CLK 0
47 *869:8 *1117:8 0
48 *869:8 *1117:100 0
49 *869:23 *2069:CLK 0
50 *873:8 *2072:CLK 0
51 *873:33 *1117:78 0
52 *873:56 *2070:CLK 0.00120482
53 *1036:10 *1962:CLK 0.00012816
54 *1095:12 *1117:78 0.00039202
55 *1095:16 *1117:78 0
56 *1095:53 *1117:14 0.000394566
57 *1100:14 *2072:CLK 0.000240426
*RES
1 *2249:X *1117:8 40.7216 
2 *1117:8 *1117:14 27.0928 
3 *1117:14 *2068:CLK 20 
4 *1117:14 *1117:23 21.5664 
5 *1117:23 *1117:25 0.5104 
6 *1117:25 *1962:CLK 44.1008 
7 *1117:25 *1986:CLK 41.936 
8 *1117:23 *1985:CLK 41.3552 
9 *1117:8 *2069:CLK 41.936 
10 *2249:X *1117:66 20 
11 *1117:66 *1117:78 47.0312 
12 *1117:78 *2067:CLK 20 
13 *1117:78 *2072:CLK 25.0688 
14 *1117:66 *1117:100 43.4672 
15 *1117:100 *2070:CLK 26.9256 
*END

*D_NET *1142 0.00978591
*CONN
*I *1865:CLK I *D sg13g2_dfrbpq_1
*I *1932:CLK I *D sg13g2_dfrbpq_1
*I *1928:CLK I *D sg13g2_dfrbpq_1
*I *1927:CLK I *D sg13g2_dfrbpq_1
*I *1867:CLK I *D sg13g2_dfrbpq_1
*I *1896:CLK I *D sg13g2_dfrbpq_1
*I *1937:CLK I *D sg13g2_dfrbpq_1
*I *1864:CLK I *D sg13g2_dfrbpq_1
*I *2274:X O *D sg13g2_buf_16
*CAP
1 *1865:CLK 0
2 *1932:CLK 0
3 *1928:CLK 0.000516056
4 *1927:CLK 2.37423e-05
5 *1867:CLK 0.00017202
6 *1896:CLK 0.000107728
7 *1937:CLK 0
8 *1864:CLK 0.000644056
9 *2274:X 0
10 *1142:64 0.000539798
11 *1142:44 0.000812104
12 *1142:40 0.0011874
13 *1142:34 0.000838224
14 *1142:25 0.000581672
15 *1142:23 0.000877996
16 *1142:6 0.00112356
17 *1927:CLK *1183:14 4.35073e-05
18 *1928:CLK *1183:14 0
19 *1216:A *1142:34 0
20 *1216:A *1142:40 0
21 *1492:A2 *1864:CLK 0
22 *1495:B1 *1928:CLK 0
23 *1495:A1 *1928:CLK 8.03692e-05
24 *1703:B *1864:CLK 0
25 *1704:B1 *1864:CLK 1.54008e-05
26 *1805:A *1142:25 0
27 *1807:A2 *1864:CLK 0
28 *2172:A *1142:25 0.000112689
29 *82:10 *1142:40 0.000287672
30 *82:10 *1142:44 0.000713259
31 *334:10 *1142:40 0
32 *334:10 *1142:44 0
33 *506:33 *1867:CLK 0
34 *507:100 *1864:CLK 0.000287672
35 *507:100 *1142:23 0.000820983
36 *516:21 *1928:CLK 0
37 *516:41 *1142:25 0
38 *516:41 *1142:34 0
39 *516:41 *1142:40 0
40 *516:50 *1142:23 0
41 *516:50 *1142:25 0
42 *519:36 *1864:CLK 0
43 *519:42 *1864:CLK 0
44 *577:8 *1896:CLK 0
45 *592:8 *1896:CLK 0
46 *681:8 *1864:CLK 0
47 *681:8 *1142:23 0
48 *759:8 *1142:23 0
49 *759:8 *1142:25 0
50 *930:16 *1928:CLK 0
51 *935:8 *1142:25 0
52 *965:12 *1142:44 0
53 *965:25 *1896:CLK 0
54 *965:25 *1142:44 0
55 *1006:8 *1142:40 0
56 *1105:23 *1867:CLK 0
57 *1126:8 *1864:CLK 0
*RES
1 *2274:X *1142:6 40 
2 *1142:6 *1864:CLK 45.192 
3 *1142:6 *1142:23 25.192 
4 *1142:23 *1142:25 3.4144 
5 *1142:25 *1937:CLK 20 
6 *1142:25 *1142:34 1.8656 
7 *1142:34 *1142:40 26.0632 
8 *1142:40 *1142:44 5.6408 
9 *1142:44 *1896:CLK 41.144 
10 *1142:44 *1867:CLK 41.5664 
11 *1142:40 *1142:64 20 
12 *1142:64 *1927:CLK 20.2486 
13 *1142:64 *1928:CLK 24.2504 
14 *1142:34 *1932:CLK 20 
15 *1142:23 *1865:CLK 20 
*END

*D_NET *1145 0.00983111
*CONN
*I *1929:CLK I *D sg13g2_dfrbpq_1
*I *1934:CLK I *D sg13g2_dfrbpq_1
*I *1905:CLK I *D sg13g2_dfrbpq_1
*I *1898:CLK I *D sg13g2_dfrbpq_1
*I *1935:CLK I *D sg13g2_dfrbpq_1
*I *1906:CLK I *D sg13g2_dfrbpq_1
*I *1904:CLK I *D sg13g2_dfrbpq_1
*I *1936:CLK I *D sg13g2_dfrbpq_1
*I *2277:X O *D sg13g2_buf_16
*CAP
1 *1929:CLK 0
2 *1934:CLK 0.000422369
3 *1905:CLK 0
4 *1898:CLK 3.21308e-05
5 *1935:CLK 0.000616428
6 *1906:CLK 4.81947e-05
7 *1904:CLK 0
8 *1936:CLK 0
9 *2277:X 0.000178718
10 *1145:80 0.000976642
11 *1145:42 0.00113401
12 *1145:31 0.000822671
13 *1145:23 0.000640963
14 *1145:17 0.000790523
15 *1145:15 0.00148587
16 *1145:6 0.000575335
17 *1213:A *1145:15 0
18 *1219:A *1934:CLK 0
19 *1224:A1 *1935:CLK 0
20 *1593:A *1145:31 0.000341949
21 *1904:RESET_B *1145:31 0
22 *1935:RESET_B *1898:CLK 0
23 *1935:RESET_B *1145:23 0
24 *73:10 *1145:15 0
25 *74:10 *1935:CLK 0
26 *325:14 *1145:80 0
27 *332:8 *1145:17 0.000447183
28 *332:8 *1145:80 0.00012816
29 *335:12 *1934:CLK 0
30 *336:8 *1145:17 0.000234726
31 *336:8 *1145:80 0.00053115
32 *340:10 *1935:CLK 0.000242313
33 *506:8 *1145:17 0
34 *506:8 *1145:23 0
35 *506:8 *1145:31 0
36 *506:14 *1935:CLK 0
37 *684:12 *1145:80 0.000181781
38 *930:52 *1145:80 0
39 *970:27 *1935:CLK 0
40 *972:12 *1145:23 0
41 *972:27 *1145:15 0
42 *972:27 *1145:17 0
43 *975:12 *1145:17 0
44 *1102:36 *1145:23 0
45 *1102:42 *1145:23 0
46 *1102:42 *1145:31 0
47 *1103:12 *1145:15 0
48 *1103:27 *1934:CLK 0
49 *1107:43 *1906:CLK 0
50 *1107:43 *1145:42 0
51 *1107:50 *1906:CLK 0
52 *1126:47 *1145:80 0
53 *1126:66 *1145:15 0
54 *1126:74 *1145:15 0
*RES
1 *2277:X *1145:6 21.7512 
2 *1145:6 *1936:CLK 20 
3 *1145:6 *1145:15 23.4144 
4 *1145:15 *1145:17 4.9456 
5 *1145:17 *1145:23 22.1296 
6 *1145:23 *1145:31 43.6608 
7 *1145:31 *1904:CLK 20 
8 *1145:31 *1145:42 24.4 
9 *1145:42 *1906:CLK 40.4576 
10 *1145:42 *1935:CLK 45.6672 
11 *1145:23 *1898:CLK 20.4576 
12 *1145:17 *1905:CLK 40 
13 *1145:15 *1145:80 26.0016 
14 *1145:80 *1934:CLK 23.7136 
15 *1145:80 *1929:CLK 20 
*END

*D_NET *1146 0.0125065
*CONN
*I *2007:CLK I *D sg13g2_dfrbpq_1
*I *1903:CLK I *D sg13g2_dfrbpq_1
*I *1871:CLK I *D sg13g2_dfrbpq_1
*I *2008:CLK I *D sg13g2_dfrbpq_1
*I *1874:CLK I *D sg13g2_dfrbpq_1
*I *2006:CLK I *D sg13g2_dfrbpq_1
*I *2004:CLK I *D sg13g2_dfrbpq_1
*I *1870:CLK I *D sg13g2_dfrbpq_1
*I *2278:X O *D sg13g2_buf_16
*CAP
1 *2007:CLK 0
2 *1903:CLK 0
3 *1871:CLK 0
4 *2008:CLK 2.77263e-05
5 *1874:CLK 0.00027095
6 *2006:CLK 0.000173584
7 *2004:CLK 0.000723518
8 *1870:CLK 3.03288e-05
9 *2278:X 0.000324929
10 *1146:90 0.000825619
11 *1146:82 0.00160513
12 *1146:67 0.00147006
13 *1146:45 0.00113475
14 *1146:21 0.000992536
15 *1146:19 0.00148135
16 *1146:17 0.00124039
17 *1146:8 0.000355258
18 *1146:8 *2197:A 0
19 *1146:19 *1870:D 0
20 *1146:19 *1186:10 0
21 *1146:67 *1870:D 0
22 *1146:67 *1164:14 0
23 axi_lite_o[0] *2004:CLK 0
24 *1655:A *1146:45 0.000209648
25 *1808:A *1146:82 0
26 *2004:RESET_B *2004:CLK 0
27 *2006:RESET_B *2006:CLK 0
28 *2006:RESET_B *1146:45 0
29 *2187:A *2004:CLK 0
30 *2278:A *1146:82 0
31 *193:27 *2004:CLK 0.000454902
32 *193:27 *2006:CLK 0
33 *202:10 *1146:45 0
34 *353:8 *2004:CLK 0
35 *365:8 *1146:82 0
36 *406:58 *1874:CLK 0
37 *510:26 *1874:CLK 4.77425e-05
38 *583:8 *1146:90 0
39 *657:14 *1874:CLK 0
40 *657:14 *1146:45 0
41 *690:10 *2004:CLK 1.54008e-05
42 *749:8 *2004:CLK 0
43 *943:8 *1146:67 0
44 *943:8 *1146:82 0
45 *1018:8 *1146:90 0
46 *1102:23 *1146:90 0
47 *1102:32 *1146:90 0
48 *1112:90 *1146:82 0
49 *1112:119 *1870:CLK 4.77425e-05
50 *1112:119 *1146:8 0.000518978
51 *1112:119 *1146:19 0.000503121
52 *1112:119 *1146:67 5.28594e-05
*RES
1 *2278:X *1146:8 23.1592 
2 *1146:8 *1870:CLK 20.2728 
3 *1146:8 *1146:17 20 
4 *1146:17 *1146:19 6.0016 
5 *1146:19 *1146:21 0.9328 
6 *1146:21 *2004:CLK 47.4888 
7 *1146:21 *2006:CLK 41.7512 
8 *1146:19 *1146:45 28.404 
9 *1146:45 *1874:CLK 22.4992 
10 *1146:45 *2008:CLK 20.2992 
11 *1146:17 *1146:67 26.644 
12 *1146:67 *1871:CLK 20 
13 *1146:67 *1146:82 47.392 
14 *1146:82 *1146:90 47.7792 
15 *1146:90 *1903:CLK 20 
16 *1146:82 *2007:CLK 20 
*END

*D_NET *1144 0.00980666
*CONN
*I *2003:CLK I *D sg13g2_dfrbpq_1
*I *1861:CLK I *D sg13g2_dfrbpq_1
*I *1990:CLK I *D sg13g2_dfrbpq_1
*I *1872:CLK I *D sg13g2_dfrbpq_1
*I *1901:CLK I *D sg13g2_dfrbpq_1
*I *1873:CLK I *D sg13g2_dfrbpq_1
*I *2062:CLK I *D sg13g2_dfrbpq_1
*I *1868:CLK I *D sg13g2_dfrbpq_1
*I *2276:X O *D sg13g2_buf_16
*CAP
1 *2003:CLK 0
2 *1861:CLK 0.000185615
3 *1990:CLK 0
4 *1872:CLK 0.000425852
5 *1901:CLK 0
6 *1873:CLK 3.33756e-05
7 *2062:CLK 0.000357397
8 *1868:CLK 0
9 *2276:X 2.77263e-05
10 *1144:65 0.00124218
11 *1144:47 0.00116963
12 *1144:32 0.00113143
13 *1144:26 0.00191454
14 *1144:10 0.000859356
15 *1144:6 0.00103337
16 *1144:10 *1869:CLK 0
17 *1144:47 *1183:18 0
18 *1257:B1 *1873:CLK 1.54008e-05
19 *1260:A *1144:32 0.000499812
20 *1273:A *1144:10 0
21 *1281:B1 *1144:10 0
22 *1281:B1 *1144:26 0
23 *1661:A2 *1144:26 0
24 *1751:A1 *1861:CLK 0
25 *1861:RESET_B *1861:CLK 0
26 *1873:RESET_B *1144:26 0.000209374
27 *1873:RESET_B *1144:32 0.000306925
28 *2062:RESET_B *2062:CLK 0
29 *153:10 *1144:26 0
30 *197:40 *1144:26 0
31 *197:40 *1144:32 0
32 *197:62 *1144:10 0
33 *197:62 *1144:26 0
34 *367:8 *1144:47 0
35 *507:27 *1872:CLK 0
36 *507:27 *1144:47 0
37 *946:10 *1144:26 0
38 *951:16 *1144:32 7.48842e-05
39 *951:16 *1144:47 0.000157786
40 *951:55 *1144:26 0
41 *1104:12 *1144:26 0.000161999
42 *1107:10 *1144:65 0
43 *1107:30 *1144:65 0
44 *1112:60 *1144:65 0
45 *1112:75 *1144:32 0
46 *1112:75 *1144:47 0
47 *1112:75 *1144:65 0
48 *1112:90 *1144:47 0
*RES
1 *2276:X *1144:6 20.2992 
2 *1144:6 *1144:10 4.2944 
3 *1144:10 *1868:CLK 20 
4 *1144:10 *2062:CLK 23.5024 
5 *1144:6 *1144:26 4.5232 
6 *1144:26 *1144:32 23.9512 
7 *1144:32 *1873:CLK 40.2728 
8 *1144:32 *1144:47 26.6968 
9 *1144:47 *1901:CLK 20 
10 *1144:47 *1872:CLK 23.4144 
11 *1144:26 *1144:65 47.6912 
12 *1144:65 *1990:CLK 20 
13 *1144:65 *1861:CLK 21.5664 
14 *1144:26 *2003:CLK 20 
*END

*D_NET *1147 0.0149608
*CONN
*I *2061:CLK I *D sg13g2_dfrbpq_1
*I *1869:CLK I *D sg13g2_dfrbpq_1
*I *2053:CLK I *D sg13g2_dfrbpq_1
*I *2060:CLK I *D sg13g2_dfrbpq_1
*I *2051:CLK I *D sg13g2_dfrbpq_1
*I *1863:CLK I *D sg13g2_dfrbpq_1
*I *2018:CLK I *D sg13g2_dfrbpq_1
*I *2064:CLK I *D sg13g2_dfrbpq_1
*I *2279:X O *D sg13g2_buf_16
*CAP
1 *2061:CLK 0.000416142
2 *1869:CLK 0.000670059
3 *2053:CLK 0
4 *2060:CLK 0
5 *2051:CLK 0
6 *1863:CLK 0
7 *2018:CLK 0.000213622
8 *2064:CLK 0
9 *2279:X 0.00109943
10 *1147:93 0.0010862
11 *1147:91 0.000563844
12 *1147:77 0.000682025
13 *1147:48 0.000160845
14 *1147:35 0.00131706
15 *1147:31 0.00151717
16 *1147:21 0.0010144
17 *1147:13 0.00134679
18 *1147:6 0.000760536
19 *1264:A *1147:35 0.00043656
20 *1274:A2 *1869:CLK 0
21 *1285:C *1147:91 0
22 *1295:A *1147:6 0
23 *1295:B *1147:6 0
24 *1765:A *1147:77 4.77866e-05
25 *1780:C *1147:6 0
26 *1780:C *1147:13 0
27 *1780:A *1147:77 0
28 *1794:A *1869:CLK 0.000209681
29 *1795:B1 *1869:CLK 0
30 *1816:A1 *1147:48 0.000554577
31 *1818:A1 *1147:48 0
32 *1852:B *2061:CLK 0
33 *1868:RESET_B *1869:CLK 4.77425e-05
34 *1868:D *1869:CLK 0
35 *2051:RESET_B *1147:31 0
36 *2051:RESET_B *1147:35 1.54556e-05
37 *2051:D *1147:35 0
38 *2062:RESET_B *2061:CLK 0
39 *2062:D *2061:CLK 0
40 *2064:D *1147:21 0.000714417
41 *267:8 *1147:77 0
42 *278:8 *1147:21 0
43 *278:8 *1147:77 0
44 *373:14 *1147:35 0
45 *378:10 *2018:CLK 0
46 *379:25 *1147:21 4.77425e-05
47 *379:25 *1147:31 0.000209637
48 *383:10 *1869:CLK 0.000339175
49 *385:18 *1147:91 0
50 *386:10 *1147:6 0.000274375
51 *387:10 *1147:6 0
52 *392:10 *1147:91 0
53 *392:16 *1147:6 0
54 *392:16 *1147:77 0
55 *404:36 *1147:21 0
56 *404:36 *1147:31 0
57 *404:36 *1147:35 0
58 *507:59 *1147:91 0.000981323
59 *657:14 *1869:CLK 0
60 *877:8 *1147:91 0
61 *885:23 *1147:21 0
62 *913:77 *1147:91 0
63 *936:8 *1147:31 0
64 *936:21 *1147:21 0
65 *936:21 *1147:31 0
66 *1044:6 *2018:CLK 0
67 *1044:6 *1147:35 0
68 *1100:64 *1147:21 0.000234224
69 *1100:64 *1147:31 0
70 *1106:15 *1147:77 0
71 *1106:21 *1147:6 0
72 *1106:21 *1147:13 0
73 *1106:21 *1147:77 0
74 *1144:10 *1869:CLK 0
*RES
1 *2279:X *1147:6 24.708 
2 *1147:6 *2064:CLK 20 
3 *1147:6 *1147:13 1.7512 
4 *1147:13 *1147:21 44.5848 
5 *1147:21 *1147:31 44.4352 
6 *1147:31 *1147:35 8.3072 
7 *1147:35 *2018:CLK 21.5664 
8 *1147:35 *1147:48 42.2 
9 *1147:48 *1863:CLK 20 
10 *1147:31 *2051:CLK 20 
11 *1147:21 *2060:CLK 20 
12 *1147:13 *1147:77 46.2744 
13 *1147:77 *2053:CLK 20 
14 *2279:X *1147:91 46.8464 
15 *1147:91 *1147:93 20 
16 *1147:93 *1869:CLK 25.9752 
17 *1147:93 *2061:CLK 23.74 
*END

*D_NET *1143 0.0110458
*CONN
*I *1862:CLK I *D sg13g2_dfrbpq_1
*I *1940:CLK I *D sg13g2_dfrbpq_1
*I *2052:CLK I *D sg13g2_dfrbpq_1
*I *1938:CLK I *D sg13g2_dfrbpq_1
*I *1966:CLK I *D sg13g2_dfrbpq_1
*I *2009:CLK I *D sg13g2_dfrbpq_1
*I *2015:CLK I *D sg13g2_dfrbpq_1
*I *1964:CLK I *D sg13g2_dfrbpq_1
*I *2275:X O *D sg13g2_buf_16
*CAP
1 *1862:CLK 0.000115547
2 *1940:CLK 0
3 *2052:CLK 0
4 *1938:CLK 0
5 *1966:CLK 0
6 *2009:CLK 0
7 *2015:CLK 0.000179838
8 *1964:CLK 0.000140707
9 *2275:X 0.000963202
10 *1143:92 0.000346574
11 *1143:84 0.000646919
12 *1143:78 0.000599823
13 *1143:54 0.000206366
14 *1143:41 0.000757701
15 *1143:33 0.00129893
16 *1143:23 0.00154924
17 *1143:10 0.00154179
18 *1242:B1 *1143:23 0
19 *1242:B1 *1143:33 0
20 *1254:A1 *1143:23 0
21 *1439:A0 *1143:33 0
22 *1471:A1 *1143:33 0
23 *1819:B *1143:23 0
24 *1826:A *1143:54 0
25 *1938:RESET_B *1143:23 0
26 *43:10 *1143:23 0
27 *68:8 *1143:10 0
28 *163:10 *1143:54 0.000715696
29 *361:36 *2015:CLK 0
30 *361:36 *1143:41 0
31 *361:49 *1143:41 0
32 *363:8 *1143:23 0.000242006
33 *375:10 *1143:33 0
34 *375:10 *1143:41 0
35 *399:12 *1143:92 0
36 *401:12 *1862:CLK 0
37 *401:12 *1143:84 0
38 *401:12 *1143:92 0
39 *406:10 *1143:54 0.000478485
40 *406:16 *1143:41 0
41 *406:16 *1143:54 0.000503729
42 *475:49 *1143:10 0
43 *475:58 *1143:10 0.000242472
44 *475:58 *1143:78 0
45 *475:66 *1143:84 0
46 *475:66 *1143:92 0
47 *505:96 *1143:10 0
48 *652:16 *1143:41 0
49 *652:24 *1143:33 0
50 *707:14 *1143:23 0
51 *793:17 *2015:CLK 0
52 *913:18 *1143:10 0
53 *1044:6 *1143:78 0
54 *1073:20 *1143:23 0
55 *1079:46 *1143:23 0
56 *1079:58 *1862:CLK 0
57 *1079:58 *1143:84 0
58 *1079:62 *1143:78 0
59 *1088:30 *1143:10 1.54008e-05
60 *1100:49 *1143:92 0
61 *1100:83 *1143:10 0.000501392
62 *1100:83 *1143:33 0
*RES
1 *2275:X *1143:10 47.3832 
2 *1143:10 *1964:CLK 41.144 
3 *1143:10 *1143:23 25.2624 
4 *1143:23 *1143:33 47.8672 
5 *1143:33 *1143:41 43.7136 
6 *1143:41 *2015:CLK 21.5664 
7 *1143:41 *1143:54 43.8896 
8 *1143:54 *2009:CLK 20 
9 *1143:33 *1966:CLK 20 
10 *1143:23 *1938:CLK 20 
11 *2275:X *1143:78 41.5664 
12 *1143:78 *1143:84 22.6576 
13 *1143:84 *1143:92 43.1328 
14 *1143:92 *2052:CLK 20 
15 *1143:84 *1940:CLK 20 
16 *1143:78 *1862:CLK 41.144 
*END

*D_NET *1141 0.0119595
*CONN
*I *2016:CLK I *D sg13g2_dfrbpq_1
*I *1939:CLK I *D sg13g2_dfrbpq_1
*I *2012:CLK I *D sg13g2_dfrbpq_1
*I *2013:CLK I *D sg13g2_dfrbpq_1
*I *1965:CLK I *D sg13g2_dfrbpq_1
*I *2005:CLK I *D sg13g2_dfrbpq_1
*I *2019:CLK I *D sg13g2_dfrbpq_1
*I *2017:CLK I *D sg13g2_dfrbpq_1
*I *2273:X O *D sg13g2_buf_16
*CAP
1 *2016:CLK 0.000161529
2 *1939:CLK 0.000236036
3 *2012:CLK 0
4 *2013:CLK 0.000611713
5 *1965:CLK 0.000722432
6 *2005:CLK 0.000245483
7 *2019:CLK 2.76679e-05
8 *2017:CLK 0
9 *2273:X 0.000770587
10 *1141:60 0.00147866
11 *1141:58 0.000415739
12 *1141:56 0.000919492
13 *1141:25 0.000889273
14 *1141:16 0.000532059
15 *1141:6 0.00134501
16 *2016:CLK *1187:16 0
17 *1141:16 *2200:A 0
18 *1248:A *1141:25 0.00028682
19 *1250:A *1141:16 0.000130055
20 *1381:B *1141:6 0
21 *1381:B *1141:56 0
22 *1384:B *2013:CLK 0
23 *1385:A *1965:CLK 4.77425e-05
24 *1439:A0 *1939:CLK 0
25 *1439:A0 *1141:58 0.000128576
26 *1441:A *1965:CLK 0
27 *1470:A0 *1141:56 0.000234224
28 *1470:A0 *1141:58 0.000212958
29 *1470:S *1939:CLK 0
30 *1820:A1 *2013:CLK 4.77425e-05
31 *1820:B1 *2013:CLK 4.77425e-05
32 *1821:B *2013:CLK 0
33 *1827:C *1141:25 0.000560645
34 *2012:D *1965:CLK 1.54008e-05
35 *2013:RESET_B *2013:CLK 0
36 *2016:RESET_B *1141:56 0
37 *2085:A *1965:CLK 0
38 *2085:A *2013:CLK 0
39 *2325:A *2013:CLK 0
40 *16:20 *1141:56 0
41 *16:20 *1141:58 0
42 *69:10 *1141:58 0
43 *357:35 *1141:16 0.000130344
44 *358:10 *1141:16 0.000112558
45 *360:8 *1141:25 0
46 *360:12 *2005:CLK 0
47 *360:12 *2019:CLK 0
48 *400:28 *1141:25 0
49 *467:10 *1141:25 0.000107739
50 *505:53 *1141:60 0
51 *505:64 *1141:58 0
52 *505:64 *1141:60 0
53 *650:12 *2013:CLK 0
54 *650:12 *1141:16 0
55 *651:10 *1141:16 1.54449e-05
56 *651:10 *1141:56 0
57 *653:20 *2016:CLK 0.000274496
58 *691:32 *2013:CLK 0
59 *691:47 *1965:CLK 0.000240202
60 *706:20 *1965:CLK 0
61 *707:14 *1141:6 0
62 *707:14 *1141:16 0
63 *707:14 *1141:56 0.000533848
64 *793:17 *2005:CLK 0
65 *793:17 *2019:CLK 0
66 *1080:6 *1141:56 0
67 *1082:10 *1965:CLK 0
68 *1082:10 *1141:60 0
69 *1086:14 *1141:25 0.000234936
70 *1097:46 *1141:6 0
71 *1097:46 *1141:16 0
72 *1097:105 *2013:CLK 0.000242341
*RES
1 *2273:X *1141:6 21.5664 
2 *1141:6 *1141:16 44.884 
3 *1141:16 *2017:CLK 20 
4 *1141:6 *1141:25 26.8464 
5 *1141:25 *2019:CLK 40.2728 
6 *1141:25 *2005:CLK 42.1032 
7 *2273:X *1141:56 44.4 
8 *1141:56 *1141:58 3.0448 
9 *1141:58 *1141:60 1.5664 
10 *1141:60 *1965:CLK 46.4592 
11 *1141:60 *2013:CLK 45.5616 
12 *1141:58 *2012:CLK 40 
13 *1141:56 *1939:CLK 41.8656 
14 *2273:X *2016:CLK 41.5664 
*END

*D_NET *918 0.0081529
*CONN
*I *2040:CLK I *D sg13g2_dfrbpq_1
*I *2041:CLK I *D sg13g2_dfrbpq_1
*I *2281:A I *D sg13g2_buf_8
*I *2066:CLK I *D sg13g2_dfrbpq_1
*I *2014:CLK I *D sg13g2_dfrbpq_1
*I *2084:CLK I *D sg13g2_dfrbpq_1
*I *2121:X O *D sg13g2_buf_16
*CAP
1 *2040:CLK 0
2 *2041:CLK 0.000392463
3 *2281:A 0
4 *2066:CLK 0
5 *2014:CLK 0.000622447
6 *2084:CLK 0
7 *2121:X 0.000146831
8 *918:48 0.000677576
9 *918:18 0.00102465
10 *918:12 0.000694463
11 *918:8 0.000460565
12 *918:6 0.000600251
13 *2014:CLK *1097:120 0.000503345
14 *2041:CLK *1151:8 0
15 *918:6 *2073:D 0
16 *918:48 *1151:8 0
17 *2084:RESET_B *918:8 0
18 *2084:RESET_B *918:12 0
19 *2084:RESET_B *918:18 0
20 *2084:D *918:6 6.47275e-05
21 *2084:D *918:8 0.000103309
22 *2084:D *918:12 0
23 *2084:D *918:18 0.000242313
24 *2285:A *918:6 1.54008e-05
25 *2285:A *918:8 0.000209506
26 *505:18 *2014:CLK 0
27 *505:18 *918:18 0
28 *704:8 *918:48 0
29 *844:8 *918:48 0
30 *844:26 *918:6 0
31 *845:21 *2041:CLK 0.000986066
32 *845:34 *2041:CLK 0.000479865
33 *845:34 *918:48 0.000929121
*RES
1 *2121:X *918:6 21.3816 
2 *918:6 *918:8 1.5664 
3 *918:8 *918:12 2.4464 
4 *918:12 *918:18 24.1888 
5 *918:18 *2084:CLK 40 
6 *918:18 *2014:CLK 47.2688 
7 *918:12 *2066:CLK 20 
8 *918:8 *2281:A 20 
9 *918:6 *918:48 23.6784 
10 *918:48 *2041:CLK 45.7904 
11 *918:48 *2040:CLK 40 
*END

*D_NET *1116 0.00832165
*CONN
*I *2077:CLK I *D sg13g2_dfrbpq_1
*I *2058:CLK I *D sg13g2_dfrbpq_1
*I *2011:CLK I *D sg13g2_dfrbpq_1
*I *2074:CLK I *D sg13g2_dfrbpq_1
*I *2059:CLK I *D sg13g2_dfrbpq_1
*I *2049:CLK I *D sg13g2_dfrbpq_1
*I *1992:CLK I *D sg13g2_dfrbpq_1
*I *2071:CLK I *D sg13g2_dfrbpq_1
*I *2248:X O *D sg13g2_buf_16
*CAP
1 *2077:CLK 0.000316378
2 *2058:CLK 0.000441894
3 *2011:CLK 0.000605217
4 *2074:CLK 2.33477e-05
5 *2059:CLK 0
6 *2049:CLK 0.000205507
7 *1992:CLK 0.000863256
8 *2071:CLK 0
9 *2248:X 0.000431541
10 *1116:61 0.00113651
11 *1116:50 0.000181956
12 *1116:34 0.000436179
13 *1116:16 0.00123913
14 *1116:10 0.00078239
15 *1116:8 0.000360226
16 *1724:B *2011:CLK 0
17 *2047:RESET_B *1992:CLK 0
18 *2047:RESET_B *1116:16 0
19 *2058:D *2011:CLK 0
20 *2074:RESET_B *2074:CLK 0
21 *2077:RESET_B *2074:CLK 0
22 *2077:RESET_B *2077:CLK 0
23 *2077:RESET_B *1116:8 0
24 *2077:RESET_B *1116:34 0.00033953
25 *2248:A *2058:CLK 0
26 *707:14 *2011:CLK 0
27 *721:70 *1992:CLK 0
28 *721:70 *1116:16 0
29 *851:8 *2011:CLK 0
30 *851:12 *1116:10 0
31 *851:14 *1116:16 0
32 *851:56 *2058:CLK 0.00018211
33 *851:69 *2058:CLK 0.000501961
34 *861:12 *2049:CLK 0.000274528
35 *861:12 *1116:34 0
36 *861:23 *1116:34 0
37 *871:10 *2077:CLK 0
38 *1100:64 *2058:CLK 0
39 *1106:27 *2011:CLK 0
40 *1106:27 *2049:CLK 0
41 *1106:27 *2058:CLK 0
42 *1106:27 *1116:50 0
43 *1106:27 *1116:61 0
*RES
1 *2248:X *1116:8 41.012 
2 *1116:8 *1116:10 1.7776 
3 *1116:10 *1116:16 23.3704 
4 *1116:16 *2071:CLK 20 
5 *1116:16 *1992:CLK 27.04 
6 *1116:10 *1116:34 22.1208 
7 *1116:34 *2049:CLK 22.0768 
8 *1116:34 *2059:CLK 20 
9 *1116:8 *1116:50 0.7216 
10 *1116:50 *2074:CLK 40.2728 
11 *1116:50 *1116:61 0.9328 
12 *1116:61 *2011:CLK 45.4472 
13 *1116:61 *2058:CLK 45.2184 
14 *2248:X *2077:CLK 42.86 
*END

*D_NET *1115 0.010736
*CONN
*I *2027:CLK I *D sg13g2_dfrbpq_1
*I *1993:CLK I *D sg13g2_dfrbpq_1
*I *2076:CLK I *D sg13g2_dfrbpq_1
*I *2081:CLK I *D sg13g2_dfrbpq_1
*I *2024:CLK I *D sg13g2_dfrbpq_1
*I *1991:CLK I *D sg13g2_dfrbpq_1
*I *2075:CLK I *D sg13g2_dfrbpq_1
*I *2078:CLK I *D sg13g2_dfrbpq_1
*I *2247:X O *D sg13g2_buf_16
*CAP
1 *2027:CLK 0.000264421
2 *1993:CLK 0.000453623
3 *2076:CLK 0
4 *2081:CLK 0.000587014
5 *2024:CLK 0
6 *1991:CLK 0.000931208
7 *2075:CLK 0
8 *2078:CLK 0.000433766
9 *2247:X 0.000433766
10 *1115:44 0.000978672
11 *1115:31 0.00174088
12 *1115:29 0.000485864
13 *1115:27 0.00069729
14 *1115:18 0.000337708
15 *1115:16 0.000426317
16 *1115:44 *1128:10 0.000175721
17 *1341:B *1991:CLK 0
18 *1699:A0 *2027:CLK 0
19 *1699:A0 *2078:CLK 0
20 *1699:A0 *1115:18 0.000274507
21 *1699:A0 *1115:27 0.000323855
22 *1699:A1 *1115:18 1.54556e-05
23 *1699:A1 *1115:27 0.00033931
24 *1721:B *1115:44 0
25 *1842:A1 *1115:44 0
26 *2027:RESET_B *2078:CLK 0
27 *2027:RESET_B *1115:44 0
28 *2076:D *1115:44 1.54008e-05
29 *2260:A *1991:CLK 0
30 *2260:A *1115:31 0
31 *2260:A *1115:44 0
32 *147:8 *1991:CLK 0
33 *149:12 *1993:CLK 0.000606693
34 *310:14 *1115:44 0
35 *404:36 *1115:18 0
36 *441:8 *1991:CLK 0
37 *716:8 *2081:CLK 0
38 *716:19 *2081:CLK 0
39 *833:23 *1991:CLK 0
40 *833:38 *1993:CLK 0
41 *834:37 *1993:CLK 0
42 *851:77 *2078:CLK 0
43 *856:49 *1991:CLK 0.000234224
44 *856:49 *1115:31 0.000106064
45 *857:8 *1993:CLK 0
46 *857:8 *1115:31 0
47 *863:8 *1991:CLK 0
48 *863:25 *1991:CLK 0
49 *887:12 *1993:CLK 0
50 *904:12 *2081:CLK 0
51 *938:46 *1993:CLK 0.000874211
52 *938:46 *1115:29 0
53 *938:46 *1115:31 0
*RES
1 *2247:X *2078:CLK 43.4144 
2 *2247:X *1115:16 20 
3 *1115:16 *1115:18 1.5664 
4 *1115:18 *2075:CLK 20 
5 *1115:18 *1115:27 21.936 
6 *1115:27 *1115:29 0.5104 
7 *1115:29 *1115:31 3.0448 
8 *1115:31 *1991:CLK 47.9024 
9 *1115:31 *1115:44 23.4144 
10 *1115:44 *2024:CLK 20 
11 *1115:44 *2081:CLK 25.4032 
12 *1115:29 *2076:CLK 40 
13 *1115:27 *1993:CLK 45.9136 
14 *1115:16 *2027:CLK 22.6576 
*END

*D_NET *1119 0.0110645
*CONN
*I *2031:CLK I *D sg13g2_dfrbpq_1
*I *2025:CLK I *D sg13g2_dfrbpq_1
*I *2026:CLK I *D sg13g2_dfrbpq_1
*I *2047:CLK I *D sg13g2_dfrbpq_1
*I *1984:CLK I *D sg13g2_dfrbpq_1
*I *1981:CLK I *D sg13g2_dfrbpq_1
*I *2035:CLK I *D sg13g2_dfrbpq_1
*I *2034:CLK I *D sg13g2_dfrbpq_1
*I *2251:X O *D sg13g2_buf_16
*CAP
1 *2031:CLK 2.77263e-05
2 *2025:CLK 0.000237008
3 *2026:CLK 0.000164686
4 *2047:CLK 4.72978e-05
5 *1984:CLK 6.30716e-05
6 *1981:CLK 0.000427829
7 *2035:CLK 2.61158e-05
8 *2034:CLK 0
9 *2251:X 0.000342174
10 *1119:60 0.000595069
11 *1119:34 0.00103007
12 *1119:30 0.00110632
13 *1119:28 0.000421074
14 *1119:19 0.000386499
15 *1119:17 0.000622152
16 *1119:8 0.000576216
17 *2025:CLK *2255:A 0
18 *2047:CLK *1346:A 0
19 *1119:60 *1346:A 0
20 *1347:B1 *2047:CLK 0
21 *1347:B1 *1119:60 0
22 *1674:S *2026:CLK 0
23 *1674:S *1119:60 0
24 *2025:RESET_B *2025:CLK 0
25 *2025:RESET_B *2035:CLK 0
26 *2030:RESET_B *1119:8 0
27 *11:8 *1119:30 0
28 *11:8 *1119:34 0
29 *316:10 *1981:CLK 0.000307369
30 *316:10 *1119:34 0.00156883
31 *580:6 *1981:CLK 0
32 *580:6 *1984:CLK 0
33 *580:23 *1981:CLK 0.000242483
34 *580:23 *1984:CLK 4.63586e-05
35 *580:34 *1981:CLK 0.000281347
36 *580:38 *1981:CLK 0
37 *715:10 *2026:CLK 0.000274397
38 *715:10 *1119:19 0
39 *715:10 *1119:60 0.000630901
40 *715:18 *1119:8 0
41 *715:18 *1119:17 0.000112558
42 *721:70 *1119:60 0
43 *830:10 *2025:CLK 0
44 *830:44 *2025:CLK 0.000181608
45 *830:44 *1119:30 0.000661385
46 *830:44 *1119:34 0.0006618
47 *926:6 *1119:19 0
48 *926:29 *1119:19 0
49 *926:40 *1119:8 2.21754e-05
50 *926:40 *1119:17 0
51 *926:40 *1119:19 0
52 *1098:10 *1119:34 0
*RES
1 *2251:X *1119:8 23.1328 
2 *1119:8 *2034:CLK 20 
3 *1119:8 *1119:17 2.2352 
4 *1119:17 *1119:19 3.2296 
5 *1119:19 *2035:CLK 20.2728 
6 *1119:19 *1119:28 20 
7 *1119:28 *1119:30 2.6224 
8 *1119:30 *1119:34 27.6912 
9 *1119:34 *1981:CLK 24.2504 
10 *1119:34 *1984:CLK 20.66 
11 *1119:30 *1119:60 23.5992 
12 *1119:60 *2047:CLK 20.5104 
13 *1119:60 *2026:CLK 21.5664 
14 *1119:28 *2025:CLK 42.4728 
15 *1119:17 *2031:CLK 20.2992 
*END

*D_NET *1118 0.00824413
*CONN
*I *1982:CLK I *D sg13g2_dfrbpq_1
*I *1958:CLK I *D sg13g2_dfrbpq_1
*I *1983:CLK I *D sg13g2_dfrbpq_1
*I *1959:CLK I *D sg13g2_dfrbpq_1
*I *1957:CLK I *D sg13g2_dfrbpq_1
*I *1960:CLK I *D sg13g2_dfrbpq_1
*I *1956:CLK I *D sg13g2_dfrbpq_1
*I *1955:CLK I *D sg13g2_dfrbpq_1
*I *2250:X O *D sg13g2_buf_16
*CAP
1 *1982:CLK 0
2 *1958:CLK 0
3 *1983:CLK 0.000523055
4 *1959:CLK 0.000288426
5 *1957:CLK 0.000190286
6 *1960:CLK 0.000513905
7 *1956:CLK 2.77984e-05
8 *1955:CLK 0.000524519
9 *2250:X 0.000111136
10 *1118:87 0.000566078
11 *1118:58 0.00103046
12 *1118:47 0.000409266
13 *1118:36 0.000719922
14 *1118:34 0.000586984
15 *1118:32 0.00101391
16 *1118:23 0.000342487
17 *1118:8 0.000883475
18 *1350:A2 *1983:CLK 0
19 *1350:A2 *1118:58 0
20 *1397:A *1957:CLK 0
21 *1397:A *1983:CLK 0
22 *1397:A *1118:58 0
23 *1399:B *1959:CLK 0
24 *1452:A1 *1957:CLK 0
25 *1452:A1 *1118:58 0
26 *1453:A1 *1118:87 0.000449344
27 *1457:A0 *1955:CLK 0
28 *1457:A1 *1955:CLK 0
29 *1457:A1 *1118:8 0
30 *1848:A2 *1118:87 0
31 *1954:RESET_B *1955:CLK 1.53311e-05
32 *1959:RESET_B *1960:CLK 4.77425e-05
33 *1959:D *1960:CLK 0
34 *1983:D *1959:CLK 0
35 *2089:A *1960:CLK 0
36 *719:55 *1960:CLK 0
37 *728:14 *1955:CLK 0
38 *728:14 *1118:8 0
39 *728:14 *1118:87 0
40 *903:17 *1960:CLK 0
41 *903:17 *1118:36 0
42 *903:27 *1955:CLK 0
43 *925:68 *1960:CLK 0
44 *927:85 *1955:CLK 0
45 *927:85 *1957:CLK 0
46 *927:85 *1118:23 0
47 *927:85 *1118:34 0
48 *927:85 *1118:36 0
49 *934:10 *1956:CLK 0
50 *934:10 *1118:23 0
51 *939:21 *1959:CLK 0
52 *939:57 *1983:CLK 0
*RES
1 *2250:X *1118:8 40.9328 
2 *1118:8 *1955:CLK 44.2152 
3 *1118:8 *1118:23 22.1208 
4 *1118:23 *1956:CLK 20.2992 
5 *1118:23 *1118:32 0.7216 
6 *1118:32 *1118:34 3.4144 
7 *1118:34 *1118:36 1.936 
8 *1118:36 *1960:CLK 25.192 
9 *1118:36 *1118:47 20 
10 *1118:47 *1957:CLK 41.5664 
11 *1118:47 *1118:58 1.7776 
12 *1118:58 *1959:CLK 43.4144 
13 *1118:58 *1983:CLK 44.312 
14 *1118:34 *1958:CLK 20 
15 *1118:32 *1118:87 45.368 
16 *1118:87 *1982:CLK 20 
*END

*D_NET *1114 0.0089221
*CONN
*I *1976:CLK I *D sg13g2_dfrbpq_1
*I *1979:CLK I *D sg13g2_dfrbpq_1
*I *1980:CLK I *D sg13g2_dfrbpq_1
*I *1978:CLK I *D sg13g2_dfrbpq_1
*I *1952:CLK I *D sg13g2_dfrbpq_1
*I *1977:CLK I *D sg13g2_dfrbpq_1
*I *1954:CLK I *D sg13g2_dfrbpq_1
*I *1951:CLK I *D sg13g2_dfrbpq_1
*I *2246:X O *D sg13g2_buf_16
*CAP
1 *1976:CLK 0.000234767
2 *1979:CLK 0
3 *1980:CLK 0
4 *1978:CLK 0
5 *1952:CLK 0
6 *1977:CLK 0
7 *1954:CLK 0.000399604
8 *1951:CLK 0.000153775
9 *2246:X 0.000153428
10 *1114:74 0.000626408
11 *1114:53 0.000457861
12 *1114:45 0.000749798
13 *1114:41 0.000685622
14 *1114:39 0.000813053
15 *1114:32 0.000209393
16 *1114:10 0.00103551
17 *1114:8 0.000817224
18 *1406:A *1954:CLK 0
19 *1413:A *1951:CLK 0
20 *1413:A *1114:10 0
21 *1415:A *1951:CLK 0
22 *1415:A *1114:10 0
23 *2108:A *1114:10 0.000235556
24 *486:8 *1114:10 0
25 *625:25 *1114:53 0.000617679
26 *911:14 *1114:32 0.000501874
27 *911:97 *1114:8 0
28 *919:35 *1976:CLK 0
29 *919:35 *1114:41 0
30 *919:35 *1114:45 0
31 *919:35 *1114:53 0
32 *919:35 *1114:74 0
33 *927:85 *1954:CLK 0
34 *941:24 *1114:53 0
35 *941:51 *1114:10 0.000235055
36 *942:8 *1114:8 0
37 *942:23 *1114:10 0
38 *942:23 *1114:32 0
39 *942:30 *1114:8 0
40 *1029:23 *1114:10 0
41 *1029:23 *1114:32 0
42 *1030:8 *1954:CLK 0
43 *1034:23 *1114:53 0.000995495
44 *1113:22 *1976:CLK 0
45 *1113:22 *1114:74 0
46 *1113:28 *1114:41 0
47 *1113:28 *1114:74 0
*RES
1 *2246:X *1114:8 41.1968 
2 *1114:8 *1114:10 5.368 
3 *1114:10 *1951:CLK 41.5664 
4 *1114:10 *1954:CLK 43.4144 
5 *1114:8 *1114:32 22.4112 
6 *1114:32 *1977:CLK 20 
7 *1114:32 *1114:39 0.2992 
8 *1114:39 *1114:41 3.4144 
9 *1114:41 *1114:45 2.8688 
10 *1114:45 *1114:53 45.456 
11 *1114:53 *1952:CLK 20 
12 *1114:45 *1978:CLK 20 
13 *1114:41 *1980:CLK 20 
14 *1114:39 *1114:74 3.8016 
15 *1114:74 *1979:CLK 20 
16 *1114:74 *1976:CLK 22.0768 
*END

*D_NET *477 0.0114425
*CONN
*I *1948:CLK I *D sg13g2_dfrbpq_1
*I *1974:CLK I *D sg13g2_dfrbpq_1
*I *1947:CLK I *D sg13g2_dfrbpq_1
*I *1944:CLK I *D sg13g2_dfrbpq_1
*I *1975:CLK I *D sg13g2_dfrbpq_1
*I *1949:CLK I *D sg13g2_dfrbpq_1
*I *1953:CLK I *D sg13g2_dfrbpq_1
*I *1950:CLK I *D sg13g2_dfrbpq_1
*I *1391:X O *D sg13g2_buf_16
*CAP
1 *1948:CLK 0.000222453
2 *1974:CLK 0
3 *1947:CLK 0
4 *1944:CLK 0
5 *1975:CLK 0.000503951
6 *1949:CLK 0
7 *1953:CLK 5.7424e-05
8 *1950:CLK 0.000465973
9 *1391:X 0.000147313
10 *477:80 0.000611222
11 *477:30 0.00108806
12 *477:24 0.000758198
13 *477:20 0.000919776
14 *477:16 0.000901932
15 *477:12 0.000860732
16 *477:10 0.00056986
17 *477:8 0.000147313
18 *1948:CLK *1424:A 0
19 *1948:CLK *1948:RESET_B 0
20 *1950:CLK *1456:A1 0.000501874
21 *1950:CLK *1953:RESET_B 0
22 *1950:CLK *927:85 0.000533673
23 *1953:CLK *491:10 0
24 *1953:CLK *927:85 0
25 *1975:CLK *1335:A2 0.00103477
26 *1975:CLK *1460:A1 0.000129163
27 *1975:CLK *492:8 0
28 *1975:CLK *619:21 0
29 *1975:CLK *915:12 0
30 *1975:CLK *919:35 0
31 *1975:CLK *1113:22 0
32 *477:8 *907:25 0
33 *477:8 *907:29 0
34 *477:12 *1391:A 0
35 *477:12 *905:24 0
36 *477:16 *1423:A2 0
37 *477:16 *1973:RESET_B 0
38 *477:16 *905:8 0
39 *477:16 *905:14 0
40 *477:16 *905:24 0
41 *477:16 *907:17 0
42 *477:16 *907:21 0
43 *477:20 *720:56 0
44 *477:20 *907:17 0
45 *477:24 *1460:A1 0
46 *477:24 *619:21 0.000555321
47 *477:24 *720:49 7.51285e-05
48 *477:30 *1456:A1 0.000448427
49 *477:30 *491:10 8.00842e-05
50 *477:30 *720:8 0
51 *477:30 *720:41 0.000242055
52 *477:30 *720:49 0
53 *477:30 *720:56 3.23417e-05
54 *477:80 *1391:A 0
55 *477:80 *1419:A 0
56 *477:80 *1424:A 0
57 *477:80 *493:6 0
58 *477:80 *905:24 0
59 *434:14 *1975:CLK 0.000555408
*RES
1 *1391:X *477:8 41.5664 
2 *477:8 *477:10 20 
3 *477:10 *477:12 1.7512 
4 *477:12 *477:16 6.248 
5 *477:16 *477:20 21.936 
6 *477:20 *477:24 22.2 
7 *477:24 *477:30 25.5616 
8 *477:30 *1950:CLK 45.0336 
9 *477:30 *1953:CLK 40.4576 
10 *477:24 *1949:CLK 20 
11 *477:20 *1975:CLK 46.1776 
12 *477:16 *1944:CLK 20 
13 *477:12 *1947:CLK 20 
14 *477:10 *477:80 3.5992 
15 *477:80 *1974:CLK 20 
16 *477:80 *1948:CLK 21.8656 
*END

*D_NET *714 0.0150686
*CONN
*I *1942:CLK I *D sg13g2_dfrbpq_1
*I *1943:CLK I *D sg13g2_dfrbpq_1
*I *1971:CLK I *D sg13g2_dfrbpq_1
*I *1972:CLK I *D sg13g2_dfrbpq_1
*I *1945:CLK I *D sg13g2_dfrbpq_1
*I *1946:CLK I *D sg13g2_dfrbpq_1
*I *1970:CLK I *D sg13g2_dfrbpq_1
*I *1973:CLK I *D sg13g2_dfrbpq_1
*I *2090:X O *D sg13g2_buf_16
*CAP
1 *1942:CLK 0.00116155
2 *1943:CLK 0
3 *1971:CLK 0
4 *1972:CLK 0
5 *1945:CLK 0.000108844
6 *1946:CLK 0.000211892
7 *1970:CLK 0
8 *1973:CLK 0.0004428
9 *2090:X 0.0016141
10 *714:80 0.00187523
11 *714:62 0.000661366
12 *714:30 0.000997421
13 *714:26 0.00107298
14 *714:19 0.000396299
15 *714:8 0.000681858
16 *1942:CLK *2298:A 0.000274332
17 *1942:CLK *914:53 0
18 *1942:CLK *914:66 0.00040318
19 *1942:CLK *1055:23 0
20 *1946:CLK *905:98 0
21 *1973:CLK *1787:B 0
22 *1973:CLK *905:14 0.000238641
23 *1973:CLK *905:53 0.00099409
24 *1973:CLK *1113:16 0.000320685
25 *1973:CLK *1113:22 0.00061679
26 *714:8 *1113:16 0.000827594
27 *714:26 *1425:A2 1.53875e-05
28 *714:26 *2086:A 0
29 *714:26 *2123:A 0
30 *714:26 *721:102 0
31 *714:26 *905:81 0
32 *714:26 *920:8 0
33 *714:26 *1113:50 0
34 *714:30 *1425:A2 0
35 *714:30 *900:27 0
36 *714:30 *905:81 0
37 *714:62 *1971:RESET_B 0
38 *714:80 *1428:A 0
39 *714:80 *915:12 0.000184492
40 *714:80 *915:35 0
41 *1362:B1 *714:30 0
42 *1368:B1 *714:62 0
43 *1425:A1 *714:30 7.97219e-05
44 *1426:A *714:62 0.000339174
45 *1468:A0 *1942:CLK 4.77425e-05
46 *282:8 *714:8 0
47 *285:10 *714:62 0
48 *458:8 *714:62 0
49 *463:10 *714:62 0
50 *612:12 *1942:CLK 0
51 *612:20 *1942:CLK 0.000454344
52 *612:20 *714:80 0.00104809
*RES
1 *2090:X *714:8 43.256 
2 *714:8 *1973:CLK 46.6352 
3 *714:8 *714:19 20 
4 *714:19 *1970:CLK 20 
5 *714:19 *714:26 3.4144 
6 *714:26 *714:30 5.5616 
7 *714:30 *1946:CLK 21.8656 
8 *714:30 *1945:CLK 21.144 
9 *714:26 *1972:CLK 20 
10 *2090:X *714:62 45.852 
11 *714:62 *1971:CLK 40 
12 *2090:X *714:80 46.9344 
13 *714:80 *1943:CLK 40 
14 *714:80 *1942:CLK 49.9968 
*END

*D_NET *909 0.0129604
*CONN
*I *2001:CLK I *D sg13g2_dfrbpq_1
*I *1968:CLK I *D sg13g2_dfrbpq_1
*I *1967:CLK I *D sg13g2_dfrbpq_1
*I *1941:CLK I *D sg13g2_dfrbpq_1
*I *1996:CLK I *D sg13g2_dfrbpq_1
*I *2000:CLK I *D sg13g2_dfrbpq_1
*I *1997:CLK I *D sg13g2_dfrbpq_1
*I *2021:CLK I *D sg13g2_dfrbpq_1
*I *2112:X O *D sg13g2_buf_16
*CAP
1 *2001:CLK 0
2 *1968:CLK 0.000252868
3 *1967:CLK 0.000499585
4 *1941:CLK 0
5 *1996:CLK 0.000417572
6 *2000:CLK 0
7 *1997:CLK 0.000657699
8 *2021:CLK 0.000546026
9 *2112:X 4.72978e-05
10 *909:60 0.000929729
11 *909:54 0.00131939
12 *909:36 0.000479347
13 *909:32 0.00111992
14 *909:23 0.0011825
15 *909:17 0.000552247
16 *909:6 0.00104254
17 *1967:CLK *1170:18 0
18 *1968:CLK *1300:A 0
19 *1968:CLK *1165:10 0
20 *909:17 *1122:8 0
21 *909:23 *1122:55 0.00034112
22 *909:54 *1669:A2 0
23 *909:54 *1050:8 0
24 *909:54 *1122:31 0
25 *909:60 *1301:B 0
26 *909:60 *1165:10 0
27 *909:60 *1170:18 0
28 intr_gpio_o[3] *1996:CLK 0
29 *1669:A1 *909:54 0
30 *1996:RESET_B *1996:CLK 0
31 *205:10 *2021:CLK 0.000274452
32 *285:10 *909:54 0.00213023
33 *285:10 *909:60 0.000234726
34 *453:16 *1967:CLK 0
35 *458:16 *909:60 0
36 *569:25 *1996:CLK 0
37 *569:25 *1997:CLK 0
38 *569:25 *2021:CLK 0
39 *569:25 *909:17 0
40 *569:25 *909:32 0
41 *569:25 *909:36 0
42 *612:12 *1967:CLK 0
43 *612:12 *909:60 0.000565659
44 *702:16 *909:23 0
45 *712:22 *1996:CLK 0
46 *712:22 *1997:CLK 0
47 *712:22 *909:32 0
48 *712:22 *909:36 0
49 *722:23 *909:54 0.000287343
50 *726:8 *2021:CLK 0
51 *726:8 *909:17 0
52 *817:9 *1968:CLK 8.0194e-05
*RES
1 *2112:X *909:6 20.5104 
2 *909:6 *2021:CLK 24.8928 
3 *909:6 *909:17 3.9248 
4 *909:17 *909:23 41.3552 
5 *909:23 *1997:CLK 24.8928 
6 *909:23 *909:32 3.2296 
7 *909:32 *909:36 0.572 
8 *909:36 *2000:CLK 20 
9 *909:36 *1996:CLK 23.7136 
10 *909:32 *909:54 28.536 
11 *909:54 *909:60 24.1624 
12 *909:60 *1941:CLK 20 
13 *909:60 *1967:CLK 24.136 
14 *909:54 *1968:CLK 42.1208 
15 *909:17 *2001:CLK 20 
*END

*D_NET *713 0.00808688
*CONN
*I *2047:RESET_B I *D sg13g2_dfrbpq_1
*I *2049:RESET_B I *D sg13g2_dfrbpq_1
*I *2083:Q O *D sg13g2_dfrbpq_1
*CAP
1 *2047:RESET_B 0.00222061
2 *2049:RESET_B 0
3 *2083:Q 9.07945e-05
4 *713:12 0.0031821
5 *713:8 0.00105229
6 *2047:RESET_B *1342:A1 0
7 *2047:RESET_B *1992:CLK 0
8 *2047:RESET_B *2047:D 1.53311e-05
9 *2047:RESET_B *2070:CLK 0.00120482
10 *2047:RESET_B *2256:A 0
11 *2047:RESET_B *721:12 0
12 *2047:RESET_B *721:70 0
13 *2047:RESET_B *873:50 0.000240669
14 *2047:RESET_B *873:56 0
15 *2047:RESET_B *910:48 0
16 *2047:RESET_B *937:62 0
17 *2047:RESET_B *1116:16 0
18 *713:12 *2072:CLK 0
19 *713:12 *2094:A 0
20 *713:12 *721:12 0
21 *713:12 *861:12 0
22 *1342:B1 *2047:RESET_B 0
23 *1991:D *2047:RESET_B 8.02595e-05
24 *2026:D *2047:RESET_B 0
25 *474:51 *713:12 0
26 *706:28 *2047:RESET_B 0
27 *706:28 *713:12 0
*RES
1 *2083:Q *713:8 40.9328 
2 *713:8 *713:12 28.0344 
3 *713:12 *2049:RESET_B 20 
4 *713:12 *2047:RESET_B 38.92 
*END

*D_NET *715 0.00976809
*CONN
*I *2080:D I *D sg13g2_dfrbpq_1
*I *1718:A1 I *D sg13g2_a21oi_1
*I *2044:D I *D sg13g2_dfrbpq_1
*I *1717:C I *D sg13g2_nor3_1
*I *1674:X O *D sg13g2_mux2_1
*CAP
1 *2080:D 0
2 *1718:A1 0
3 *2044:D 0.000788856
4 *1717:C 0
5 *1674:X 0.00122933
6 *715:33 0.000915707
7 *715:22 0.000980598
8 *715:18 0.00193186
9 *715:10 0.00230744
10 *2044:D *1353:A 0
11 *2044:D *1717:A 0
12 *2044:D *2022:CLK 0
13 *2044:D *727:20 0
14 *2044:D *825:29 0
15 *2044:D *904:20 0
16 *715:10 *1674:S 0
17 *715:10 *2025:RESET_B 0
18 *715:10 *2026:CLK 0.000274397
19 *715:10 *926:6 1.54008e-05
20 *715:10 *926:29 0.000209174
21 *715:10 *926:40 0
22 *715:10 *1098:18 0.000371867
23 *715:10 *1119:19 0
24 *715:10 *1119:60 0.000630901
25 *715:18 *2030:CLK 0
26 *715:18 *2080:RESET_B 0
27 *715:18 *728:14 0
28 *715:18 *829:48 0
29 *715:18 *908:34 0
30 *715:18 *1113:89 0
31 *715:18 *1119:8 0
32 *715:18 *1119:17 0.000112558
33 *715:22 *1316:B 0
34 *715:22 *2080:RESET_B 0
35 *715:22 *828:19 0
36 *715:22 *843:10 0
37 *715:33 *843:10 0
*RES
1 *1674:X *715:10 31.1936 
2 *715:10 *715:18 49.7064 
3 *715:18 *715:22 26.424 
4 *715:22 *1717:C 40 
5 *715:22 *715:33 20.9328 
6 *715:33 *2044:D 25.8608 
7 *715:33 *1718:A1 20 
8 *715:18 *2080:D 20 
*END

*D_NET *716 0.00652539
*CONN
*I *1735:A1 I *D sg13g2_a21oi_1
*I *1734:C I *D sg13g2_nor3_1
*I *2081:D I *D sg13g2_dfrbpq_1
*I *2045:D I *D sg13g2_dfrbpq_1
*I *1699:X O *D sg13g2_mux2_1
*CAP
1 *1735:A1 3.03288e-05
2 *1734:C 0
3 *2081:D 0.000180724
4 *2045:D 0
5 *1699:X 0.000733631
6 *716:42 0.000135195
7 *716:34 0.000404819
8 *716:19 0.00101174
9 *716:8 0.00132536
10 *2081:D *2255:A 0.000242423
11 *2081:D *830:10 0
12 *2081:D *904:12 0
13 *2081:D *910:21 0.000181608
14 *716:8 *1699:A0 0
15 *716:8 *2027:RESET_B 0.000316064
16 *716:8 *2081:CLK 0
17 *716:8 *831:12 0
18 *716:8 *910:25 0
19 *716:8 *910:31 0
20 *716:19 *2081:CLK 0
21 *716:19 *904:16 0
22 *716:19 *904:20 0.000242281
23 *716:19 *910:21 0.000983311
24 *716:19 *910:25 0
25 *716:34 *2255:A 0
26 *716:34 *826:8 0
27 *716:34 *1123:10 0
28 *1299:A0 *716:34 0
29 *1734:B *716:42 1.38607e-05
30 *1735:A2 *1735:A1 4.77425e-05
31 *1735:A2 *716:34 4.77534e-05
32 *242:10 *716:42 0.000341205
33 *243:14 *716:42 0
34 *244:8 *716:42 0.000287343
*RES
1 *1699:X *716:8 26.908 
2 *716:8 *2045:D 20 
3 *716:8 *716:19 26.7496 
4 *716:19 *2081:D 42.1032 
5 *716:19 *716:34 21.936 
6 *716:34 *716:42 41.8304 
7 *716:42 *1734:C 20 
8 *716:34 *1735:A1 20.2728 
*END

*D_NET *717 0.00731
*CONN
*I *1857:C I *D sg13g2_nor3_1
*I *1858:A1 I *D sg13g2_a21oi_1
*I *2046:D I *D sg13g2_dfrbpq_1
*I *2082:D I *D sg13g2_dfrbpq_1
*I *1730:X O *D sg13g2_mux2_1
*CAP
1 *1857:C 0
2 *1858:A1 0
3 *2046:D 0
4 *2082:D 0
5 *1730:X 0.000200556
6 *717:67 0.000295702
7 *717:50 0.000676514
8 *717:39 0.000509769
9 *717:26 0.0008895
10 *717:20 0.000927664
11 *717:16 0.000367677
12 *717:16 *718:84 0.000179801
13 *717:20 *718:72 0
14 *717:26 *2082:RESET_B 0.000235556
15 *717:26 *830:10 0.000608769
16 *717:26 *830:31 0.000710319
17 *717:26 *836:42 0
18 *717:26 *940:50 0.000288588
19 *717:26 *940:61 0
20 *717:39 *725:16 0.000565334
21 *717:39 *826:35 0
22 *717:39 *1099:22 0
23 *717:50 *718:72 0
24 *1555:B *717:16 0.000203204
25 *1557:B2 *717:67 0
26 *1856:B *717:67 0
27 *1858:A2 *717:67 8.02595e-05
28 *1858:B1 *717:67 0.000177228
29 *205:10 *717:39 0
30 *387:43 *717:16 0
31 *387:49 *717:16 0.000231371
32 *387:53 *717:20 0
33 *387:53 *717:50 0
34 *393:42 *717:16 0.000162195
35 *393:55 *717:26 0
*RES
1 *1730:X *717:16 42.4288 
2 *717:16 *717:20 21.5664 
3 *717:20 *717:26 45.1568 
4 *717:26 *2082:D 20 
5 *717:26 *717:39 44.5584 
6 *717:39 *2046:D 20 
7 *717:20 *717:50 43.5992 
8 *717:50 *1858:A1 20 
9 *717:50 *717:67 42.8336 
10 *717:67 *1857:C 20 
*END

*D_NET *725 0.00900474
*CONN
*I *1709:C I *D sg13g2_nor3_1
*I *1710:A1 I *D sg13g2_a21oi_1
*I *2079:D I *D sg13g2_dfrbpq_1
*I *2043:D I *D sg13g2_dfrbpq_1
*I *1705:X O *D sg13g2_mux2_1
*CAP
1 *1709:C 3.11148e-05
2 *1710:A1 0
3 *2079:D 0
4 *2043:D 0
5 *1705:X 0.00103682
6 *725:48 0.000103957
7 *725:40 0.000337698
8 *725:31 0.000239063
9 *725:25 0.00124683
10 *725:16 0.00209411
11 *725:8 0.00232579
12 *725:8 *831:12 0
13 *725:8 *831:32 0
14 *725:8 *833:23 0
15 *725:8 *833:38 0
16 *725:16 *2038:CLK 0
17 *725:16 *2045:CLK 0.000468869
18 *725:16 *2046:RESET_B 0
19 *725:16 *849:10 0
20 *725:25 *2044:CLK 0
21 *725:25 *2046:RESET_B 1.54008e-05
22 *725:25 *2079:CLK 0
23 *725:25 *940:8 0
24 *725:31 *840:25 0
25 *725:31 *843:25 0
26 *725:40 *2079:CLK 0
27 *725:48 *726:8 4.77425e-05
28 *725:48 *843:25 0
29 *1662:B *725:16 0
30 *1710:A2 *725:48 1.54008e-05
31 *1710:B1 *725:40 0
32 *205:10 *725:16 0
33 *205:10 *725:25 0
34 *205:10 *725:40 0
35 *226:12 *725:48 0.00023464
36 *362:6 *1709:C 0
37 *362:6 *725:25 0.000241979
38 *362:6 *725:40 0
39 *717:39 *725:16 0.000565334
*RES
1 *1705:X *725:8 47.2688 
2 *725:8 *725:16 31.9592 
3 *725:16 *2043:D 20 
4 *725:16 *725:25 7.2512 
5 *725:25 *725:31 41.7776 
6 *725:31 *2079:D 20 
7 *725:25 *725:40 1.6808 
8 *725:40 *725:48 41.2056 
9 *725:48 *1710:A1 20 
10 *725:40 *1709:C 20.2728 
*END

*D_NET *693 0.00207458
*CONN
*P intr_gpio_o[0] O
*I *2140:X O *D sg13g2_buf_1
*CAP
1 intr_gpio_o[0] 0.00103729
2 *2140:X 0.00103729
3 intr_gpio_o[0] *1996:RESET_B 0
4 intr_gpio_o[0] *726:8 0
5 *1996:D intr_gpio_o[0] 0
*RES
1 *2140:X intr_gpio_o[0] 30.56 
*END

*D_NET *765 0.00235797
*CONN
*P intr_gpio_o[1] O
*I *2139:X O *D sg13g2_buf_1
*CAP
1 intr_gpio_o[1] 0.00117899
2 *2139:X 0.00117899
3 intr_gpio_o[1] *1300:A 0
4 *1669:B1 intr_gpio_o[1] 0
5 *727:20 intr_gpio_o[1] 0
*RES
1 *2139:X intr_gpio_o[1] 31.8008 
*END

*D_NET *934 0.00484133
*CONN
*P intr_gpio_o[2] O
*I *2138:X O *D sg13g2_buf_1
*CAP
1 intr_gpio_o[2] 0.00153392
2 *2138:X 0.000251071
3 *934:10 0.00178499
4 intr_gpio_o[2] *1453:A1 0.000928904
5 intr_gpio_o[2] *1161:8 0.00034245
6 *934:10 *1956:CLK 0
7 *934:10 *1118:23 0
8 *1402:A intr_gpio_o[2] 0
9 *2294:A intr_gpio_o[2] 0
10 *2308:A intr_gpio_o[2] 0
11 *627:10 intr_gpio_o[2] 0
12 *927:85 *934:10 0
*RES
1 *2138:X *934:10 41.8656 
2 *934:10 intr_gpio_o[2] 15.2504 
*END

*D_NET *730 0.00285706
*CONN
*P intr_gpio_o[3] O
*I *2136:X O *D sg13g2_buf_1
*CAP
1 intr_gpio_o[3] 0.00142853
2 *2136:X 0.00142853
3 intr_gpio_o[3] *1996:CLK 0
4 *1995:D intr_gpio_o[3] 0
5 *285:14 intr_gpio_o[3] 0
6 *709:8 intr_gpio_o[3] 0
7 *709:16 intr_gpio_o[3] 0
8 *712:22 intr_gpio_o[3] 0
9 *722:88 intr_gpio_o[3] 0
*RES
1 *2136:X intr_gpio_o[3] 33.8864 
*END

*D_NET *605 0.000193573
*CONN
*I *1379:B I *D sg13g2_nand2_1
*I *2227:X O *D sg13g2_buf_1
*CAP
1 *1379:B 9.67864e-05
2 *2227:X 9.67864e-05
3 *1379:B *1379:A 0
4 *2325:A *1379:B 0
*RES
1 *2227:X *1379:B 40.968 
*END

*D_NET *606 0.00153983
*CONN
*I *1447:A I *D sg13g2_nor2_1
*I *1390:A0 I *D sg13g2_mux2_1
*I *2226:X O *D sg13g2_buf_1
*CAP
1 *1447:A 9.8359e-05
2 *1390:A0 0
3 *2226:X 0.000409484
4 *606:10 0.000507843
5 *1447:A *1390:A1 0
6 *1447:A *925:12 0.000342122
7 *606:10 *925:12 0.000182023
8 *606:10 *925:24 0
*RES
1 *2226:X *606:10 44.2416 
2 *606:10 *1390:A0 40 
3 *606:10 *1447:A 41.3552 
*END

*D_NET *607 0.00201145
*CONN
*I *1446:A0 I *D sg13g2_mux2_1
*I *1389:A0 I *D sg13g2_mux2_1
*I *2225:X O *D sg13g2_buf_1
*CAP
1 *1446:A0 0.000205917
2 *1389:A0 0
3 *2225:X 0.000541317
4 *607:12 0.000352626
5 *607:8 0.000688026
6 *1446:A0 *1389:A1 1.54008e-05
7 *1446:A0 *925:58 0
8 *607:8 *1388:A0 0
9 *607:8 *1389:S 0
10 *607:8 *608:10 0
11 *607:12 *1389:A1 0.00020816
12 *607:12 *927:23 0
*RES
1 *2225:X *607:8 45.5792 
2 *607:8 *607:12 21.3816 
3 *607:12 *1389:A0 20 
4 *607:12 *1446:A0 21.9536 
*END

*D_NET *608 0.00173906
*CONN
*I *1388:A0 I *D sg13g2_mux2_1
*I *1445:A0 I *D sg13g2_mux2_1
*I *2224:X O *D sg13g2_buf_1
*CAP
1 *1388:A0 0.000160038
2 *1445:A0 0.000220595
3 *2224:X 0.000208077
4 *608:10 0.00058871
5 *1388:A0 *1388:A1 1.54008e-05
6 *1388:A0 *925:30 0
7 *1445:A0 *927:23 0.000401298
8 *608:10 *927:23 0
9 *608:10 *1168:10 0.000144942
10 *1963:D *1445:A0 0
11 *607:8 *1388:A0 0
12 *607:8 *608:10 0
*RES
1 *2224:X *608:10 41.9712 
2 *608:10 *1445:A0 42.3056 
3 *608:10 *1388:A0 41.3904 
*END

*D_NET *610 0.00279776
*CONN
*I *1468:A0 I *D sg13g2_mux2_1
*I *1435:A I *D sg13g2_nor2_1
*I *2223:X O *D sg13g2_buf_1
*CAP
1 *1468:A0 0.000103505
2 *1435:A 0.00017954
3 *2223:X 0.000253387
4 *610:8 0.000536432
5 *1435:A *920:47 0
6 *1435:A *920:57 0.000181695
7 *1468:A0 *1942:CLK 4.77425e-05
8 *1468:A0 *1055:23 1.54008e-05
9 *610:8 *2303:A 0.000468858
10 *610:8 *914:66 0.000436517
11 *411:12 *1435:A 0.000181279
12 *411:12 *1468:A0 0.000212127
13 *453:8 *1435:A 0
14 *502:8 *1435:A 0.000181279
*RES
1 *2223:X *610:8 42.6752 
2 *610:8 *1435:A 42.3496 
3 *610:8 *1468:A0 41.2056 
*END

*D_NET *611 0.00108683
*CONN
*I *1433:A I *D sg13g2_nor2_1
*I *1467:A0 I *D sg13g2_mux2_1
*I *2222:X O *D sg13g2_buf_1
*CAP
1 *1433:A 0
2 *1467:A0 0.000289636
3 *2222:X 0.000189238
4 *611:10 0.000478874
5 *1467:A0 *920:73 0
6 *1467:A0 *1171:10 0
7 *611:10 *920:88 0
8 *611:10 *1165:10 0.000129078
9 *1434:A1 *611:10 0
10 *1942:D *1467:A0 0
11 *40:10 *611:10 0
*RES
1 *2222:X *611:10 41.8128 
2 *611:10 *1467:A0 42.8688 
3 *611:10 *1433:A 40 
*END

*D_NET *612 0.00776431
*CONN
*I *1466:A0 I *D sg13g2_mux2_1
*I *1431:A I *D sg13g2_nor2_1
*I *2221:X O *D sg13g2_buf_1
*CAP
1 *1466:A0 0
2 *1431:A 0
3 *2221:X 0.00132395
4 *612:30 0.000380674
5 *612:20 0.000792859
6 *612:12 0.00173614
7 *612:12 *1942:CLK 0
8 *612:12 *1967:CLK 0
9 *612:12 *1968:RESET_B 0
10 *612:12 *2298:A 0
11 *612:12 *2303:A 0
12 *612:12 *817:9 0
13 *612:12 *909:60 0.000565659
14 *612:12 *1055:23 4.77425e-05
15 *612:12 *1165:10 0
16 *612:20 *1466:A1 1.54008e-05
17 *612:20 *1942:CLK 0.000454344
18 *612:20 *714:80 0.00104809
19 *612:20 *915:35 0.00131916
20 *612:30 *1432:A2 0
21 *612:30 *1466:A1 8.02924e-05
22 *612:30 *721:90 0
23 *612:30 *721:96 0
24 *612:30 *914:38 0
25 *612:30 *919:67 0
26 *1432:B1 *612:30 0
27 *283:10 *612:30 0
28 *453:16 *612:12 0
29 *582:40 *612:12 0
*RES
1 *2221:X *612:12 31.6776 
2 *612:12 *612:20 46.908 
3 *612:20 *612:30 43.168 
4 *612:30 *1431:A 20 
5 *612:20 *1466:A0 20 
*END

*D_NET *613 0.00361291
*CONN
*I *1465:A0 I *D sg13g2_mux2_1
*I *1429:A I *D sg13g2_nor2_1
*I *2220:X O *D sg13g2_buf_1
*CAP
1 *1465:A0 0
2 *1429:A 0
3 *2220:X 0.000190808
4 *613:14 0.00068839
5 *613:8 0.000879198
6 *613:8 *1465:A1 4.79124e-05
7 *613:8 *720:67 0
8 *613:8 *915:42 0
9 *613:8 *915:49 0
10 *613:14 *915:12 0.0018066
*RES
1 *2220:X *613:8 21.7072 
2 *613:8 *613:14 47.0576 
3 *613:14 *1429:A 20 
4 *613:8 *1465:A0 20 
*END

*D_NET *614 0.00189228
*CONN
*I *1426:A I *D sg13g2_nor2_1
*I *1464:A0 I *D sg13g2_mux2_1
*I *2219:X O *D sg13g2_buf_1
*CAP
1 *1426:A 0.000409496
2 *1464:A0 0.000115881
3 *2219:X 0.000147131
4 *614:8 0.000672508
5 *1426:A *714:62 0.000339174
6 *1464:A0 *1464:A1 4.77425e-05
7 *1464:A0 *1077:8 1.54008e-05
8 *614:8 *1077:8 0
9 *1368:B1 *1426:A 0
10 *63:10 *614:8 0.000144942
*RES
1 *2219:X *614:8 21.496 
2 *614:8 *1464:A0 21.2056 
3 *614:8 *1426:A 23.5992 
*END

*D_NET *615 0.00292732
*CONN
*I *1638:A I *D sg13g2_inv_1
*I *2218:X O *D sg13g2_buf_1
*CAP
1 *1638:A 0.000319707
2 *2218:X 0.000664395
3 *615:20 0.000984102
4 *1638:A *1023:14 0.000209637
5 *615:20 *1643:A2 0
6 *615:20 *1799:A1 3.21954e-05
7 *615:20 *2159:A 0
8 *615:20 *2160:A 0
9 *615:20 *793:17 0
10 *615:20 *1023:24 0.000175825
11 *615:20 *1023:32 0
12 *615:20 *1097:69 0
13 *1799:A2 *615:20 0.000287001
14 *156:10 *615:20 0
15 *188:8 *1638:A 0
16 *193:12 *615:20 2.24232e-05
17 *194:20 *1638:A 0.000232031
18 *353:40 *1638:A 0
19 *354:6 *1638:A 0
*RES
1 *2218:X *615:20 46.6352 
2 *615:20 *1638:A 42.9744 
*END

*D_NET *616 0.00420066
*CONN
*I *1463:A0 I *D sg13g2_mux2_1
*I *1424:A I *D sg13g2_nor2_1
*I *2217:X O *D sg13g2_buf_1
*CAP
1 *1463:A0 0.000384371
2 *1424:A 0.000549308
3 *2217:X 0.000868438
4 *616:8 0.00180212
5 *1424:A *1355:A 0.000177306
6 *1424:A *1391:A 0
7 *1424:A *1424:B 0
8 *1424:A *1790:B 0
9 *1424:A *900:44 3.23417e-05
10 *1463:A0 *1790:B 0
11 *1463:A0 *915:72 0
12 *1463:A0 *915:87 0
13 *1463:A0 *1027:27 0
14 *616:8 *907:44 0
15 *616:8 *1027:27 0
16 *1946:D *1463:A0 0
17 *1948:CLK *1424:A 0
18 *477:80 *1424:A 0
19 *493:6 *1424:A 4.77699e-05
20 *493:25 *1424:A 0.000339004
*RES
1 *2217:X *616:8 47.2688 
2 *616:8 *1424:A 44.8224 
3 *616:8 *1463:A0 43.1856 
*END

*D_NET *617 0.00245894
*CONN
*I *1422:A I *D sg13g2_nor2_1
*I *1462:A0 I *D sg13g2_mux2_1
*I *2216:X O *D sg13g2_buf_1
*CAP
1 *1422:A 0.000151632
2 *1462:A0 0
3 *2216:X 0.000337774
4 *617:10 0.000489406
5 *1422:A *1462:A1 0.000396398
6 *617:10 *2217:A 0.000534068
7 *617:10 *915:49 1.54556e-05
8 *617:10 *915:64 0.00053421
9 *61:8 *1422:A 0
*RES
1 *2216:X *617:10 43.5552 
2 *617:10 *1462:A0 40 
3 *617:10 *1422:A 41.7776 
*END

*D_NET *618 0.00124812
*CONN
*I *1461:A0 I *D sg13g2_mux2_1
*I *1420:A I *D sg13g2_nor2_1
*I *2215:X O *D sg13g2_buf_1
*CAP
1 *1461:A0 0.000144061
2 *1420:A 0.00023631
3 *2215:X 0.000106437
4 *618:6 0.000486808
5 *1420:A *1461:S 0.000274507
6 *1420:A *2217:A 0
7 *1420:A *2307:A 0
8 *1420:A *1158:10 0
9 *1461:A0 *1461:S 0
10 *1948:D *1461:A0 0
*RES
1 *2215:X *618:6 21.144 
2 *618:6 *1420:A 22.1208 
3 *618:6 *1461:A0 21.7864 
*END

*D_NET *619 0.002705
*CONN
*I *1417:A I *D sg13g2_nor2_1
*I *1460:A0 I *D sg13g2_mux2_1
*I *2214:X O *D sg13g2_buf_1
*CAP
1 *1417:A 0
2 *1460:A0 3.25105e-05
3 *2214:X 0.000304644
4 *619:21 0.000737687
5 *619:6 0.00107484
6 *619:6 *915:8 0
7 *619:6 *915:42 0
8 *619:6 *915:49 0
9 *619:21 *1460:A1 0
10 *619:21 *720:49 0
11 *619:21 *915:12 0
12 *1949:D *1460:A0 0
13 *1949:D *619:6 0
14 *1975:CLK *619:21 0
15 *477:24 *619:21 0.000555321
*RES
1 *2214:X *619:6 22.86 
2 *619:6 *1460:A0 20.2728 
3 *619:6 *619:21 47.3304 
4 *619:21 *1417:A 20 
*END

*D_NET *620 0.00398722
*CONN
*I *1415:A I *D sg13g2_nor2_1
*I *1459:A0 I *D sg13g2_mux2_1
*I *2213:X O *D sg13g2_buf_1
*CAP
1 *1415:A 0.000510623
2 *1459:A0 0
3 *2213:X 0.000557606
4 *620:10 0.00106823
5 *1415:A *1459:A1 0.00162191
6 *1415:A *1951:CLK 0
7 *1415:A *1029:23 0.000106894
8 *1415:A *1114:10 0
9 *620:10 *2212:A 0.000121957
10 *620:10 *797:17 0
11 *620:10 *1179:8 0
12 *620:10 *1181:12 0
13 *57:10 *1415:A 0
*RES
1 *2213:X *620:10 45.2448 
2 *620:10 *1459:A0 40 
3 *620:10 *1415:A 47.0576 
*END

*D_NET *621 0.00230589
*CONN
*I *1413:A I *D sg13g2_nor2_1
*I *1458:A0 I *D sg13g2_mux2_1
*I *2212:X O *D sg13g2_buf_1
*CAP
1 *1413:A 0.000844951
2 *1458:A0 0
3 *2212:X 0.000307995
4 *621:10 0.00115295
5 *1413:A *1406:A 0
6 *1413:A *1458:A1 0
7 *1413:A *1951:CLK 0
8 *1413:A *1030:25 0
9 *1413:A *1114:10 0
10 *621:10 *1406:A 0
11 *621:10 *624:10 0
12 *621:10 *805:9 0
13 *621:10 *906:31 0
14 *621:10 *1179:8 0
15 *57:10 *1413:A 0
16 *57:10 *621:10 0
17 *486:8 *1413:A 0
*RES
1 *2212:X *621:10 43.08 
2 *621:10 *1458:A0 40 
3 *621:10 *1413:A 46.6352 
*END

*D_NET *622 0.00196019
*CONN
*I *1411:A I *D sg13g2_nor2_1
*I *1457:A0 I *D sg13g2_mux2_1
*I *2211:X O *D sg13g2_buf_1
*CAP
1 *1411:A 0.000420748
2 *1457:A0 0.000174577
3 *2211:X 0.000377041
4 *622:8 0.000972366
5 *1411:A *1411:B 0
6 *1457:A0 *1457:A1 1.54556e-05
7 *1457:A0 *1955:CLK 0
8 *1457:A0 *927:85 0
9 *622:8 *1454:A1 0
*RES
1 *2211:X *622:8 43.6784 
2 *622:8 *1457:A0 41.1968 
3 *622:8 *1411:A 44.136 
*END

*D_NET *623 0.00427583
*CONN
*I *1408:A I *D sg13g2_nor2_1
*I *1456:A0 I *D sg13g2_mux2_1
*I *2210:X O *D sg13g2_buf_1
*CAP
1 *1408:A 0.00047009
2 *1456:A0 0.000323763
3 *2210:X 0.000297959
4 *623:10 0.00109181
5 *1408:A *1408:B 0
6 *1408:A *1415:B 0
7 *1408:A *1459:A1 0.00117485
8 *1408:A *911:97 7.52149e-05
9 *1408:A *1029:23 0.000342449
10 *1456:A0 *1456:S 0
11 *1456:A0 *1953:RESET_B 5.69484e-05
12 *623:10 *1459:A1 0.000442741
13 *623:10 *903:47 0
14 *623:10 *906:18 0
15 *623:10 *906:27 0
*RES
1 *2210:X *623:10 43.1328 
2 *623:10 *1456:A0 43.0448 
3 *623:10 *1408:A 46.4592 
*END

*D_NET *624 0.00247559
*CONN
*I *1406:A I *D sg13g2_nor2_1
*I *1455:A0 I *D sg13g2_mux2_1
*I *2209:X O *D sg13g2_buf_1
*CAP
1 *1406:A 0.000841132
2 *1455:A0 0
3 *2209:X 0.000332332
4 *624:10 0.00117346
5 *1406:A *1406:B 0
6 *1406:A *1455:A1 0
7 *1406:A *1954:CLK 0
8 *1406:A *941:36 0
9 *1406:A *1030:8 0
10 *624:10 *906:31 0
11 *624:10 *1159:8 0
12 *624:10 *1176:12 0.000128662
13 *1413:A *1406:A 0
14 *621:10 *1406:A 0
15 *621:10 *624:10 0
*RES
1 *2209:X *624:10 43.5024 
2 *624:10 *1455:A0 40 
3 *624:10 *1406:A 47.3568 
*END

*D_NET *625 0.00736579
*CONN
*I *1404:A I *D sg13g2_nor2_1
*I *1454:A0 I *D sg13g2_mux2_1
*I *2208:X O *D sg13g2_buf_1
*CAP
1 *1404:A 0
2 *1454:A0 2.96211e-05
3 *2208:X 0.000545491
4 *625:25 0.00108
5 *625:10 0.00165511
6 *1454:A0 *1453:S 4.77425e-05
7 *625:10 *1457:S 5.38157e-05
8 *625:10 *2208:A 0.000534083
9 *625:10 *906:31 0
10 *625:10 *906:35 0.000130344
11 *625:10 *1175:8 0
12 *625:10 *1176:12 0
13 *625:25 *1454:A1 0
14 *625:25 *1457:A1 0.00169802
15 *625:25 *1457:S 0.000828821
16 *625:25 *2250:A 0
17 *625:25 *919:20 0.000145052
18 *625:25 *1114:53 0.000617679
*RES
1 *2208:X *625:10 45.8784 
2 *625:10 *1454:A0 40.2728 
3 *625:10 *625:25 32.3992 
4 *625:25 *1404:A 20 
*END

*D_NET *627 0.00252359
*CONN
*I *1402:A I *D sg13g2_nor2_1
*I *1453:A0 I *D sg13g2_mux2_1
*I *2207:X O *D sg13g2_buf_1
*CAP
1 *1402:A 0.000690417
2 *1453:A0 0.000210079
3 *2207:X 0.000337356
4 *627:10 0.00123785
5 *1402:A intr_gpio_o[2] 0
6 *1402:A *1397:A 0
7 *1402:A *1451:A1 0
8 *1402:A *1453:A1 0
9 *1402:A *1848:A2 0
10 *1402:A *629:10 0
11 *1453:A0 *1453:A1 4.78853e-05
12 *1453:A0 *1453:S 0
13 *627:10 intr_gpio_o[2] 0
14 *627:10 *2207:A 0
15 *627:10 *629:10 0
16 *627:10 *1161:8 0
*RES
1 *2207:X *627:10 43.5024 
2 *627:10 *1453:A0 41.936 
3 *627:10 *1402:A 47.0576 
*END

*D_NET *628 0.00253407
*CONN
*I *1452:A0 I *D sg13g2_mux2_1
*I *1399:A I *D sg13g2_nor2_1
*I *2206:X O *D sg13g2_buf_1
*CAP
1 *1452:A0 0
2 *1399:A 0
3 *2206:X 0.000438967
4 *628:14 0.000603768
5 *628:8 0.00104274
6 *628:8 *630:10 0
7 *628:8 *927:40 0
8 *628:8 *927:55 0
9 *628:8 *927:66 0
10 *628:14 *1350:A2 0
11 *628:14 *1450:A1 0
12 *628:14 *1452:A1 0
13 *628:14 *927:55 0.000448603
14 *1957:D *628:8 0
*RES
1 *2206:X *628:8 24.0832 
2 *628:8 *628:14 46.6352 
3 *628:14 *1399:A 20 
4 *628:8 *1452:A0 20 
*END

*D_NET *629 0.00269394
*CONN
*I *1397:A I *D sg13g2_nor2_1
*I *1451:A0 I *D sg13g2_mux2_1
*I *2205:X O *D sg13g2_buf_1
*CAP
1 *1397:A 0.00106126
2 *1451:A0 0
3 *2205:X 0.000285711
4 *629:10 0.00134697
5 *1397:A *1451:A1 0
6 *1397:A *1957:CLK 0
7 *1397:A *1983:CLK 0
8 *1397:A *927:85 0
9 *1397:A *1038:25 0
10 *1397:A *1118:58 0
11 *629:10 *1451:S 0
12 *629:10 *927:66 0
13 *629:10 *927:85 0
14 *1402:A *1397:A 0
15 *1402:A *629:10 0
16 *627:10 *629:10 0
*RES
1 *2205:X *629:10 42.6576 
2 *629:10 *1451:A0 40 
3 *629:10 *1397:A 49.592 
*END

*D_NET *630 0.00383031
*CONN
*I *1395:A I *D sg13g2_nor2_1
*I *1450:A0 I *D sg13g2_mux2_1
*I *2204:X O *D sg13g2_buf_1
*CAP
1 *1395:A 0.000591548
2 *1450:A0 0
3 *2204:X 0.000207307
4 *630:10 0.000798855
5 *1395:A *1394:A2 0.00027466
6 *1395:A *1450:A1 0
7 *1395:A *719:55 0.000288087
8 *1395:A *719:59 0.000448013
9 *1395:A *925:68 0.000767952
10 *1395:A *925:81 0.000373627
11 *630:10 *927:40 8.02595e-05
12 *630:10 *927:55 0
13 *628:8 *630:10 0
*RES
1 *2204:X *630:10 42.024 
2 *630:10 *1450:A0 40 
3 *630:10 *1395:A 47.568 
*END

*D_NET *631 0.0010705
*CONN
*I *1393:A I *D sg13g2_nor2_1
*I *1449:A0 I *D sg13g2_mux2_1
*I *2203:X O *D sg13g2_buf_1
*CAP
1 *1393:A 0.000239154
2 *1449:A0 4.42452e-05
3 *2203:X 0.000211722
4 *631:8 0.000495122
5 *1393:A *1449:A1 0
6 *1393:A *925:58 1.54556e-05
7 *1393:A *925:68 6.48039e-05
8 *1449:A0 *927:27 0
9 *1449:A0 *927:40 0
*RES
1 *2203:X *631:8 42.2 
2 *631:8 *1449:A0 40.4576 
3 *631:8 *1393:A 42.4464 
*END

*D_NET *645 0.000306393
*CONN
*I *1379:A I *D sg13g2_nand2_1
*I *2202:X O *D sg13g2_buf_1
*CAP
1 *1379:A 0.00012924
2 *2202:X 0.00012924
3 *1379:A *650:12 0
4 *1379:B *1379:A 0
5 *2325:A *1379:A 4.79124e-05
*RES
1 *2202:X *1379:A 41.3904 
*END

*D_NET *650 0.00552135
*CONN
*I *1440:A0 I *D sg13g2_mux2_1
*I *1471:A0 I *D sg13g2_mux2_1
*I *2201:X O *D sg13g2_buf_1
*CAP
1 *1440:A0 0.000623297
2 *1471:A0 0
3 *2201:X 0.00162584
4 *650:12 0.00224914
5 *1440:A0 *1439:A0 0
6 *1440:A0 *1471:A1 4.79124e-05
7 *650:12 *1439:A0 0
8 *650:12 *1939:RESET_B 0
9 *650:12 *2013:CLK 0
10 *650:12 *2017:RESET_B 8.0216e-05
11 *650:12 *2200:A 0
12 *650:12 *2201:A 0
13 *650:12 *651:10 0
14 *650:12 *691:32 0
15 *650:12 *1081:8 0
16 *650:12 *1141:16 0
17 *1379:A *650:12 0
18 *1471:S *650:12 0
19 *1938:RESET_B *1440:A0 0
20 *1938:D *1440:A0 0.000112642
21 *1938:D *650:12 0
22 *358:38 *650:12 0
23 *474:12 *650:12 8.02595e-05
24 *474:36 *1440:A0 0.000583126
25 *474:36 *650:12 1.54008e-05
26 *474:42 *1440:A0 0.000103517
27 *475:27 *1440:A0 0
*RES
1 *2201:X *650:12 34.7664 
2 *650:12 *1471:A0 20 
3 *650:12 *1440:A0 25.7024 
*END

*D_NET *651 0.00507245
*CONN
*I *1470:A0 I *D sg13g2_mux2_1
*I *1439:A0 I *D sg13g2_mux2_1
*I *2200:X O *D sg13g2_buf_1
*CAP
1 *1470:A0 0.000175197
2 *1439:A0 0.000930076
3 *2200:X 0.000861677
4 *651:10 0.00196695
5 *1439:A0 *1242:A1 0
6 *1439:A0 *1242:A2 0
7 *1439:A0 *1939:RESET_B 0.000241979
8 *1439:A0 *1939:CLK 0
9 *1439:A0 *1073:12 0.000242056
10 *1439:A0 *1141:58 0.000128576
11 *1439:A0 *1143:33 0
12 *1470:A0 *1470:A1 1.54008e-05
13 *1470:A0 *1141:56 0.000234224
14 *1470:A0 *1141:58 0.000212958
15 *651:10 *1939:RESET_B 0
16 *651:10 *1080:6 0
17 *651:10 *1081:8 0
18 *651:10 *1097:46 0
19 *651:10 *1141:16 1.54449e-05
20 *651:10 *1141:56 0
21 *1242:B1 *1439:A0 0
22 *1440:A0 *1439:A0 0
23 *1938:RESET_B *1439:A0 0
24 *1938:D *1439:A0 4.79124e-05
25 *69:10 *1470:A0 0
26 *358:6 *651:10 0
27 *358:10 *651:10 0
28 *358:38 *651:10 0
29 *650:12 *1439:A0 0
30 *650:12 *651:10 0
*RES
1 *2200:X *651:10 46.8552 
2 *651:10 *1439:A0 48.2984 
3 *651:10 *1470:A0 42.0504 
*END

*D_NET *652 0.00815865
*CONN
*I *1469:A0 I *D sg13g2_mux2_1
*I *1437:A I *D sg13g2_nor2_1
*I *2199:X O *D sg13g2_buf_1
*CAP
1 *1469:A0 0.000588397
2 *1437:A 2.2681e-05
3 *2199:X 0.00148846
4 *652:24 0.000923664
5 *652:16 0.00180104
6 *1469:A0 *1042:10 0.000144691
7 *652:16 *658:18 0
8 *652:16 *658:31 0
9 *652:16 *1100:83 0
10 *652:16 *1143:41 0
11 *652:24 *793:17 0
12 *652:24 *1043:8 0
13 *652:24 *1143:33 0
14 *1374:A *652:16 0.000220279
15 *1438:A2 *1469:A0 0.000339344
16 *1966:RESET_B *1469:A0 0
17 *2015:D *652:16 0
18 *2019:RESET_B *652:16 0.000981144
19 *406:16 *652:16 0.000291393
20 *466:8 *652:16 0.000501442
21 *467:27 *652:16 0.000727959
22 *474:18 *652:24 0.00012816
23 *475:49 *1469:A0 0
24 *505:81 *1437:A 0
25 *505:81 *1469:A0 0
*RES
1 *2199:X *652:16 34.5464 
2 *652:16 *652:24 43.3506 
3 *652:24 *1437:A 20.2442 
4 *652:24 *1469:A0 25.3702 
*END

*D_NET *653 0.007755
*CONN
*I *1817:A I *D sg13g2_nor2_1
*I *1816:A0 I *D sg13g2_mux2_1
*I *2198:X O *D sg13g2_buf_1
*CAP
1 *1817:A 0.000254569
2 *1816:A0 0
3 *2198:X 0.00017218
4 *653:20 0.00297166
5 *653:8 0.00288927
6 *1817:A *707:14 0
7 *653:8 *688:12 0
8 *653:20 *1248:A 0
9 *653:20 *1827:B 0
10 *653:20 *2016:CLK 0.000274496
11 *653:20 *2198:A 0
12 *653:20 *707:14 0.000598296
13 *653:20 *1087:8 8.00375e-05
14 *653:20 *1087:10 0
15 *653:20 *1087:25 1.54008e-05
16 *653:20 *1187:16 0
17 *653:20 *1189:12 0
18 *1940:D *1817:A 0
19 *1940:D *653:20 0
20 *69:10 *653:20 0.000307067
21 *172:10 *653:8 0
22 *301:8 *653:20 0
23 *465:8 *653:8 0
24 *475:8 *653:20 0.000111838
25 *475:49 *653:20 0
26 *505:81 *653:20 4.78356e-05
27 *505:96 *653:20 3.23417e-05
*RES
1 *2198:X *653:8 41.5664 
2 *653:8 *653:20 41.9296 
3 *653:20 *1816:A0 20 
4 *653:20 *1817:A 22.4464 
*END

*D_NET *654 0.00416525
*CONN
*I *1660:A I *D sg13g2_nor2_1
*I *1653:A I *D sg13g2_nor2_1
*I *2197:X O *D sg13g2_buf_1
*CAP
1 *1660:A 0.000232166
2 *1653:A 0.000119063
3 *2197:X 0.00109877
4 *654:28 0.000534842
5 *654:24 0.00128238
6 *654:24 *1659:B1 0
7 *654:24 *1871:D 0
8 *654:24 *655:10 0
9 *654:24 *1112:119 0
10 *654:24 *1163:20 4.77083e-05
11 *1654:A2 *1660:A 0
12 *2297:A *1660:A 0.000337144
13 *202:32 *654:24 0
14 *365:20 *654:24 0.000176331
15 *365:39 *654:24 0.000336853
16 *366:8 *1653:A 0
17 *509:21 *1653:A 0
*RES
1 *2197:X *654:24 30.3312 
2 *654:24 *654:28 21.7776 
3 *654:28 *1653:A 41.144 
4 *654:28 *1660:A 41.936 
*END

*D_NET *655 0.00170621
*CONN
*I *1658:A I *D sg13g2_nor2_1
*I *1651:A I *D sg13g2_nor2_1
*I *2196:X O *D sg13g2_buf_1
*CAP
1 *1658:A 5.99506e-05
2 *1651:A 0.000172347
3 *2196:X 0.000475782
4 *655:10 0.00070808
5 *1651:A *1210:A 0
6 *1651:A *657:14 0
7 *655:10 *1659:B1 0.000242137
8 *655:10 *2196:A 0
9 *1652:B1 *1651:A 4.79124e-05
10 *2289:A *655:10 0
11 *2290:A *1651:A 0
12 *2290:A *655:10 0
13 *197:10 *1651:A 0
14 *197:10 *1658:A 0
15 *197:14 *1651:A 0
16 *197:23 *1651:A 0
17 *197:23 *655:10 0
18 *202:32 *655:10 0
19 *329:10 *1651:A 0
20 *654:24 *655:10 0
*RES
1 *2196:X *655:10 24.62 
2 *655:10 *1651:A 21.5224 
3 *655:10 *1658:A 20.6424 
*END

*D_NET *656 0.00133599
*CONN
*I *1649:A I *D sg13g2_nor2_1
*I *1657:A0 I *D sg13g2_mux2_1
*I *2195:X O *D sg13g2_buf_1
*CAP
1 *1649:A 0.000265845
2 *1657:A0 0
3 *2195:X 0.000242827
4 *656:10 0.000508672
5 *1649:A *1657:A1 0.000272774
6 *1649:A *1104:62 0
7 *1649:A *1163:20 0
8 *656:10 *1657:A1 1.53311e-05
9 *656:10 *1901:RESET_B 0
10 *656:10 *1163:20 1.51981e-05
11 *1649:B *1649:A 1.53453e-05
*RES
1 *2195:X *656:10 22.0064 
2 *656:10 *1657:A0 20 
3 *656:10 *1649:A 22.2352 
*END

*D_NET *657 0.00669904
*CONN
*I *1794:A I *D sg13g2_nor2_1
*I *1793:A0 I *D sg13g2_mux2_1
*I *2194:X O *D sg13g2_buf_1
*CAP
1 *1794:A 0.000439466
2 *1793:A0 0
3 *2194:X 0.00206178
4 *657:14 0.00250125
5 *1794:A *1274:A2 0
6 *1794:A *1869:CLK 0.000209681
7 *657:14 *1210:A 0.000242483
8 *657:14 *1274:A2 0
9 *657:14 *1648:B 0.000212079
10 *657:14 *1869:CLK 0
11 *657:14 *1874:CLK 0
12 *657:14 *2003:RESET_B 0.000209374
13 *657:14 *1146:45 0
14 *1261:B1 *657:14 0
15 *1651:A *657:14 0
16 *1652:B1 *657:14 0
17 *1794:B *1794:A 0
18 *2003:D *657:14 0
19 *2289:A *657:14 0
20 *197:10 *657:14 0.000435769
21 *197:40 *1794:A 0.00033942
22 *197:40 *657:14 0
23 *197:62 *1794:A 0
24 *368:16 *657:14 4.77425e-05
25 *510:18 *657:14 0
26 *510:26 *657:14 0
*RES
1 *2194:X *657:14 38.8144 
2 *657:14 *1793:A0 20 
3 *657:14 *1794:A 24.4 
*END

*D_NET *658 0.00403164
*CONN
*I *1827:B I *D sg13g2_nor3_1
*I *1830:A I *D sg13g2_inv_1
*I *1373:B I *D sg13g2_nand2_1
*I *2193:X O *D sg13g2_buf_1
*CAP
1 *1827:B 3.21402e-05
2 *1830:A 0.000204423
3 *1373:B 0
4 *2193:X 0.000557217
5 *658:56 0.000583296
6 *658:31 0.000856988
7 *658:18 0.000658627
8 *1827:B *1248:A 0
9 *1827:B *1187:16 0
10 *1830:A *1097:63 0
11 *658:18 *2318:A 0
12 *658:18 *2326:A 0
13 *658:56 *1086:14 0.000112426
14 *1375:B *658:18 0
15 *1827:C *658:56 0.000237686
16 *1832:A1 *658:56 0
17 *1832:B1 *1830:A 0.000177326
18 *2019:D *658:56 4.77425e-05
19 *16:14 *658:18 0.000231792
20 *16:14 *658:31 0.000155478
21 *16:14 *658:56 0
22 *172:10 *1830:A 0.0001765
23 *303:10 *1830:A 0
24 *466:8 *658:31 0
25 *466:8 *658:56 0
26 *467:27 *658:18 0
27 *652:16 *658:18 0
28 *652:16 *658:31 0
29 *653:20 *1827:B 0
*RES
1 *2193:X *658:18 25.2096 
2 *658:18 *1373:B 20 
3 *658:18 *658:31 21.1396 
4 *658:31 *1830:A 41.7336 
5 *658:31 *658:56 44.7168 
6 *658:56 *1827:B 40.2728 
*END

*D_NET *704 0.00124689
*CONN
*I *2285:A I *D sg13g2_dlygate4sd3_1
*I *2192:X O *D sg13g2_buf_1
*CAP
1 *2285:A 0.000116948
2 *2192:X 0.000289255
3 *704:8 0.000406203
4 *2285:A *2084:RESET_B 0.000209582
5 *2285:A *918:6 1.54008e-05
6 *2285:A *918:8 0.000209506
7 *704:8 *844:8 0
8 *704:8 *918:48 0
*RES
1 *2192:X *704:8 42.8336 
2 *704:8 *2285:A 41.1968 
*END

*D_NET *705 0.000355156
*CONN
*I *2283:A I *D sg13g2_dlygate4sd3_1
*I *2191:X O *D sg13g2_buf_1
*CAP
1 *2283:A 0.000177578
2 *2191:X 0.000177578
3 *2283:A *1150:10 0
4 *505:18 *2283:A 0
*RES
1 *2191:X *2283:A 41.496 
*END

*D_NET *706 0.00829758
*CONN
*I *2059:D I *D sg13g2_dfrbpq_1
*I *2190:X O *D sg13g2_buf_1
*CAP
1 *2059:D 0
2 *2190:X 0.00256449
3 *706:28 0.000950902
4 *706:20 0.0035154
5 *706:20 *1441:A 7.99451e-05
6 *706:20 *1965:RESET_B 4.77425e-05
7 *706:20 *1965:CLK 0
8 *706:20 *2072:CLK 0
9 *706:20 *2083:CLK 0
10 *706:20 *2244:A 0
11 *706:20 *1112:12 0.000112161
12 *706:28 *2047:RESET_B 0
13 *706:28 *2072:CLK 0
14 *706:28 *2249:A 0.000562706
15 *706:28 *713:12 0
16 *706:28 *873:50 0.000175986
17 *706:28 *1100:14 0.000240502
18 *1442:A *706:20 4.77425e-05
19 *2014:D *706:20 0
20 *691:12 *706:20 0
21 *691:47 *706:20 0
*RES
1 *2190:X *706:20 43.6192 
2 *706:20 *706:28 47.964 
3 *706:28 *2059:D 20 
*END

*D_NET *707 0.00917467
*CONN
*I *2052:D I *D sg13g2_dfrbpq_1
*I *2189:X O *D sg13g2_buf_1
*CAP
1 *2052:D 0
2 *2189:X 0.00344008
3 *707:14 0.00344008
4 *707:14 *1242:A1 0
5 *707:14 *1386:A 8.03091e-05
6 *707:14 *1470:A1 0
7 *707:14 *1724:B 0
8 *707:14 *1819:B 0
9 *707:14 *2011:CLK 0
10 *707:14 *1079:8 0
11 *707:14 *1087:25 8.01938e-05
12 *707:14 *1097:46 0
13 *707:14 *1100:8 0
14 *707:14 *1100:49 0
15 *707:14 *1141:6 0
16 *707:14 *1141:16 0
17 *707:14 *1141:56 0.000533848
18 *707:14 *1143:23 0
19 *1242:B1 *707:14 0
20 *1251:B2 *707:14 0
21 *1254:A2 *707:14 1.69409e-05
22 *1254:A1 *707:14 0
23 *1381:B *707:14 0
24 *1817:A *707:14 0
25 *1940:D *707:14 0
26 *69:10 *707:14 0.000307067
27 *167:10 *707:14 0
28 *363:8 *707:14 0
29 *475:8 *707:14 0.000111838
30 *505:96 *707:14 0.000566015
31 *653:20 *707:14 0.000598296
*RES
1 *2189:X *707:14 49.4536 
2 *707:14 *2052:D 20 
*END

*D_NET *845 0.00735027
*CONN
*I *2083:RESET_B I *D sg13g2_dfrbpq_1
*I *2084:RESET_B I *D sg13g2_dfrbpq_1
*I *2040:RESET_B I *D sg13g2_dfrbpq_1
*I *2041:RESET_B I *D sg13g2_dfrbpq_1
*I *2188:X O *D sg13g2_buf_1
*CAP
1 *2083:RESET_B 0.000546738
2 *2084:RESET_B 0.000589888
3 *2040:RESET_B 3.4601e-05
4 *2041:RESET_B 2.55929e-05
5 *2188:X 0.000256552
6 *845:34 0.00159484
7 *845:21 0.000930091
8 *845:10 0.000719416
9 *2084:RESET_B *2065:D 0
10 *2084:RESET_B *918:8 0
11 *2084:RESET_B *918:12 0
12 *2084:RESET_B *918:18 0
13 *845:10 *2188:A 0
14 *845:21 *2041:CLK 0.000986066
15 *845:21 *1151:8 0
16 *845:34 *2041:CLK 0.000479865
17 *845:34 *918:48 0.000929121
18 *2041:D *2041:RESET_B 0
19 *2041:D *845:10 4.79124e-05
20 *2285:A *2084:RESET_B 0.000209582
21 *844:8 *2083:RESET_B 0
*RES
1 *2188:X *845:10 42.3408 
2 *845:10 *2041:RESET_B 40.2728 
3 *845:10 *845:21 5.7904 
4 *845:21 *2040:RESET_B 40.2728 
5 *845:21 *845:34 6.2744 
6 *845:34 *2084:RESET_B 45.192 
7 *845:34 *2083:RESET_B 44.5232 
*END

*D_NET *659 0.00216998
*CONN
*I *1472:A I *D sg13g2_nand2_1
*I *2187:A I *D sg13g2_buf_1
*I *1212:Y O *D sg13g2_nand2_1
*CAP
1 *1472:A 0.000317846
2 *2187:A 0.000557632
3 *1212:Y 0
4 *659:4 0.000875478
5 *1472:A *690:10 0.000371283
6 *2187:A *2004:RESET_B 0
7 *2187:A *2004:CLK 0
8 *2187:A *690:10 0
9 *1212:A *1472:A 0
10 *509:10 *1472:A 4.77425e-05
11 *604:6 *1472:A 0
12 *604:6 *2187:A 0
13 *604:25 *1472:A 0
*RES
1 *1212:Y *659:4 20 
2 *659:4 *2187:A 24.5232 
3 *659:4 *1472:A 23.2648 
*END

*D_NET *660 0.000602551
*CONN
*I *2186:A I *D sg13g2_buf_1
*I *1684:X O *D sg13g2_mux2_1
*CAP
1 *2186:A 2.9855e-05
2 *1684:X 0.00027142
3 *660:8 0.000301275
4 *2186:A *2181:A 0
5 *2186:A *956:10 0
6 *660:8 *1613:A 0
7 *660:8 *956:10 0
8 *515:84 *660:8 0
*RES
1 *1684:X *660:8 42.6224 
2 *660:8 *2186:A 40.2728 
*END

*D_NET *661 0.00433935
*CONN
*I *2185:A I *D sg13g2_buf_1
*I *1683:X O *D sg13g2_mux2_1
*CAP
1 *2185:A 0
2 *1683:X 0.00195983
3 *661:12 0.00195983
4 *661:12 *1619:A 0
5 *661:12 *1619:B 0
6 *661:12 *1625:A 0
7 *661:12 *1691:A0 0
8 *661:12 *1691:A1 0
9 *661:12 *2150:A 0.000209966
10 *661:12 *2151:A 0
11 *661:12 *694:14 0
12 *661:12 *740:8 0
13 *661:12 *988:8 0.000209725
14 *661:12 *988:18 0
15 *661:12 *1014:10 0
16 *661:12 *1134:43 0
17 *1620:B1 *661:12 0
18 *1882:D *661:12 0
*RES
1 *1683:X *661:12 37.8024 
2 *661:12 *2185:A 20 
*END

*D_NET *662 0.00290008
*CONN
*I *2184:A I *D sg13g2_buf_1
*I *1682:X O *D sg13g2_mux2_1
*CAP
1 *2184:A 0
2 *1682:X 0
3 *662:12 0.00114586
4 *662:6 0.00114586
5 *662:12 axi_lite_o[13] 0
6 *662:12 *1919:RESET_B 0
7 *662:12 *723:76 0
8 *662:12 *723:93 0.000608354
9 *662:12 *773:12 0
10 *662:12 *992:10 0
11 *662:12 *1110:86 0
12 *662:12 *1131:73 0
*RES
1 *1682:X *662:6 40 
2 *662:6 *662:12 31.7656 
3 *662:12 *2184:A 20 
*END

*D_NET *663 0.00138929
*CONN
*I *2183:A I *D sg13g2_buf_1
*I *1673:X O *D sg13g2_mux2_1
*CAP
1 *2183:A 0.000107347
2 *1673:X 0.000563342
3 *663:10 0.000670688
4 *2183:A *2182:A 0
5 *663:10 *1520:B 0
6 *663:10 *2180:A 4.79124e-05
7 *663:10 *916:67 0
8 *663:10 *992:10 0
9 *1614:A1 *663:10 0
10 *515:69 *663:10 0
11 *515:76 *2183:A 0
*RES
1 *1673:X *663:10 45.2184 
2 *663:10 *2183:A 41.012 
*END

*D_NET *664 0.00129203
*CONN
*I *2182:A I *D sg13g2_buf_1
*I *1672:X O *D sg13g2_mux2_1
*CAP
1 *2182:A 0.000122125
2 *1672:X 0.00052389
3 *664:10 0.000646015
4 *2183:A *2182:A 0
*RES
1 *1672:X *664:10 45.192 
2 *664:10 *2182:A 41.1968 
*END

*D_NET *665 0.00067564
*CONN
*I *2181:A I *D sg13g2_buf_1
*I *1237:X O *D sg13g2_mux2_1
*CAP
1 *2181:A 0.00033782
2 *1237:X 0.00033782
3 *2181:A *1237:A1 0
4 *2181:A *774:8 0
5 *2181:A *956:10 0
6 *2186:A *2181:A 0
*RES
1 *1237:X *2181:A 43.0536 
*END

*D_NET *666 0.00347035
*CONN
*I *2180:A I *D sg13g2_buf_1
*I *1713:X O *D sg13g2_mux2_1
*CAP
1 *2180:A 0.000819837
2 *1713:X 0.00089138
3 *666:8 0.00171122
4 *2180:A *1520:B 0
5 *2180:A *1521:A2 0
6 *2180:A *1523:B 0
7 *2180:A *1673:A0 0
8 *2180:A *1914:CLK 0
9 *2180:A *723:85 0
10 *2180:A *1108:90 0
11 *666:8 *1611:B 0
12 *666:8 *1131:23 0
13 *666:8 *1131:47 0
14 *666:8 *1148:59 0
15 *1614:A1 *2180:A 0
16 *1614:B1 *2180:A 0
17 *663:10 *2180:A 4.79124e-05
*RES
1 *1713:X *666:8 46.6352 
2 *666:8 *2180:A 46.9256 
*END

*D_NET *667 0.000301728
*CONN
*I *2179:A I *D sg13g2_buf_1
*I *1711:X O *D sg13g2_mux2_1
*CAP
1 *2179:A 0.000150864
2 *1711:X 0.000150864
3 *2179:A *1711:A1 0
*RES
1 *1711:X *2179:A 41.628 
*END

*D_NET *668 0.000146644
*CONN
*I *2178:A I *D sg13g2_buf_1
*I *1208:X O *D sg13g2_mux2_1
*CAP
1 *2178:A 7.33219e-05
2 *1208:X 7.33219e-05
3 *2178:A *959:6 0
*RES
1 *1208:X *2178:A 40.7832 
*END

*D_NET *669 0.0076484
*CONN
*I *2177:A I *D sg13g2_buf_1
*I *1209:X O *D sg13g2_mux2_1
*CAP
1 *2177:A 0
2 *1209:X 0
3 *669:12 0.00172807
4 *669:6 0.00172807
5 *669:12 *1511:A 0
6 *669:12 *1922:RESET_B 0
7 *669:12 *2240:A 0.000714004
8 *669:12 *917:30 0
9 *669:12 *923:8 0.000748721
10 *669:12 *923:14 0.00114077
11 *669:12 *923:50 0.00058617
12 *669:12 *985:21 0
13 *669:12 *1108:8 0
14 *669:12 *1108:21 0
15 *669:12 *1109:50 0.000714833
16 *669:12 *1127:10 0
17 *669:12 *1132:49 0
18 *1608:A1 *669:12 0
19 *1891:D *669:12 0
20 *562:10 *669:12 0
21 *567:18 *669:12 0
22 *568:8 *669:12 0.000287758
*RES
1 *1209:X *669:6 40 
2 *669:6 *669:12 39.1048 
3 *669:12 *2177:A 20 
*END

*D_NET *671 0.00513746
*CONN
*I *2176:A I *D sg13g2_buf_1
*I *1206:X O *D sg13g2_mux2_1
*CAP
1 *2176:A 0
2 *1206:X 0
3 *671:12 0.00128238
4 *671:6 0.00128238
5 *671:12 *2264:A 0
6 *671:12 *672:8 0.001143
7 *671:12 *961:8 0
8 *671:12 *962:14 0
9 *1207:S *671:12 0.000587785
10 *1298:A *671:12 0
11 *1479:A *671:12 0
12 *506:74 *671:12 0
13 *515:27 *671:12 0
14 *522:8 *671:12 0.000128334
15 *594:8 *671:12 0.000713588
*RES
1 *1206:X *671:6 40 
2 *671:6 *671:12 35.9896 
3 *671:12 *2176:A 20 
*END

*D_NET *672 0.00282908
*CONN
*I *2175:A I *D sg13g2_buf_1
*I *1207:X O *D sg13g2_mux2_1
*CAP
1 *2175:A 5.29288e-05
2 *1207:X 0.000511996
3 *672:8 0.000564925
4 *672:8 axi_lite_o[19] 0
5 *672:8 axi_lite_o[20] 0.000556237
6 *1479:A *672:8 0
7 *515:8 *672:8 0
8 *515:38 *672:8 0
9 *671:12 *672:8 0.001143
*RES
1 *1207:X *672:8 47.0576 
2 *672:8 *2175:A 40.4576 
*END

*D_NET *673 0.004941
*CONN
*I *2174:A I *D sg13g2_buf_1
*I *1202:X O *D sg13g2_mux2_1
*CAP
1 *2174:A 0
2 *1202:X 0
3 *673:12 0.000857804
4 *673:6 0.000857804
5 *673:12 *1121:33 0.000831602
6 *673:12 *1140:22 0.000646025
7 *673:12 *1140:24 0.000268301
8 *673:12 *1140:30 0.00045383
9 *673:12 *1140:87 0.00102563
10 *506:52 *673:12 0
11 *588:8 *673:12 0
*RES
1 *1202:X *673:6 40 
2 *673:6 *673:12 30.9208 
3 *673:12 *2174:A 20 
*END

*D_NET *674 0.000666757
*CONN
*I *2173:A I *D sg13g2_buf_1
*I *1205:Y O *D sg13g2_a21oi_1
*CAP
1 *2173:A 0
2 *1205:Y 0.000309428
3 *674:10 0.000309428
4 *674:10 *1103:36 0
5 *1205:A1 *674:10 4.79017e-05
*RES
1 *1205:Y *674:10 42.8688 
2 *674:10 *2173:A 40 
*END

*D_NET *675 0.00230934
*CONN
*I *2172:A I *D sg13g2_buf_1
*I *1198:Y O *D sg13g2_a21oi_1
*CAP
1 *2172:A 6.30152e-05
2 *1198:Y 0.000402057
3 *675:8 0.000465073
4 *2172:A *1142:25 0.000112689
5 *675:8 axi_lite_o[26] 0
6 *1806:A1 *675:8 0
7 *291:8 *675:8 0
8 *322:8 *675:8 0.000766705
9 *323:10 *675:8 0.000499799
10 *323:27 *675:8 0
*RES
1 *1198:Y *675:8 44.7344 
2 *675:8 *2172:A 40.6424 
*END

*D_NET *676 0.00161714
*CONN
*I *2171:A I *D sg13g2_buf_1
*I *1201:Y O *D sg13g2_a21oi_1
*CAP
1 *2171:A 0
2 *1201:Y 0.000582751
3 *676:10 0.000582751
4 *676:10 *679:10 0
5 *676:10 *683:8 0
6 *676:10 *790:17 0
7 *1201:B1 *676:10 8.01612e-05
8 *1221:A1 *676:10 4.77425e-05
9 *1480:A *676:10 0.000291393
10 *339:18 *676:10 0
11 *520:73 *676:10 3.23417e-05
*RES
1 *1201:Y *676:10 44.9544 
2 *676:10 *2171:A 40 
*END

*D_NET *677 0.000486305
*CONN
*I *2170:A I *D sg13g2_buf_1
*I *1233:Y O *D sg13g2_a21oi_1
*CAP
1 *2170:A 0
2 *1233:Y 0.000130131
3 *677:10 0.000130131
4 *677:10 *1105:96 0
5 *1233:A1 *677:10 4.77863e-05
6 *1233:B1 *677:10 4.79124e-05
7 *1492:A1 *677:10 0
8 *343:8 *677:10 0.000130344
*RES
1 *1233:Y *677:10 41.3904 
2 *677:10 *2170:A 40 
*END

*D_NET *678 0.000974254
*CONN
*I *2169:A I *D sg13g2_buf_1
*I *1236:Y O *D sg13g2_a21oi_1
*CAP
1 *2169:A 0
2 *1236:Y 0.000231247
3 *678:10 0.000231247
4 *1236:A1 *678:10 4.77425e-05
5 *1236:B1 *678:10 4.77702e-05
6 *1491:A1 *678:10 0.00012816
7 *345:10 *678:10 0.000288087
*RES
1 *1236:Y *678:10 42.6576 
2 *678:10 *2169:A 40 
*END

*D_NET *679 0.0011179
*CONN
*I *2168:A I *D sg13g2_buf_1
*I *1227:Y O *D sg13g2_a21oi_1
*CAP
1 *2168:A 0
2 *1227:Y 0.000374543
3 *679:10 0.000374543
4 *679:10 *1183:14 0
5 *328:10 *679:10 0
6 *339:8 *679:10 0
7 *339:18 *679:10 0.000288502
8 *516:8 *679:10 4.79124e-05
9 *516:21 *679:10 3.23965e-05
10 *676:10 *679:10 0
*RES
1 *1227:Y *679:10 43.9248 
2 *679:10 *2168:A 40 
*END

*D_NET *680 0.00126542
*CONN
*I *2167:A I *D sg13g2_buf_1
*I *1230:Y O *D sg13g2_a21oi_1
*CAP
1 *2167:A 0
2 *1230:Y 0.000226301
3 *680:10 0.000226301
4 *680:10 *1105:73 0
5 *1230:B1 *680:10 4.77425e-05
6 *1236:A1 *680:10 3.23417e-05
7 *1489:A1 *680:10 0.000128248
8 *341:8 *680:10 0.000556653
9 *516:72 *680:10 4.78356e-05
10 *519:85 *680:10 0
*RES
1 *1230:Y *680:10 43.08 
2 *680:10 *2167:A 40 
*END

*D_NET *681 0.00193232
*CONN
*I *2166:A I *D sg13g2_buf_1
*I *1704:Y O *D sg13g2_a21oi_1
*CAP
1 *2166:A 0.00014228
2 *1704:Y 0.00082388
3 *681:8 0.000966161
4 *2166:A *759:8 0
5 *681:8 axi_lite_o[26] 0
6 *681:8 *1864:CLK 0
7 *681:8 *1126:8 0
8 *681:8 *1138:64 0
9 *681:8 *1142:23 0
10 *341:8 *681:8 0
11 *507:100 *681:8 0
*RES
1 *1704:Y *681:8 47.48 
2 *681:8 *2166:A 41.1968 
*END

*D_NET *682 0.00199069
*CONN
*I *2165:A I *D sg13g2_buf_1
*I *1221:Y O *D sg13g2_a21oi_1
*CAP
1 *2165:A 0.000129561
2 *1221:Y 0.000364802
3 *682:12 0.000494363
4 *2165:A *930:39 0.000241979
5 *2165:A *1126:30 0.000241979
6 *682:12 *683:8 0
7 *682:12 *790:17 0.00034112
8 *682:12 *1126:47 0.000176883
9 *1221:A1 *682:12 0
10 *1480:A *682:12 0
11 *1929:D *682:12 0
*RES
1 *1221:Y *682:12 43.2208 
2 *682:12 *2165:A 41.3816 
*END

*D_NET *683 0.00310776
*CONN
*I *2164:A I *D sg13g2_buf_1
*I *1224:Y O *D sg13g2_a21oi_1
*CAP
1 *2164:A 4.74137e-05
2 *1224:Y 0.0009585
3 *683:8 0.00100591
4 *2164:A *755:8 0
5 *683:8 axi_lite_o[25] 0
6 *683:8 *1200:B 0
7 *683:8 *757:12 0.00109593
8 *683:8 *790:17 0
9 *683:8 *1183:18 0
10 *340:10 *683:8 0
11 *676:10 *683:8 0
12 *682:12 *683:8 0
*RES
1 *1224:Y *683:8 49.3808 
2 *683:8 *2164:A 40.4576 
*END

*D_NET *684 0.0021161
*CONN
*I *2163:A I *D sg13g2_buf_1
*I *1215:Y O *D sg13g2_a21oi_1
*CAP
1 *2163:A 0
2 *1215:Y 0.000967158
3 *684:12 0.000967158
4 *684:12 *790:17 0
5 *684:12 *1126:87 0
6 *684:12 *1145:80 0.000181781
7 *325:14 *684:12 0
8 *335:12 *684:12 0
9 *336:8 *684:12 0
10 *507:44 *684:12 0
*RES
1 *1215:Y *684:12 49.0816 
2 *684:12 *2163:A 40 
*END

*D_NET *685 0.00128019
*CONN
*I *2162:A I *D sg13g2_buf_1
*I *1218:Y O *D sg13g2_a21oi_1
*CAP
1 *2162:A 9.58336e-05
2 *1218:Y 0.000544261
3 *685:10 0.000640095
4 *2162:A *1216:A 0
5 *685:10 axi_lite_o[23] 0
6 *685:10 *1006:8 0
7 *685:10 *1103:66 0
8 *333:8 *685:10 0
9 *516:41 *685:10 0
*RES
1 *1218:Y *685:10 44.136 
2 *685:10 *2162:A 40.8272 
*END

*D_NET *686 0.00127765
*CONN
*I *2161:A I *D sg13g2_buf_1
*I *1860:Y O *D sg13g2_a21oi_1
*CAP
1 *2161:A 0
2 *1860:Y 0.000430615
3 *686:10 0.000430615
4 *686:10 axi_lite_o[24] 0
5 *686:10 axi_lite_o[29] 0
6 *686:10 *1865:RESET_B 0
7 *686:10 *1013:8 0
8 *1806:A1 *686:10 0.000128248
9 *1860:B1 *686:10 4.77425e-05
10 *291:8 *686:10 0.000160254
11 *516:41 *686:10 4.77425e-05
12 *516:50 *686:10 3.24351e-05
*RES
1 *1860:Y *686:10 44.7696 
2 *686:10 *2161:A 40 
*END

*D_NET *687 0.000395411
*CONN
*I *2160:A I *D sg13g2_buf_1
*I *1712:Y O *D sg13g2_nand2_1
*CAP
1 *2160:A 0.000197705
2 *1712:Y 0.000197705
3 *2160:A *2159:A 0
4 *615:20 *2160:A 0
*RES
1 *1712:Y *2160:A 41.9184 
*END

*D_NET *688 0.00237383
*CONN
*I *2159:A I *D sg13g2_buf_1
*I *1373:A I *D sg13g2_nand2_1
*I *1372:Y O *D sg13g2_nand2_1
*CAP
1 *2159:A 0.000568788
2 *1373:A 0
3 *1372:Y 0.000327277
4 *688:12 0.000896066
5 *2159:A *793:17 0.000566299
6 *2159:A *1023:32 0
7 *2159:A *1185:8 0
8 *688:12 *2198:A 0
9 *688:12 *1097:63 0
10 *1375:B *688:12 0
11 *2160:A *2159:A 0
12 *172:10 *688:12 0
13 *465:12 *688:12 1.54008e-05
14 *467:27 *2159:A 0
15 *615:20 *2159:A 0
16 *653:8 *688:12 0
*RES
1 *1372:Y *688:12 42.508 
2 *688:12 *1373:A 40 
3 *688:12 *2159:A 45.2184 
*END

*D_NET *690 0.003012
*CONN
*I *2158:A I *D sg13g2_buf_1
*I *1751:X O *D sg13g2_mux2_1
*CAP
1 *2158:A 0
2 *1751:X 0.00127254
3 *690:10 0.00127254
4 *690:10 *1751:S 0
5 *690:10 *2004:CLK 1.54008e-05
6 *1472:A *690:10 0.000371283
7 *1474:B *690:10 0
8 *1475:A *690:10 0
9 *1809:A *690:10 8.02269e-05
10 *2006:D *690:10 0
11 *2187:A *690:10 0
12 *193:27 *690:10 0
13 *509:10 *690:10 0
14 *510:43 *690:10 0
15 *511:6 *690:10 0
*RES
1 *1751:X *690:10 31.7744 
2 *690:10 *2158:A 20 
*END

*D_NET *691 0.00734377
*CONN
*I *1820:A2 I *D sg13g2_a21oi_1
*I *1385:A I *D sg13g2_nand2_1
*I *1442:A I *D sg13g2_nand2_1
*I *1822:B I *D sg13g2_xnor2_1
*I *1384:A I *D sg13g2_xnor2_1
*I *2155:A I *D sg13g2_buf_1
*I *2157:A I *D sg13g2_buf_1
*I *1380:Y O *D sg13g2_a21oi_1
*CAP
1 *1820:A2 0
2 *1385:A 2.45197e-05
3 *1442:A 2.16785e-05
4 *1822:B 0.000124802
5 *1384:A 0
6 *2155:A 0
7 *2157:A 0.000170229
8 *1380:Y 0
9 *691:51 0.000308001
10 *691:47 0.000538998
11 *691:40 0.000676223
12 *691:32 0.00101944
13 *691:12 0.000831051
14 *691:6 0.001357
15 *1385:A *1965:CLK 4.77425e-05
16 *1442:A *706:20 4.77425e-05
17 *2157:A axi_lite_o[40] 0
18 *691:12 *706:20 0
19 *691:12 *1192:8 0
20 *691:32 *1380:A2 0.000371817
21 *691:32 *2013:CLK 0
22 *691:32 *2017:RESET_B 0
23 *691:32 *1191:10 0
24 *691:32 *1192:8 0
25 *691:40 *2013:RESET_B 0.000207985
26 *691:47 *1965:CLK 0.000240202
27 *691:47 *706:20 0
28 *691:51 *1082:10 0.00012874
29 *1383:A *691:40 0.000234224
30 *1383:B *691:40 0.00023464
31 *1821:B *691:32 0
32 *1822:A *1822:B 0.000236395
33 *2325:A *691:32 0
34 *471:10 *691:40 0.000159183
35 *472:8 *691:40 7.52158e-05
36 *504:8 *1822:B 0.000106333
37 *504:8 *691:51 0.000181601
38 *650:12 *691:32 0
*RES
1 *1380:Y *691:6 40 
2 *691:6 *691:12 26.7232 
3 *691:12 *2157:A 21.5664 
4 *691:12 *2155:A 20 
5 *691:6 *691:32 26.6792 
6 *691:32 *691:40 43.7664 
7 *691:40 *1384:A 20 
8 *691:40 *691:47 3.2296 
9 *691:47 *691:51 21.7776 
10 *691:51 *1822:B 41.628 
11 *691:51 *1442:A 40.2728 
12 *691:47 *1385:A 20.2728 
13 *691:32 *1820:A2 20 
*END

*D_NET *692 0.000373476
*CONN
*I *2156:A I *D sg13g2_buf_1
*I *1701:X O *D sg13g2_mux2_1
*CAP
1 *2156:A 0.000186738
2 *1701:X 0.000186738
3 *2156:A axi_lite_o[7] 0
4 *2156:A *740:8 0
*RES
1 *1701:X *2156:A 41.496 
*END

*D_NET *694 0.00814169
*CONN
*I *2154:A I *D sg13g2_buf_1
*I *1700:X O *D sg13g2_mux2_1
*CAP
1 *2154:A 0
2 *1700:X 0.00302903
3 *694:14 0.00302903
4 *694:14 axi_lite_o[7] 0
5 *694:14 *1691:A0 8.0194e-05
6 *694:14 *1691:A1 0
7 *694:14 *1700:A1 8.02924e-05
8 *694:14 *1884:CLK 0
9 *694:14 *2151:A 0
10 *694:14 *963:6 0.000209713
11 *694:14 *974:8 0
12 *694:14 *979:8 0.000177164
13 *694:14 *988:8 0
14 *694:14 *1133:72 0
15 *694:14 *1148:8 0
16 *1701:S *694:14 0
17 *407:26 *694:14 0
18 *407:34 *694:14 0.000857479
19 *407:49 *694:14 0.000678786
20 *661:12 *694:14 0
*RES
1 *1700:X *694:14 44.9656 
2 *694:14 *2154:A 20 
*END

*D_NET *695 0.00446176
*CONN
*I *2153:A I *D sg13g2_buf_1
*I *1698:Y O *D sg13g2_a21oi_1
*CAP
1 *2153:A 0
2 *1698:Y 0
3 *695:12 0.00123161
4 *695:6 0.00123161
5 *695:12 *1511:A 0
6 *695:12 *1607:B 0
7 *695:12 *1108:8 0
8 *1608:A1 *695:12 0.000450995
9 *87:10 *695:12 0.00034162
10 *515:38 *695:12 0
11 *531:10 *695:12 0.00120592
12 *562:10 *695:12 0
13 *597:8 *695:12 0
*RES
1 *1698:Y *695:6 40 
2 *695:6 *695:12 32.4784 
3 *695:12 *2153:A 20 
*END

*D_NET *696 0.00273756
*CONN
*I *2152:A I *D sg13g2_buf_1
*I *1696:Y O *D sg13g2_a21oi_1
*CAP
1 *2152:A 0
2 *1696:Y 0
3 *696:12 0.00136878
4 *696:6 0.00136878
5 *696:12 axi_lite_o[17] 0
6 *696:12 axi_lite_o[18] 0
7 *696:12 *1514:B 0
8 *696:12 *917:49 0
9 *696:12 *923:8 0
10 *696:12 *923:50 0
11 *696:12 *959:14 0
12 *696:12 *1132:55 0
13 *1610:A1 *696:12 0
14 *1696:A1 *696:12 0
*RES
1 *1696:Y *696:6 40 
2 *696:6 *696:12 33.5344 
3 *696:12 *2152:A 20 
*END

*D_NET *697 0.00208692
*CONN
*I *2151:A I *D sg13g2_buf_1
*I *1691:X O *D sg13g2_mux2_1
*CAP
1 *2151:A 0.00104346
2 *1691:X 0.00104346
3 *2151:A *2150:A 0
4 *661:12 *2151:A 0
5 *694:14 *2151:A 0
*RES
1 *1691:X *2151:A 48.5712 
*END

*D_NET *698 0.000558941
*CONN
*I *2150:A I *D sg13g2_buf_1
*I *1686:X O *D sg13g2_mux2_1
*CAP
1 *2150:A 0.000114426
2 *1686:X 6.00611e-05
3 *698:8 0.000174487
4 *698:8 *1014:10 0
5 *2151:A *2150:A 0
6 *661:12 *2150:A 0.000209966
*RES
1 *1686:X *698:8 40.5104 
2 *698:8 *2150:A 41.1968 
*END

*D_NET *699 0.00257595
*CONN
*I *2149:A I *D sg13g2_buf_1
*I *1685:X O *D sg13g2_mux2_1
*CAP
1 *2149:A 0.000377129
2 *1685:X 0.000672459
3 *699:8 0.00104959
4 *2149:A *1888:RESET_B 0
5 *2149:A *739:8 0
6 *2149:A *1016:10 0.000242313
7 *699:8 *1536:A 0
8 *699:8 *1110:64 0
9 *699:8 *1134:71 0
10 *699:8 *1135:41 0.000234461
11 *1888:D *2149:A 0
12 *181:8 *699:8 0
13 *515:84 *699:8 0
14 *548:12 *699:8 0
*RES
1 *1685:X *699:8 47.2688 
2 *699:8 *2149:A 43.5992 
*END

*D_NET *700 0.00596305
*CONN
*I *1544:B2 I *D sg13g2_a221oi_1
*I *2148:A I *D sg13g2_buf_1
*I *1666:A1 I *D sg13g2_mux2_1
*I *1999:Q O *D sg13g2_dfrbpq_1
*CAP
1 *1544:B2 0.000547182
2 *2148:A 0.000602673
3 *1666:A1 0.000435678
4 *1999:Q 0.000122213
5 *700:10 0.00121264
6 *700:8 0.000843682
7 *1544:B2 *1541:B2 0.000501162
8 *1544:B2 *839:29 0.000242181
9 *1544:B2 *921:27 1.54556e-05
10 *1544:B2 *921:31 0
11 *1544:B2 *921:56 0
12 *1666:A1 *1789:S 0
13 *1666:A1 *702:25 0
14 *1666:A1 *722:66 0
15 *2148:A *2146:A 0.000696039
16 *2148:A *722:78 0
17 *2148:A *924:14 0.000112733
18 *2148:A *924:23 0.00058358
19 *2148:A *924:27 0
20 *700:8 *1538:B2 0
21 *700:10 *1538:B2 0
22 *1541:B1 *1544:B2 4.78356e-05
23 *1999:D *1666:A1 0
24 *552:14 *1544:B2 0
*RES
1 *1999:Q *700:8 41.144 
2 *700:8 *700:10 1.7776 
3 *700:10 *1666:A1 44.3208 
4 *700:10 *2148:A 46.1424 
5 *700:8 *1544:B2 45.0952 
*END

*D_NET *701 0.0072486
*CONN
*I *2147:A I *D sg13g2_buf_1
*I *1541:B2 I *D sg13g2_a221oi_1
*I *1665:A1 I *D sg13g2_mux2_1
*I *2000:Q O *D sg13g2_dfrbpq_1
*CAP
1 *2147:A 0
2 *1541:B2 0.000828661
3 *1665:A1 0
4 *2000:Q 0
5 *701:48 0.000536399
6 *701:27 0.00196457
7 *701:16 0.000749158
8 *701:4 0.00134866
9 *1541:B2 *1998:CLK 0
10 *1541:B2 *2141:A 0
11 *1541:B2 *921:31 1.54008e-05
12 *1541:B2 *924:14 0
13 *1541:B2 *924:23 0
14 *1541:B2 *924:27 0
15 *701:16 *1122:14 0
16 *701:16 *1122:55 0
17 *701:27 *708:18 0
18 *701:27 *722:88 0
19 *701:48 cio_gpio_en_o[3] 0.000176685
20 *701:48 *2141:A 0
21 *701:48 *708:10 0.000242136
22 *701:48 *734:10 0.0004007
23 *701:48 *924:27 0
24 *1544:B2 *1541:B2 0.000501162
25 *1792:A0 *701:27 0.000340375
26 *1995:D *701:16 0.000144691
27 *285:10 *701:16 0
28 *285:14 *701:16 0
29 *552:14 *1541:B2 0
30 *573:10 *701:27 0
*RES
1 *2000:Q *701:4 20 
2 *701:4 *701:16 46.9784 
3 *701:16 *1665:A1 20 
4 *701:4 *701:27 45.7904 
5 *701:27 *1541:B2 27.8496 
6 *701:27 *701:48 44.9544 
7 *701:48 *2147:A 20 
*END

*D_NET *702 0.00573835
*CONN
*I *1538:B2 I *D sg13g2_a221oi_1
*I *2146:A I *D sg13g2_buf_1
*I *1664:A1 I *D sg13g2_mux2_1
*I *2001:Q O *D sg13g2_dfrbpq_1
*CAP
1 *1538:B2 0.000547067
2 *2146:A 0.000604752
3 *1664:A1 0
4 *2001:Q 0
5 *702:25 0.00167353
6 *702:16 0.000704155
7 *702:4 0.00122586
8 *1538:B2 *1535:B2 0
9 *2146:A *710:32 0
10 *2146:A *722:78 0
11 *2146:A *924:27 0
12 *702:16 *909:23 0
13 *702:16 *1122:14 0
14 *702:16 *1122:55 0
15 *1538:B1 *1538:B2 1.54118e-05
16 *1666:A1 *702:25 0
17 *2148:A *2146:A 0.000696039
18 *141:10 *702:16 0
19 *205:28 *702:16 0
20 *285:14 *702:16 0
21 *413:8 *702:16 0
22 *413:35 *702:16 0.000144767
23 *413:35 *702:25 0.000126773
24 *463:29 *702:25 0
25 *573:10 *702:25 0
26 *575:22 *1538:B2 0
27 *700:8 *1538:B2 0
28 *700:10 *1538:B2 0
*RES
1 *2001:Q *702:4 20 
2 *702:4 *702:16 46.1336 
3 *702:16 *1664:A1 20 
4 *702:4 *702:25 25.1568 
5 *702:25 *2146:A 45.7464 
6 *702:25 *1538:B2 44.8752 
*END

*D_NET *703 0.00525752
*CONN
*I *2145:A I *D sg13g2_buf_1
*I *1792:A1 I *D sg13g2_mux2_1
*I *1535:B2 I *D sg13g2_a221oi_1
*I *2002:Q O *D sg13g2_dfrbpq_1
*CAP
1 *2145:A 0
2 *1792:A1 0.000763387
3 *1535:B2 0.000811448
4 *2002:Q 4.72978e-05
5 *703:23 0.00146126
6 *703:6 0.00155662
7 *1535:B2 *2141:A 0
8 *1535:B2 *711:10 4.78192e-05
9 *1535:B2 *921:56 0.000409197
10 *1792:A1 *1995:CLK 0
11 *1792:A1 *710:32 0
12 *1792:A1 *712:14 0
13 *1792:A1 *722:88 0
14 *703:23 *2141:A 0
15 *703:23 *712:14 0
16 *703:23 *924:38 0
17 *1538:B2 *1535:B2 0
18 *1538:B1 *1535:B2 0
19 *1637:A1 *703:23 0
20 *1637:B1 *703:23 0
21 *1792:A0 *1792:A1 1.54008e-05
22 *2002:D *1792:A1 0
23 *550:10 *1535:B2 0.000145098
24 *575:22 *1535:B2 0
25 *575:22 *703:23 0
*RES
1 *2002:Q *703:6 20.5104 
2 *703:6 *1535:B2 26.5736 
3 *703:6 *703:23 25.3504 
4 *703:23 *1792:A1 46.0632 
5 *703:23 *2145:A 40 
*END

*D_NET *708 0.00318565
*CONN
*I *2144:A I *D sg13g2_buf_1
*I *1567:A I *D sg13g2_inv_1
*I *1995:Q O *D sg13g2_dfrbpq_1
*CAP
1 *2144:A 0
2 *1567:A 0
3 *1995:Q 0.000369662
4 *708:18 0.000706736
5 *708:10 0.0010764
6 *708:10 cio_gpio_en_o[0] 0.000436319
7 *708:10 *734:10 0
8 *708:10 *924:27 0
9 *708:18 *712:14 0
10 *708:18 *722:88 0.000306657
11 *1792:A0 *708:18 4.77425e-05
12 *2002:D *708:18 0
13 *701:27 *708:18 0
14 *701:48 *708:10 0.000242136
*RES
1 *1995:Q *708:10 23.4584 
2 *708:10 *708:18 46.2744 
3 *708:18 *1567:A 20 
4 *708:10 *2144:A 20 
*END

*D_NET *709 0.000868127
*CONN
*I *1562:A I *D sg13g2_inv_1
*I *2143:A I *D sg13g2_buf_1
*I *1996:Q O *D sg13g2_dfrbpq_1
*CAP
1 *1562:A 0
2 *2143:A 0
3 *1996:Q 0.000211197
4 *709:16 0.000222866
5 *709:8 0.000434064
6 *709:8 intr_gpio_o[3] 0
7 *709:16 intr_gpio_o[3] 0
8 *709:16 *712:14 0
9 *1995:D *709:8 0
10 *1995:D *709:16 0
11 *569:8 *709:16 0
*RES
1 *1996:Q *709:8 21.9184 
2 *709:8 *709:16 41.8392 
3 *709:16 *2143:A 20 
4 *709:8 *1562:A 20 
*END

*D_NET *710 0.0135565
*CONN
*I *1558:A1 I *D sg13g2_a21oi_1
*I *2142:A I *D sg13g2_buf_1
*I *1667:A1 I *D sg13g2_mux2_1
*I *1997:Q O *D sg13g2_dfrbpq_1
*CAP
1 *1558:A1 0
2 *2142:A 0
3 *1667:A1 0
4 *1997:Q 0.00119682
5 *710:49 3.74268e-05
6 *710:43 0.00247852
7 *710:32 0.00104428
8 *710:26 0.00383131
9 *710:10 0.000850883
10 *710:10 *1369:B 0
11 *710:10 *1113:109 0
12 *710:10 *1125:38 0
13 *710:26 *722:56 0
14 *710:32 *711:33 0.000177164
15 *710:32 *722:56 0.000209505
16 *710:32 *722:66 0.000307095
17 *710:32 *722:78 0.000907479
18 *710:32 *1122:82 0
19 *710:43 *1365:A 0.000307019
20 *710:43 *1998:CLK 0
21 *710:43 *711:33 0
22 *710:43 *718:10 0
23 *710:43 *718:23 0
24 *710:43 *718:32 0
25 *710:43 *718:56 0
26 *710:43 *841:8 0
27 *710:49 *829:26 0.000181279
28 *1387:A *710:43 0
29 *1708:A *710:10 0
30 *1789:A0 *710:32 0
31 *1792:A1 *710:32 0
32 *1851:A0 *710:10 0
33 *1998:D *710:32 0
34 *2002:D *710:32 0
35 *2020:RESET_B *710:10 4.78524e-05
36 *2039:RESET_B *710:43 0.000758495
37 *2124:A *710:43 0
38 *2125:A *710:49 7.52158e-05
39 *2146:A *710:32 0
40 *15:8 *710:10 0
41 *205:14 *710:10 0.000340704
42 *283:10 *710:10 0
43 *285:14 *710:10 0
44 *460:8 *710:10 0
45 *476:8 *710:43 7.98097e-05
46 *476:69 *710:43 0
47 *517:46 *710:49 0.000128247
48 *517:52 *710:43 0.000597428
49 *517:67 *710:43 0
50 *547:35 *710:43 0
51 *557:42 *710:43 0
*RES
1 *1997:Q *710:10 47.3568 
2 *710:10 *1667:A1 40 
3 *1997:Q *710:26 42.6224 
4 *710:26 *710:32 30.0232 
5 *710:32 *2142:A 20 
6 *710:26 *710:43 41.3488 
7 *710:43 *710:49 40.7216 
8 *710:49 *1558:A1 20 
*END

*D_NET *711 0.0102327
*CONN
*I *2141:A I *D sg13g2_buf_1
*I *1550:A1 I *D sg13g2_a21oi_1
*I *1789:A1 I *D sg13g2_mux2_1
*I *1998:Q O *D sg13g2_dfrbpq_1
*CAP
1 *2141:A 0.00104846
2 *1550:A1 0
3 *1789:A1 0.000152782
4 *1998:Q 0.000117067
5 *711:33 0.00227182
6 *711:12 0.00291808
7 *711:10 0.00165901
8 *1789:A1 *722:66 2.24232e-05
9 *2141:A *734:10 0
10 *2141:A *921:56 0.000177501
11 *711:12 *722:66 0.000130055
12 *711:33 *718:32 0
13 *1387:A *711:33 0
14 *1535:B2 *2141:A 0
15 *1535:B2 *711:10 4.78192e-05
16 *1541:B2 *2141:A 0
17 *1550:A2 *711:33 0
18 *1789:A0 *711:33 0
19 *1851:A0 *711:33 0
20 *1856:A *711:33 0
21 *2039:RESET_B *711:33 0
22 *2039:D *711:33 8.02379e-05
23 *307:18 *711:33 0.000493763
24 *476:8 *711:33 0
25 *550:10 *711:10 4.78192e-05
26 *552:14 *2141:A 0.000404082
27 *557:42 *711:33 0.000436862
28 *558:10 *711:33 4.77425e-05
29 *701:48 *2141:A 0
30 *703:23 *2141:A 0
31 *710:32 *711:33 0.000177164
32 *710:43 *711:33 0
*RES
1 *1998:Q *711:10 40.9944 
2 *711:10 *711:12 4.312 
3 *711:12 *1789:A1 41.5664 
4 *711:12 *711:33 39.2104 
5 *711:33 *1550:A1 20 
6 *711:10 *2141:A 48.5888 
*END

*D_NET *726 0.00523472
*CONN
*I *2140:A I *D sg13g2_buf_1
*I *1710:Y O *D sg13g2_a21oi_1
*CAP
1 *2140:A 0
2 *1710:Y 0.00231127
3 *726:8 0.00231127
4 *726:8 *1669:A2 0
5 *726:8 *2021:CLK 0
6 *726:8 *2037:CLK 0
7 *726:8 *909:17 0
8 *726:8 *1122:8 0.00024211
9 intr_gpio_o[0] *726:8 0
10 *1710:A2 *726:8 0
11 *1710:B1 *726:8 8.02269e-05
12 *1996:RESET_B *726:8 0
13 *1997:D *726:8 0.000242105
14 *2000:D *726:8 0
15 *141:10 *726:8 0
16 *205:10 *726:8 0
17 *362:6 *726:8 0
18 *569:25 *726:8 0
19 *722:6 *726:8 0
20 *722:10 *726:8 0
21 *722:23 *726:8 0
22 *725:48 *726:8 4.77425e-05
*RES
1 *1710:Y *726:8 38.8672 
2 *726:8 *2140:A 20 
*END

*D_NET *727 0.00629833
*CONN
*I *2139:A I *D sg13g2_buf_1
*I *1718:Y O *D sg13g2_a21oi_1
*CAP
1 *2139:A 0
2 *1718:Y 0.00226738
3 *727:20 0.00226738
4 *727:20 intr_gpio_o[1] 0
5 *727:20 *1300:A 0
6 *727:20 *1303:S 0.000435793
7 *727:20 *1304:A 0
8 *727:20 *1668:B 0
9 *727:20 *1715:B1 0.000177339
10 *727:20 *1055:6 0
11 *727:20 *1125:10 0
12 *1306:B1 *727:20 0
13 *1364:B1 *727:20 4.77425e-05
14 *1668:A *727:20 0
15 *1715:A1 *727:20 0.000555889
16 *1716:B *727:20 0.000144726
17 *1717:B *727:20 0
18 *1718:A2 *727:20 0
19 *2044:D *727:20 0
20 *14:10 *727:20 4.76068e-05
21 *410:16 *727:20 0
22 *411:6 *727:20 0
23 *455:12 *727:20 4.78028e-05
24 *455:25 *727:20 0.00025892
25 *458:16 *727:20 0
26 *582:40 *727:20 0
27 *582:48 *727:20 4.77425e-05
28 *582:64 *727:20 0
*RES
1 *1718:Y *727:20 40.108 
2 *727:20 *2139:A 20 
*END

*D_NET *728 0.0065294
*CONN
*I *2138:A I *D sg13g2_buf_1
*I *1735:Y O *D sg13g2_a21oi_1
*CAP
1 *2138:A 0
2 *1735:Y 0
3 *728:14 0.00254999
4 *728:6 0.00254999
5 *728:14 *1453:A1 0
6 *728:14 *1457:A1 0
7 *728:14 *1844:A2 0
8 *728:14 *1845:B 0
9 *728:14 *1848:A2 0
10 *728:14 *1952:RESET_B 0
11 *728:14 *1955:CLK 0
12 *728:14 *829:12 0
13 *728:14 *829:48 0
14 *728:14 *911:42 0
15 *728:14 *1113:28 0
16 *728:14 *1118:8 0
17 *728:14 *1118:87 0
18 *728:14 *1124:46 0
19 *1405:A1 *728:14 0.00119387
20 *177:8 *728:14 0
21 *244:8 *728:14 0
22 *313:10 *728:14 0
23 *414:8 *728:14 0.000235556
24 *715:18 *728:14 0
*RES
1 *1735:Y *728:6 40 
2 *728:6 *728:14 45.7928 
3 *728:14 *2138:A 20 
*END

*D_NET *729 0.00587212
*CONN
*I *2136:A I *D sg13g2_buf_1
*I *1858:Y O *D sg13g2_a21oi_1
*CAP
1 *2136:A 0
2 *1858:Y 8.57879e-05
3 *729:18 0
4 *729:14 0.00235986
5 *729:10 0.00244565
6 *729:10 *830:18 0
7 *729:14 *837:16 0
8 *729:14 *1090:14 0
9 *729:14 *1106:90 0
10 *729:14 *1106:114 0
11 *1557:B2 *729:10 0.000127853
12 *1858:B1 *729:10 4.72443e-05
13 *387:53 *729:14 0.000805731
14 *573:14 *729:14 0
15 *712:28 *729:14 0
16 *718:72 *729:14 0
*RES
1 *1858:Y *729:10 40.7832 
2 *729:10 *729:14 44.2968 
3 *729:14 *729:18 40 
4 *729:18 *2136:A 20 
*END

*D_NET *1122 0.00669546
*CONN
*I *1792:S I *D sg13g2_mux2_1
*I *1671:A2 I *D sg13g2_a21oi_1
*I *1670:B I *D sg13g2_nor2_1
*I *1789:S I *D sg13g2_mux2_1
*I *1666:S I *D sg13g2_mux2_1
*I *1669:A2 I *D sg13g2_a21oi_1
*I *1668:B I *D sg13g2_nor2_1
*I *1665:S I *D sg13g2_mux2_1
*I *2254:X O *D sg13g2_buf_1
*CAP
1 *1792:S 0.000177734
2 *1671:A2 0
3 *1670:B 0
4 *1789:S 0.000275001
5 *1666:S 0
6 *1669:A2 0.000316923
7 *1668:B 2.84008e-05
8 *1665:S 0
9 *2254:X 0.000144055
10 *1122:82 0.000443998
11 *1122:59 0.000435641
12 *1122:57 0.000183561
13 *1122:55 0.000718429
14 *1122:31 0.000630622
15 *1122:20 7.77598e-05
16 *1122:14 0.000842722
17 *1122:8 0.00105296
18 *1665:A0 *1122:14 0
19 *1665:A0 *1122:20 0
20 *1666:A1 *1789:S 0
21 *1669:A1 *1669:A2 0.000112667
22 *1671:B1 *1122:82 0
23 *1789:A0 *1789:S 0
24 *1995:D *1792:S 0
25 *1996:RESET_B *1669:A2 0
26 *1998:D *1789:S 0
27 *141:10 *1122:14 0
28 *285:10 *1122:20 0
29 *285:14 *1789:S 0
30 *285:14 *1792:S 0
31 *285:14 *1122:57 3.23417e-05
32 *285:14 *1122:59 0.000274452
33 *285:14 *1122:82 0
34 *413:35 *1122:55 0
35 *701:16 *1122:14 0
36 *701:16 *1122:55 0
37 *702:16 *1122:14 0
38 *702:16 *1122:55 0
39 *710:32 *1122:82 0
40 *722:23 *1669:A2 7.52158e-05
41 *722:88 *1792:S 0.000274332
42 *722:88 *1122:82 1.5412e-05
43 *726:8 *1669:A2 0
44 *726:8 *1122:8 0.00024211
45 *727:20 *1668:B 0
46 *909:17 *1122:8 0
47 *909:23 *1122:55 0.00034112
48 *909:54 *1669:A2 0
49 *909:54 *1122:31 0
*RES
1 *2254:X *1122:8 41.3816 
2 *1122:8 *1122:14 24.3736 
3 *1122:14 *1122:20 40.5104 
4 *1122:20 *1665:S 20 
5 *1122:14 *1122:31 22.4728 
6 *1122:31 *1668:B 40.2728 
7 *1122:31 *1669:A2 42.8952 
8 *1122:8 *1122:55 24.312 
9 *1122:55 *1122:57 0.2728 
10 *1122:57 *1122:59 1.5664 
11 *1122:59 *1666:S 20 
12 *1122:59 *1789:S 22.4464 
13 *1122:57 *1670:B 20 
14 *1122:55 *1122:82 2.684 
15 *1122:82 *1671:A2 20 
16 *1122:82 *1792:S 21.5664 
*END

*D_NET *1130 0.00524777
*CONN
*I *1332:A1 I *D sg13g2_o21ai_1
*I *1321:A I *D sg13g2_nand2_1
*I *1331:A I *D sg13g2_nand2_1
*I *1322:A1 I *D sg13g2_o21ai_1
*I *1317:A1 I *D sg13g2_o21ai_1
*I *1316:A I *D sg13g2_nand2_1
*I *1326:A I *D sg13g2_nand2_1
*I *1311:A I *D sg13g2_nand2_1
*I *2262:X O *D sg13g2_buf_1
*CAP
1 *1332:A1 0
2 *1321:A 4.41405e-05
3 *1331:A 0.000117269
4 *1322:A1 0.000171019
5 *1317:A1 0
6 *1316:A 0
7 *1326:A 2.36489e-05
8 *1311:A 0.00016943
9 *2262:X 0.000339878
10 *1130:59 0.000288288
11 *1130:57 0.000247523
12 *1130:53 0.000769624
13 *1130:46 0.000172156
14 *1130:38 0.000766522
15 *1130:31 0.00022131
16 *1130:22 0.000387283
17 *1312:B1 *1311:A 0
18 *1316:B *1130:46 0.00012816
19 *1317:A2 *1130:46 1.53311e-05
20 *1322:A2 *1321:A 0
21 *1326:B *1130:22 0
22 *1326:B *1130:31 0
23 *1332:B1 *1331:A 4.77425e-05
24 *1332:B1 *1130:57 0
25 *1846:B1 *1311:A 0
26 *2029:D *1130:53 0
27 *6:8 *1322:A1 0.000236393
28 *6:8 *1331:A 0.000234224
29 *421:8 *1130:46 0.000287514
30 *721:82 *1130:31 0
31 *721:82 *1130:46 0
32 *721:82 *1130:53 0
33 *721:82 *1130:57 0
34 *721:90 *1321:A 8.00954e-05
35 *721:90 *1322:A1 0.000128068
36 *721:90 *1331:A 5.30319e-05
37 *721:90 *1130:57 4.77425e-05
38 *1098:35 *1130:31 0
39 *1098:35 *1130:38 0
40 *1098:44 *1130:38 0
41 *1098:44 *1130:53 0
42 *1124:71 *1311:A 0
43 *1124:71 *1326:A 0
44 *1124:86 *1130:22 0.000255971
45 *1124:86 *1130:31 1.54008e-05
*RES
1 *2262:X *1311:A 41.496 
2 *2262:X *1130:22 21.6808 
3 *1130:22 *1326:A 20.2992 
4 *1130:22 *1130:31 1.5664 
5 *1130:31 *1316:A 20 
6 *1130:31 *1130:38 0.2728 
7 *1130:38 *1130:46 42.0504 
8 *1130:46 *1317:A1 20 
9 *1130:38 *1130:53 5.0776 
10 *1130:53 *1130:57 1.7072 
11 *1130:57 *1130:59 20 
12 *1130:59 *1322:A1 42.024 
13 *1130:59 *1331:A 41.3904 
14 *1130:57 *1321:A 20.4576 
15 *1130:53 *1332:A1 20 
*END

*D_NET *1124 0.00516251
*CONN
*I *1327:A1 I *D sg13g2_o21ai_1
*I *2262:A I *D sg13g2_buf_1
*I *1312:A1 I *D sg13g2_o21ai_1
*I *1846:A1 I *D sg13g2_o21ai_1
*I *1845:A I *D sg13g2_nand2_1
*I *1850:A1 I *D sg13g2_o21ai_1
*I *1346:A I *D sg13g2_nand2_1
*I *1849:A I *D sg13g2_nand2_1
*I *2256:X O *D sg13g2_buf_1
*CAP
1 *1327:A1 0
2 *2262:A 0
3 *1312:A1 0
4 *1846:A1 0
5 *1845:A 0
6 *1850:A1 0
7 *1346:A 0.000397488
8 *1849:A 0
9 *2256:X 0.000350616
10 *1124:86 0.00025626
11 *1124:71 0.000510743
12 *1124:62 0.000544044
13 *1124:46 0.000212907
14 *1124:40 0.000641935
15 *1124:15 0.000443799
16 *1124:8 0.000257459
17 *1346:A *2256:A 0
18 *1124:8 *2256:A 0
19 *1124:15 *2256:A 0
20 *1124:71 *1311:A 0
21 *1124:71 *1326:A 0
22 *1124:86 *1130:22 0.000255971
23 *1124:86 *1130:31 1.54008e-05
24 *1312:B1 *1124:62 0.000128618
25 *1312:B1 *1124:71 0
26 *1327:A2 *1124:86 1.54008e-05
27 *1346:B *1346:A 1.54008e-05
28 *1347:B1 *1346:A 0
29 *1845:B *1124:40 0
30 *1846:A2 *1124:40 1.54008e-05
31 *1846:A2 *1124:62 0.000208747
32 *2035:D *1346:A 0
33 *2047:CLK *1346:A 0
34 *177:8 *1124:46 0.000342122
35 *721:82 *1124:62 0.000186186
36 *721:82 *1124:71 0.000364016
37 *728:14 *1124:46 0
38 *1098:10 *1124:46 0
39 *1098:35 *1124:86 0
40 *1119:60 *1346:A 0
*RES
1 *2256:X *1124:8 21.892 
2 *1124:8 *1849:A 20 
3 *1124:8 *1124:15 0.5104 
4 *1124:15 *1346:A 23.3088 
5 *1124:15 *1850:A1 20 
6 *2256:X *1124:40 21.1968 
7 *1124:40 *1124:46 41.9888 
8 *1124:46 *1845:A 20 
9 *1124:40 *1846:A1 20 
10 *1124:40 *1124:62 2.9568 
11 *1124:62 *1312:A1 20 
12 *1124:62 *1124:71 2.684 
13 *1124:71 *2262:A 20 
14 *1124:71 *1124:86 42.3496 
15 *1124:86 *1327:A1 20 
*END

*D_NET *1125 0.00861281
*CONN
*I *1357:B I *D sg13g2_nor2_1
*I *1369:B I *D sg13g2_nor2_1
*I *1838:A2 I *D sg13g2_a21oi_1
*I *1370:A2 I *D sg13g2_a21oi_1
*I *1837:B I *D sg13g2_nor2_1
*I *1364:A2 I *D sg13g2_a21oi_1
*I *1363:B I *D sg13g2_nor2_1
*I *2257:X O *D sg13g2_buf_1
*CAP
1 *1357:B 0
2 *1369:B 0.000232405
3 *1838:A2 0.000267751
4 *1370:A2 2.81025e-05
5 *1837:B 0.000258374
6 *1364:A2 0
7 *1363:B 0
8 *2257:X 0.000178829
9 *1125:59 0.000349069
10 *1125:42 0.000531935
11 *1125:38 0.00112099
12 *1125:29 0.000771709
13 *1125:20 0.000271901
14 *1125:16 0.000328696
15 *1125:10 0.000339096
16 *1125:10 *1170:12 0
17 *1125:20 *1170:12 0.000181192
18 *1299:A0 *1125:16 0
19 *1307:A0 *1837:B 0
20 *1358:B1 *1125:16 0.000112514
21 *1359:A *1125:38 0
22 *1359:A *1125:42 0.000341119
23 *1370:B1 *1837:B 4.77425e-05
24 *1708:A *1369:B 0.000497229
25 *1708:A *1125:42 0.00065789
26 *1708:A *1125:59 7.48178e-05
27 *1714:A *1125:16 0.000177335
28 *1717:B *1125:10 4.74145e-05
29 *1838:B1 *1838:A2 0
30 *1851:A0 *1838:A2 0.000306662
31 *2020:RESET_B *1370:A2 4.77425e-05
32 *2020:RESET_B *1837:B 8.00473e-05
33 *2020:RESET_B *1838:A2 0
34 *15:8 *1369:B 7.48209e-05
35 *205:14 *1125:38 0
36 *228:8 *1125:10 0
37 *285:14 *1369:B 4.77425e-05
38 *285:14 *1837:B 0.000177491
39 *349:27 *1125:38 0
40 *437:10 *1125:16 0
41 *455:8 *1125:29 7.51285e-05
42 *455:8 *1125:38 0.000319011
43 *459:10 *1125:20 2.20966e-05
44 *459:10 *1125:29 0.000106064
45 *460:8 *1838:A2 0.000179389
46 *460:8 *1125:59 5.15366e-05
47 *464:8 *1125:42 0.000128247
48 *710:10 *1369:B 0
49 *710:10 *1125:38 0
50 *727:20 *1125:10 0
51 *839:29 *1838:A2 0
52 *839:29 *1125:42 0
53 *839:29 *1125:59 0
54 *1106:94 *1125:10 0
55 *1113:77 *1125:10 0.000180726
56 *1113:109 *1125:16 0
*RES
1 *2257:X *1125:10 41.628 
2 *1125:10 *1125:16 21.496 
3 *1125:16 *1125:20 21.5664 
4 *1125:20 *1363:B 40 
5 *1125:20 *1125:29 1.144 
6 *1125:29 *1364:A2 40 
7 *1125:29 *1125:38 5.7904 
8 *1125:38 *1125:42 3.1064 
9 *1125:42 *1837:B 42.4376 
10 *1125:42 *1125:59 0.5104 
11 *1125:59 *1370:A2 40.2728 
12 *1125:59 *1838:A2 42.4728 
13 *1125:38 *1369:B 42.7456 
14 *1125:16 *1357:B 20 
*END

*D_NET *1123 0.0164897
*CONN
*I *2257:A I *D sg13g2_buf_1
*I *1337:A1 I *D sg13g2_o21ai_1
*I *1336:A I *D sg13g2_nand2_1
*I *1307:S I *D sg13g2_mux2_1
*I *1851:S I *D sg13g2_mux2_1
*I *1303:S I *D sg13g2_mux2_1
*I *1358:A2 I *D sg13g2_a21oi_1
*I *1299:S I *D sg13g2_mux2_1
*I *2255:X O *D sg13g2_buf_1
*CAP
1 *2257:A 6.14833e-05
2 *1337:A1 0.000360314
3 *1336:A 0
4 *1307:S 0
5 *1851:S 0
6 *1303:S 0.000265839
7 *1358:A2 0
8 *1299:S 0.000112547
9 *2255:X 0.000266831
10 *1123:92 0.00044641
11 *1123:83 0.000310759
12 *1123:71 0.000942514
13 *1123:55 0.00177099
14 *1123:40 0.00123187
15 *1123:36 0.00114171
16 *1123:27 0.00142187
17 *1123:10 0.00108324
18 *1299:A0 *1299:S 0
19 *1299:A0 *1123:27 0
20 *1307:A0 *1123:55 7.02827e-05
21 *1307:A1 *1123:71 1.54008e-05
22 *1336:B *1123:40 0
23 *1336:B *1123:83 0
24 *1353:A *1123:36 0
25 *1358:B1 *1123:36 0
26 *1358:B1 *1123:83 0
27 *1564:A2 *1123:55 0
28 *1569:C1 *1123:71 0.000162845
29 *1707:A1 *1123:71 0
30 *1707:A2 *1123:55 0
31 *1707:A2 *1123:71 0.000230583
32 *1717:A *1123:36 0.00027432
33 *1717:B *1303:S 0
34 *1717:B *1123:36 0
35 *1732:A2 *1299:S 0
36 *1733:A *1123:27 0.00059803
37 *1733:B *1123:27 0
38 *1851:A0 *1123:71 1.54008e-05
39 *2022:CLK *1123:36 0
40 *242:10 *1123:10 0
41 *242:10 *1123:27 0
42 *243:14 *1123:27 7.95529e-05
43 *362:12 *1123:55 0
44 *387:74 *1123:71 0
45 *436:12 *1337:A1 4.77863e-05
46 *437:10 *1337:A1 0.000714784
47 *573:20 *1123:71 9.66887e-05
48 *574:12 *1123:71 0
49 *716:34 *1123:10 0
50 *727:20 *1303:S 0.000435793
51 *824:10 *1123:71 5.18521e-05
52 *825:29 *1123:27 0
53 *825:29 *1123:36 0
54 *826:8 *1123:10 0
55 *826:35 *1123:10 0.00050124
56 *826:35 *1123:27 0.0001556
57 *827:12 *1337:A1 0
58 *827:12 *1123:40 0.000394258
59 *827:12 *1123:55 0.000746289
60 *827:31 *1123:55 0.000821544
61 *829:12 *1123:27 0
62 *842:33 *1123:55 0.000713351
63 *842:54 *1123:55 0.000287394
64 *843:25 *1123:55 0
65 *843:25 *1123:71 0
66 *914:14 *1337:A1 0
67 *1106:88 *1123:71 0
68 *1106:94 *1337:A1 0
69 *1113:77 *1337:A1 0
70 *1113:77 *2257:A 0
71 *1113:83 *1123:36 0.000176784
72 *1113:83 *1123:83 0.000435782
73 *1113:83 *1123:92 4.77863e-05
*RES
1 *2255:X *1123:10 42.4464 
2 *1123:10 *1299:S 40.8272 
3 *1123:10 *1123:27 26.6 
4 *1123:27 *1358:A2 20 
5 *1123:27 *1123:36 6.116 
6 *1123:36 *1123:40 21.5664 
7 *1123:40 *1303:S 42.4904 
8 *1123:40 *1123:55 29.548 
9 *1123:55 *1123:71 48.2808 
10 *1123:71 *1851:S 20 
11 *1123:55 *1307:S 20 
12 *1123:36 *1123:83 2.4904 
13 *1123:83 *1336:A 20 
14 *1123:83 *1123:92 20.2728 
15 *1123:92 *1337:A1 43.9512 
16 *1123:92 *2257:A 40.5104 
*END

*D_NET *1128 0.00978707
*CONN
*I *2255:A I *D sg13g2_buf_1
*I *1351:A I *D sg13g2_nand2_1
*I *1352:A1 I *D sg13g2_o21ai_1
*I *1341:A I *D sg13g2_nand2_1
*I *1347:A1 I *D sg13g2_o21ai_1
*I *2256:A I *D sg13g2_buf_1
*I *1342:A1 I *D sg13g2_o21ai_1
*I *2260:X O *D sg13g2_buf_1
*CAP
1 *2255:A 0.000730884
2 *1351:A 5.38854e-05
3 *1352:A1 5.31522e-05
4 *1341:A 3.46921e-05
5 *1347:A1 0
6 *2256:A 0.000556609
7 *1342:A1 0.000139495
8 *2260:X 0.000446096
9 *1128:39 0.00107356
10 *1128:24 0.00107614
11 *1128:22 0.000716455
12 *1128:16 0.000462533
13 *1128:12 0.000295552
14 *1128:10 0.00127134
15 *1341:B *1128:22 0.000159511
16 *1341:B *1128:24 0.000128662
17 *1346:A *2256:A 0
18 *1347:B1 *1128:39 0
19 *1347:A2 *1128:39 1.54118e-05
20 *1351:B *1352:A1 0
21 *1351:B *1128:22 0
22 *1352:B1 *1352:A1 0
23 *1705:S *1128:22 0
24 *2024:D *2255:A 4.79124e-05
25 *2025:CLK *2255:A 0
26 *2026:D *1128:39 4.78195e-05
27 *2047:RESET_B *1342:A1 0
28 *2047:RESET_B *2256:A 0
29 *2081:D *2255:A 0.000242423
30 *440:8 *1342:A1 7.51285e-05
31 *441:8 *1342:A1 0
32 *441:8 *1128:24 0
33 *448:12 *1342:A1 0
34 *448:12 *1352:A1 1.54008e-05
35 *449:8 *1128:16 0.000235141
36 *716:34 *2255:A 0
37 *721:70 *1128:39 0.000792817
38 *721:82 *2256:A 0
39 *721:82 *1128:39 0
40 *830:10 *2255:A 0.000145031
41 *830:44 *2256:A 8.00954e-05
42 *831:12 *1128:10 0
43 *831:12 *1128:16 0
44 *832:8 *2255:A 0
45 *833:8 *1128:22 0
46 *833:23 *1128:16 0
47 *833:23 *1128:22 0.00018211
48 *875:16 *1342:A1 0
49 *904:12 *2255:A 0
50 *910:33 *1128:10 0
51 *910:37 *1128:10 0
52 *910:37 *1128:12 0
53 *910:37 *1128:16 0
54 *910:37 *1128:22 0
55 *910:37 *1128:24 0
56 *910:48 *1128:39 0.000533503
57 *1115:44 *1128:10 0.000175721
58 *1124:8 *2256:A 0
59 *1124:15 *2256:A 0
*RES
1 *2260:X *1128:10 43.4232 
2 *1128:10 *1128:12 0.7216 
3 *1128:12 *1128:16 21.5664 
4 *1128:16 *1128:22 22.7368 
5 *1128:22 *1128:24 3.6784 
6 *1128:24 *1342:A1 41.2056 
7 *1128:24 *1128:39 25.0776 
8 *1128:39 *2256:A 24.6728 
9 *1128:39 *1347:A1 20 
10 *1128:22 *1341:A 40.2728 
11 *1128:16 *1352:A1 20.4576 
12 *1128:12 *1351:A 40.4576 
13 *1128:10 *2255:A 46.9256 
*END

*D_NET *933 0.00876789
*CONN
*I *1582:B1 I *D sg13g2_o21ai_1
*I *1594:B1 I *D sg13g2_o21ai_1
*I *1580:B1 I *D sg13g2_o21ai_1
*I *1584:B1 I *D sg13g2_o21ai_1
*I *1588:B1 I *D sg13g2_o21ai_1
*I *1598:B1 I *D sg13g2_o21ai_1
*I *1578:B1 I *D sg13g2_o21ai_1
*I *1596:B1 I *D sg13g2_o21ai_1
*I *2135:X O *D sg13g2_buf_1
*CAP
1 *1582:B1 0
2 *1594:B1 0
3 *1580:B1 0.000266732
4 *1584:B1 0.000124241
5 *1588:B1 0.000180454
6 *1598:B1 5.08995e-05
7 *1578:B1 5.39858e-05
8 *1596:B1 0
9 *2135:X 0.000368888
10 *933:70 0.000504111
11 *933:68 0.000368941
12 *933:62 0.000839514
13 *933:43 0.000966368
14 *933:32 0.000469334
15 *933:21 0.000670479
16 *933:12 0.000400262
17 *933:10 0.000368888
18 *1580:B1 *1102:42 0
19 *933:10 *1897:RESET_B 0
20 *933:10 *1021:10 0
21 *933:21 *2241:A 0
22 *933:21 *1107:54 0
23 *933:21 *1109:12 0
24 *933:32 *1107:54 0
25 *933:68 *1904:RESET_B 0
26 *933:70 *1593:A 0
27 *1578:A2 *1578:B1 8.03692e-05
28 *1584:A2 *1584:B1 4.77425e-05
29 *1588:A2 *1588:B1 0
30 *1588:A2 *933:43 0
31 *1594:A2 *933:68 0.000193509
32 *1594:A2 *933:70 1.54008e-05
33 *1896:D *1598:B1 8.0216e-05
34 *1896:D *933:32 0.000274765
35 *1898:D *933:68 8.02927e-05
36 *1898:D *933:70 1.54008e-05
37 *1903:D *1584:B1 1.54008e-05
38 *1904:D *933:62 0
39 *1904:D *933:68 0
40 *1906:D *1578:B1 1.54556e-05
41 *1906:D *933:32 0.000210026
42 *1906:D *933:62 0
43 *2131:A *933:10 0
44 *577:8 *933:43 0.00023464
45 *578:20 *933:10 0
46 *578:38 *933:10 0
47 *578:44 *933:10 0
48 *578:44 *933:62 0.00086673
49 *578:44 *933:68 1.54008e-05
50 *578:48 *933:68 0.00026428
51 *578:50 *1584:B1 8.00667e-05
52 *578:50 *933:70 0
53 *578:65 *1580:B1 4.78192e-05
54 *591:8 *933:10 0.000128248
55 *592:8 *933:43 0
56 *929:48 *1578:B1 1.54556e-05
57 *929:48 *933:21 0.000453572
*RES
1 *2135:X *933:10 43.1856 
2 *933:10 *933:12 20 
3 *933:12 *1596:B1 20 
4 *933:12 *933:21 3.9776 
5 *933:21 *1578:B1 20.4576 
6 *933:21 *933:32 2.4464 
7 *933:32 *1598:B1 20.4576 
8 *933:32 *933:43 21.7776 
9 *933:43 *1588:B1 41.6016 
10 *933:43 *933:62 25.6496 
11 *933:62 *933:68 2.7456 
12 *933:68 *933:70 1.012 
13 *933:70 *1584:B1 21.1528 
14 *933:70 *1580:B1 22.2088 
15 *933:68 *1594:B1 20 
16 *933:62 *1582:B1 20 
*END

*D_NET *930 0.0131718
*CONN
*I *1806:B1 I *D sg13g2_o21ai_1
*I *1485:B1 I *D sg13g2_o21ai_1
*I *1490:B1 I *D sg13g2_o21ai_1
*I *1488:B1 I *D sg13g2_o21ai_1
*I *1486:B1 I *D sg13g2_o21ai_1
*I *1487:B1 I *D sg13g2_o21ai_1
*I *1493:B1 I *D sg13g2_o21ai_1
*I *1495:B1 I *D sg13g2_o21ai_1
*I *2132:X O *D sg13g2_buf_1
*CAP
1 *1806:B1 0.000227908
2 *1485:B1 0
3 *1490:B1 0
4 *1488:B1 0
5 *1486:B1 6.16988e-05
6 *1487:B1 0.000630997
7 *1493:B1 6.27411e-05
8 *1495:B1 2.97531e-05
9 *2132:X 0.000323725
10 *930:82 0.000194282
11 *930:67 0.000591895
12 *930:52 0.00134898
13 *930:39 0.000855278
14 *930:33 0.000840852
15 *930:31 0.000660247
16 *930:16 0.000771637
17 *930:10 0.00106366
18 *1486:B1 *1213:A 0
19 *1487:B1 *1200:B 0.00018261
20 *1487:B1 *1487:A2 0.00122666
21 *1487:B1 *1126:47 0.000181192
22 *1493:B1 *1103:27 0
23 *1493:B1 *1103:36 0
24 *1493:B1 *1126:30 0
25 *1495:B1 *1928:CLK 0
26 *1806:B1 *1196:A 8.00842e-05
27 *1806:B1 *1138:8 1.54008e-05
28 *1806:B1 *1138:12 8.00842e-05
29 *930:10 *1859:B 0
30 *930:16 *1928:CLK 0
31 *930:16 *1126:26 0
32 *930:16 *1183:14 0
33 *930:31 *1495:A2 0
34 *930:33 *1196:A 0
35 *930:33 *1485:A2 4.77425e-05
36 *930:39 *1490:A2 0.000103517
37 *930:39 *1103:36 0
38 *930:39 *1126:30 0.000154216
39 *930:52 *1126:47 0.00037308
40 *930:52 *1145:80 0
41 *930:82 *1126:87 6.39133e-05
42 *1215:A1 *930:67 0
43 *1215:A2 *930:67 0.000240957
44 *1221:A1 *930:67 0
45 *1221:A2 *930:67 0
46 *1485:A1 *930:31 0.00012816
47 *1486:A1 *1486:B1 0
48 *1486:A1 *930:67 0
49 *1495:A1 *1495:B1 0
50 *1703:A *930:10 0
51 *1929:D *1493:B1 0
52 *1932:D *930:33 0.000306145
53 *1932:D *930:39 1.54556e-05
54 *1937:D *930:31 4.77425e-05
55 *1937:D *930:33 1.54008e-05
56 *2165:A *930:39 0.000241979
57 *81:10 *930:10 0
58 *81:10 *930:16 0
59 *82:10 *1495:B1 4.77425e-05
60 *82:10 *930:16 0.000306832
61 *322:8 *1806:B1 0
62 *324:12 *1806:B1 2.22695e-05
63 *324:12 *930:10 0.000501962
64 *324:12 *930:16 0
65 *325:14 *930:52 0
66 *331:8 *930:82 0.000235556
67 *334:10 *930:31 0.000552831
68 *335:12 *930:82 0
69 *339:12 *930:33 0
70 *506:14 *1487:B1 0
71 *507:44 *930:82 0.000288917
72 *520:39 *1487:B1 0
73 *520:54 *930:52 0
74 *757:12 *930:39 4.77299e-05
*RES
1 *2132:X *930:10 43.5552 
2 *930:10 *930:16 24.796 
3 *930:16 *1495:B1 20.2728 
4 *930:16 *930:31 42.4728 
5 *930:31 *930:33 3.4144 
6 *930:33 *930:39 3.8016 
7 *930:39 *1493:B1 20.5104 
8 *930:39 *930:52 23.2912 
9 *930:52 *1487:B1 46.1952 
10 *930:52 *930:67 22.6752 
11 *930:67 *1486:B1 20.4576 
12 *930:67 *930:82 42.1428 
13 *930:82 *1488:B1 20 
14 *930:33 *1490:B1 20 
15 *930:31 *1485:B1 20 
16 *930:10 *1806:B1 42.024 
*END

*D_NET *929 0.010089
*CONN
*I *1590:A2 I *D sg13g2_o21ai_1
*I *1804:A2 I *D sg13g2_o21ai_1
*I *1802:A2 I *D sg13g2_o21ai_1
*I *1578:A2 I *D sg13g2_o21ai_1
*I *1598:A2 I *D sg13g2_o21ai_1
*I *1588:A2 I *D sg13g2_o21ai_1
*I *1596:A2 I *D sg13g2_o21ai_1
*I *1586:A2 I *D sg13g2_o21ai_1
*I *2131:X O *D sg13g2_buf_1
*CAP
1 *1590:A2 0.000442066
2 *1804:A2 0
3 *1802:A2 6.41397e-05
4 *1578:A2 2.45336e-05
5 *1598:A2 0.00011059
6 *1588:A2 0.000347905
7 *1596:A2 0.000120238
8 *1586:A2 5.21061e-05
9 *2131:X 0.000250043
10 *929:100 0.000564223
11 *929:54 0.000763354
12 *929:48 0.000588376
13 *929:33 0.000619541
14 *929:27 0.000734889
15 *929:21 0.000624291
16 *929:10 0.000373853
17 *1578:A2 *1578:B1 8.03692e-05
18 *1588:A2 *1588:B1 0
19 *1588:A2 *933:43 0
20 *1590:A2 *1105:23 0
21 *1590:A2 *1109:29 0
22 *1590:A2 *1140:30 0
23 *929:10 *1897:CLK 0
24 *929:27 *1897:CLK 0.000533842
25 *929:27 *1109:12 0.000101407
26 *929:27 *1109:29 0.000662747
27 *929:33 *1109:12 0.000112651
28 *929:48 *1578:B1 1.54556e-05
29 *929:48 *933:21 0.000453572
30 *929:100 *1109:29 0
31 *1578:A1 *1578:A2 1.54556e-05
32 *1578:A1 *929:54 0.000242423
33 *1586:A1 *1586:A2 4.77425e-05
34 *1588:A1 *1588:A2 1.54556e-05
35 *1596:A1 *1596:A2 4.77425e-05
36 *1802:B1 *1590:A2 1.54008e-05
37 *1802:B1 *1802:A2 8.02927e-05
38 *1802:B1 *929:27 0
39 *1802:B1 *929:100 8.00842e-05
40 *1867:D *1802:A2 0
41 *1867:D *929:27 0
42 *1867:D *929:33 0
43 *1906:D *929:54 0
44 *108:10 *1588:A2 1.54008e-05
45 *112:10 *929:27 0
46 *578:44 *1596:A2 0
47 *578:44 *929:48 0
48 *578:44 *929:54 0
49 *581:19 *929:10 0
50 *581:34 *1590:A2 3.23417e-05
51 *581:58 *1590:A2 0.00050103
52 *586:8 *929:10 7.52149e-05
53 *586:8 *929:21 0.00023464
54 *586:8 *929:100 0.00023464
55 *591:8 *1596:A2 0.000235055
56 *591:8 *929:33 0.00050063
57 *592:8 *1598:A2 7.52158e-05
*RES
1 *2131:X *929:10 42.1824 
2 *929:10 *1586:A2 40.4576 
3 *929:10 *929:21 0.9328 
4 *929:21 *929:27 24.4528 
5 *929:27 *929:33 22.816 
6 *929:33 *1596:A2 41.3904 
7 *929:33 *929:48 22.6752 
8 *929:48 *929:54 22.816 
9 *929:54 *1588:A2 42.992 
10 *929:54 *1598:A2 40.9328 
11 *929:48 *1578:A2 20.4576 
12 *929:27 *1802:A2 20.968 
13 *929:21 *929:100 21.3904 
14 *929:100 *1804:A2 20 
15 *929:100 *1590:A2 24.224 
*END

*D_NET *1132 0.00848487
*CONN
*I *1592:A2 I *D sg13g2_o21ai_1
*I *1607:B I *D sg13g2_nor2_1
*I *1610:A2 I *D sg13g2_a21oi_1
*I *1609:B I *D sg13g2_nor2_1
*I *1608:A2 I *D sg13g2_a21oi_1
*I *1601:B I *D sg13g2_nor2_1
*I *1602:A2 I *D sg13g2_a21oi_1
*I *2264:X O *D sg13g2_buf_1
*CAP
1 *1592:A2 0.000195627
2 *1607:B 6.72361e-05
3 *1610:A2 0
4 *1609:B 0
5 *1608:A2 0
6 *1601:B 0
7 *1602:A2 2.77263e-05
8 *2264:X 0.000130358
9 *1132:55 7.29205e-05
10 *1132:49 0.000944418
11 *1132:45 0.00100031
12 *1132:36 0.000968269
13 *1132:25 0.00109721
14 *1132:12 0.000658527
15 *1132:8 0.000766276
16 *1132:49 *1148:67 0
17 axi_lite_o[19] *1607:B 0
18 *1592:B1 *1592:A2 1.54008e-05
19 *1602:A1 *1132:12 0
20 *1608:A1 *1132:36 0
21 *1610:A1 *1132:49 0.000112689
22 *1711:A1 *1132:55 0
23 *1894:D *1132:12 0
24 *1894:CLK *1132:36 0.000598187
25 *110:10 *1592:A2 0.000130055
26 *110:10 *1132:8 0.000291791
27 *515:8 *1132:36 0
28 *515:8 *1132:45 0
29 *522:12 *1132:36 0
30 *531:10 *1132:36 0
31 *594:8 *1132:25 0.00050063
32 *597:8 *1607:B 0.00018128
33 *597:8 *1132:36 0.00018128
34 *597:8 *1132:45 0.00023547
35 *598:8 *1132:55 0.00018128
36 *669:12 *1132:49 0
37 *695:12 *1607:B 0
38 *696:12 *1132:55 0
39 *923:54 *1132:49 0
40 *959:14 *1132:49 0
41 *962:14 *1132:25 0
42 *999:23 *1132:36 0
43 *1101:18 *1132:12 0
44 *1101:24 *1592:A2 0
45 *1101:24 *1132:12 8.00842e-05
46 *1108:21 *1132:49 0
47 *1108:34 *1132:49 0
48 *1109:29 *1592:A2 0
49 *1109:29 *1132:12 0
50 *1109:37 *1132:12 0
51 *1109:81 *1132:12 4.78524e-05
*RES
1 *2264:X *1132:8 41.5664 
2 *1132:8 *1132:12 23.784 
3 *1132:12 *1602:A2 20.2992 
4 *1132:12 *1132:25 42.2 
5 *1132:25 *1601:B 20 
6 *1132:25 *1132:36 28.7824 
7 *1132:36 *1608:A2 40 
8 *1132:36 *1132:45 0.9328 
9 *1132:45 *1132:49 26.7408 
10 *1132:49 *1132:55 40.9328 
11 *1132:55 *1609:B 20 
12 *1132:49 *1610:A2 20 
13 *1132:45 *1607:B 40.9328 
14 *1132:8 *1592:A2 41.7072 
*END

*D_NET *1133 0.0106823
*CONN
*I *1621:B I *D sg13g2_nor2_1
*I *1637:A2 I *D sg13g2_a21oi_1
*I *1636:B I *D sg13g2_nor2_1
*I *1627:B I *D sg13g2_nor2_1
*I *1628:A2 I *D sg13g2_a21oi_1
*I *1629:B I *D sg13g2_nor2_1
*I *1630:A2 I *D sg13g2_a21oi_1
*I *1622:A2 I *D sg13g2_a21oi_1
*I *2265:X O *D sg13g2_buf_1
*CAP
1 *1621:B 0.000286521
2 *1637:A2 0
3 *1636:B 0
4 *1627:B 0
5 *1628:A2 0
6 *1629:B 0
7 *1630:A2 0.000140195
8 *1622:A2 0
9 *2265:X 0
10 *1133:72 0.000695223
11 *1133:59 0.00135684
12 *1133:50 0.000739943
13 *1133:39 0.000711229
14 *1133:28 0.000704469
15 *1133:15 0.000736141
16 *1133:6 0.00086477
17 *1133:4 0.000626907
18 *1621:B *1148:14 8.01283e-05
19 *1133:15 *1137:69 0
20 *1133:39 *1137:69 0
21 *1133:39 *1137:80 0
22 *1133:39 *1137:91 0
23 *1133:39 *1148:90 0
24 axi_lite_o[7] *1133:72 0
25 *1621:A *1621:B 8.03585e-05
26 *1627:A *1133:59 0
27 *1628:A1 *1133:39 0.000181608
28 *1628:B1 *1133:39 1.54008e-05
29 *1629:A *1133:15 7.98619e-05
30 *1629:A *1133:28 0
31 *1701:S *1133:59 0
32 *1880:CLK *1133:39 0.000274397
33 *1881:D *1133:59 0
34 *1881:D *1133:72 0
35 *1884:RESET_B *1621:B 0
36 *1884:RESET_B *1133:6 0
37 *1884:D *1133:6 0.000134844
38 *1911:CLK *1133:15 0
39 *1915:D *1133:15 0.000175581
40 *183:8 *1133:39 0.00018128
41 *183:8 *1133:50 0.000181608
42 *184:8 *1630:A2 0.00044743
43 *184:8 *1133:28 0.000127867
44 *407:49 *1133:59 0
45 *694:14 *1133:72 0
46 *712:14 *1133:72 0
47 *912:14 *1133:6 0.000240943
48 *912:14 *1133:15 0.000304517
49 *912:20 *1133:15 0.000304802
50 *912:35 *1133:15 7.98201e-05
51 *912:95 *1133:72 0.000929584
52 *924:38 *1133:72 0
53 *979:8 *1133:72 0
*RES
1 *2265:X *1133:4 20 
2 *1133:4 *1133:6 3.0448 
3 *1133:6 *1622:A2 20 
4 *1133:6 *1133:15 24.8928 
5 *1133:15 *1630:A2 41.7776 
6 *1133:15 *1133:28 20.7216 
7 *1133:28 *1629:B 20 
8 *1133:28 *1133:39 26.1952 
9 *1133:39 *1628:A2 40 
10 *1133:39 *1133:50 20.9328 
11 *1133:50 *1627:B 20 
12 *1133:50 *1133:59 5.192 
13 *1133:59 *1636:B 20 
14 *1133:59 *1133:72 46.8816 
15 *1133:72 *1637:A2 20 
16 *1133:4 *1621:B 23.1504 
*END

*D_NET *1131 0.0076661
*CONN
*I *1613:B I *D sg13g2_nor2_1
*I *1614:A2 I *D sg13g2_a21oi_1
*I *1618:A2 I *D sg13g2_a21oi_1
*I *1611:B I *D sg13g2_nor2_1
*I *1615:B I *D sg13g2_nor2_1
*I *1616:A2 I *D sg13g2_a21oi_1
*I *1617:B I *D sg13g2_nor2_1
*I *2263:X O *D sg13g2_buf_1
*CAP
1 *1613:B 6.2344e-05
2 *1614:A2 0
3 *1618:A2 0.000109428
4 *1611:B 0.000592732
5 *1615:B 0.000244933
6 *1616:A2 6.18137e-05
7 *1617:B 4.62282e-05
8 *2263:X 0
9 *1131:73 0.000638405
10 *1131:47 0.00094883
11 *1131:23 0.000610633
12 *1131:12 0.000409782
13 *1131:10 0.00116435
14 *1131:4 0.00143407
15 *1611:B *1148:59 0
16 *1615:B *2096:A 0
17 *1616:A2 *1148:67 0
18 *1131:10 *2119:A 0
19 *1131:73 *2263:A 0
20 *1524:A2 *1131:10 0
21 *1527:A1 *1618:A2 0
22 *1613:A *1613:B 0.000128663
23 *1615:A *1615:B 0.000128662
24 *1914:CLK *1131:10 0
25 *1914:CLK *1131:73 0
26 *1919:D *1131:10 0
27 *1920:CLK *1611:B 0
28 *515:57 *1615:B 1.54556e-05
29 *515:61 *1615:B 0
30 *522:46 *1611:B 0
31 *536:10 *1611:B 0
32 *540:8 *1615:B 0.000212543
33 *540:8 *1131:23 0.000501045
34 *541:14 *1618:A2 1.54008e-05
35 *600:8 *1613:B 0.000159598
36 *600:8 *1131:73 0.000181192
37 *601:8 *1615:B 0
38 *602:8 *1131:47 0
39 *662:12 *1131:73 0
40 *666:8 *1611:B 0
41 *666:8 *1131:23 0
42 *666:8 *1131:47 0
43 *723:12 *1131:10 0
44 *723:12 *1131:12 0
45 *723:12 *1131:23 0
46 *723:70 *1131:10 0
47 *723:85 *1131:10 0
48 *773:12 *1613:B 0
49 *773:12 *1131:73 0
50 *954:16 *1131:23 0
51 *957:8 *1611:B 0
52 *957:16 *1611:B 0
53 *993:8 *1611:B 0
54 *1016:20 *1131:73 0
55 *1108:90 *1615:B 0
*RES
1 *2263:X *1131:4 20 
2 *1131:4 *1131:10 7.7088 
3 *1131:10 *1131:12 0.6424 
4 *1131:12 *1617:B 20.4576 
5 *1131:12 *1131:23 23.256 
6 *1131:23 *1616:A2 40.4576 
7 *1131:23 *1615:B 42.6576 
8 *1131:10 *1131:47 22.2 
9 *1131:47 *1611:B 44.6904 
10 *1131:47 *1618:A2 41.012 
11 *1131:4 *1131:73 26.0104 
12 *1131:73 *1614:A2 40 
13 *1131:73 *1613:B 40.9328 
*END

*D_NET *1134 0.00789887
*CONN
*I *1623:B I *D sg13g2_nor2_1
*I *2263:A I *D sg13g2_buf_1
*I *1624:A2 I *D sg13g2_a21oi_1
*I *1625:B I *D sg13g2_nor2_1
*I *1626:A2 I *D sg13g2_a21oi_1
*I *1619:B I *D sg13g2_nor2_1
*I *1620:A2 I *D sg13g2_a21oi_1
*I *1612:A2 I *D sg13g2_a21oi_1
*I *2266:X O *D sg13g2_buf_1
*CAP
1 *1623:B 0.000110451
2 *2263:A 0.000176797
3 *1624:A2 2.78153e-05
4 *1625:B 0
5 *1626:A2 0
6 *1619:B 2.84059e-05
7 *1620:A2 0
8 *1612:A2 5.43929e-05
9 *2266:X 0.000220452
10 *1134:82 0.000328076
11 *1134:71 0.000896735
12 *1134:64 0.000149289
13 *1134:47 0.000381322
14 *1134:43 0.00147475
15 *1134:30 0.000730062
16 *1134:21 0.000623292
17 *1134:8 0.000611108
18 *1134:21 *1135:12 0
19 *1134:43 *1135:79 0
20 *1134:47 *1540:A2 0
21 *1134:47 *1135:79 0
22 *1530:A1 *1134:21 0
23 *1530:A1 *1134:30 0
24 *1536:A *1623:B 0.000287672
25 *1536:A *1134:71 0.000393082
26 *1536:A *1134:82 0.00012816
27 *1540:A1 *1134:64 7.61954e-05
28 *1612:A1 *1612:A2 1.54008e-05
29 *1619:A *1619:B 0
30 *1619:A *1134:30 0
31 *1620:A1 *1134:21 1.54446e-05
32 *1620:A1 *1134:30 3.23417e-05
33 *1620:B1 *1134:30 0
34 *1624:A1 *1624:A2 4.77425e-05
35 *1624:A1 *2263:A 0
36 *1625:A *1134:43 0
37 *1625:A *1134:71 0
38 *1626:B1 *1134:47 0
39 *1626:B1 *1134:64 0
40 *1685:A0 *1134:71 0
41 *1885:D *1134:30 0
42 *1913:D *1134:47 0
43 *1916:D *1134:30 0
44 *1916:D *1134:43 0
45 *2267:A *1612:A2 0.000112552
46 *2267:A *1134:8 0
47 *2267:A *1134:21 0.000209856
48 *407:26 *1134:8 0
49 *548:12 *1134:64 0.000346756
50 *550:12 *1134:64 0.00029205
51 *661:12 *1619:B 0
52 *661:12 *1134:43 0
53 *699:8 *1134:71 0
54 *724:40 *1134:71 0
55 *986:14 *1134:71 0
56 *1016:20 *1623:B 0.000128663
57 *1016:20 *2263:A 0
58 *1110:12 *1134:21 0
59 *1131:73 *2263:A 0
*RES
1 *2266:X *1134:8 22.2616 
2 *1134:8 *1612:A2 20.6424 
3 *1134:8 *1134:21 3.4584 
4 *1134:21 *1620:A2 20 
5 *1134:21 *1134:30 2.684 
6 *1134:30 *1619:B 20.2728 
7 *1134:30 *1134:43 23.9776 
8 *1134:43 *1134:47 22.1208 
9 *1134:47 *1626:A2 20 
10 *1134:47 *1134:64 42.2 
11 *1134:64 *1625:B 20 
12 *1134:43 *1134:71 8.9584 
13 *1134:71 *1624:A2 40.2728 
14 *1134:71 *1134:82 0.5104 
15 *1134:82 *2263:A 41.5664 
16 *1134:82 *1623:B 41.4168 
*END

*D_NET *1127 0.00940963
*CONN
*I *1631:A I *D sg13g2_inv_1
*I *1634:B I *D sg13g2_nor2_1
*I *2266:A I *D sg13g2_buf_1
*I *2265:A I *D sg13g2_buf_1
*I *1635:A2 I *D sg13g2_a21oi_1
*I *1605:B I *D sg13g2_nor2_1
*I *1606:A2 I *D sg13g2_a21oi_1
*I *2259:X O *D sg13g2_buf_1
*CAP
1 *1631:A 0.000435881
2 *1634:B 0
3 *2266:A 0
4 *2265:A 2.9025e-05
5 *1635:A2 6.96116e-05
6 *1605:B 0
7 *1606:A2 0.000139373
8 *2259:X 0.000137557
9 *1127:64 0.000521568
10 *1127:51 0.000906716
11 *1127:38 0.000518144
12 *1127:34 0.0012127
13 *1127:12 0.000329567
14 *1127:10 0.00167882
15 *1127:6 0.00094178
16 *1127:34 *1137:12 0
17 *1127:51 *1137:12 0.000562293
18 *1127:64 *1137:12 7.48842e-05
19 *1127:64 *1148:48 0
20 *1209:A1 *1631:A 0
21 *1565:B *1127:34 0
22 *1605:A *1606:A2 0
23 *1605:A *1127:10 0
24 *1605:A *1127:12 0
25 *1621:A *1127:64 0
26 *1633:S *1631:A 0
27 *1884:CLK *1127:64 0.000553541
28 *1908:RESET_B *1127:51 0
29 *1908:CLK *1127:34 0
30 *2115:A *1127:51 0
31 *186:8 *1635:A2 0.000235075
32 *186:8 *1127:38 0.000266236
33 *206:23 *1127:34 0
34 *407:18 *1127:34 0
35 *527:8 *1606:A2 0
36 *527:8 *1127:10 0
37 *527:8 *1127:12 0
38 *535:12 *1127:64 0
39 *541:14 *1127:38 0
40 *567:18 *1127:10 0
41 *571:18 *1127:51 0
42 *596:8 *1606:A2 0.000395569
43 *669:12 *1127:10 0
44 *718:103 *1127:64 0.000127744
45 *931:6 *1127:6 0
46 *931:12 *1631:A 0
47 *932:12 *1631:A 0.000144878
48 *932:27 *1127:34 0
49 *960:8 *1127:6 0
50 *974:23 *1127:38 0.000128663
51 *980:12 *1127:38 0
*RES
1 *2259:X *1127:6 21.1968 
2 *1127:6 *1127:10 23.0448 
3 *1127:10 *1127:12 1.5664 
4 *1127:12 *1606:A2 41.7776 
5 *1127:12 *1605:B 40 
6 *1127:10 *1127:34 29.5216 
7 *1127:34 *1127:38 21.3552 
8 *1127:38 *1635:A2 40.9328 
9 *1127:38 *1127:51 23.2296 
10 *1127:51 *2265:A 20.2992 
11 *1127:51 *1127:64 45.1568 
12 *1127:64 *2266:A 20 
13 *1127:34 *1634:B 20 
14 *1127:6 *1631:A 23.8016 
*END

*D_NET *1129 0.00601277
*CONN
*I *1599:B I *D sg13g2_nor2_1
*I *1600:A2 I *D sg13g2_a21oi_1
*I *2264:A I *D sg13g2_buf_1
*I *2259:A I *D sg13g2_buf_1
*I *1603:B I *D sg13g2_nor2_1
*I *1604:A2 I *D sg13g2_a21oi_1
*I *2261:X O *D sg13g2_buf_1
*CAP
1 *1599:B 0.000124907
2 *1600:A2 4.17237e-05
3 *2264:A 0.000743244
4 *2259:A 0.00065106
5 *1603:B 0
6 *1604:A2 0
7 *2261:X 0.000401876
8 *1129:28 6.53311e-05
9 *1129:22 0.000975453
10 *1129:14 0.0013887
11 *1129:8 0.000534126
12 *1129:6 0.000632795
13 *1129:6 *1895:CLK 0
14 *1129:14 *1926:CLK 0
15 *1206:S *2259:A 0
16 *1499:A *1599:B 0
17 *1893:CLK *2259:A 0
18 *1893:CLK *1129:22 0
19 *1895:RESET_B *1129:6 0
20 *1895:D *1129:14 0
21 *2133:A *2259:A 0
22 *407:14 *2259:A 0
23 *523:16 *1600:A2 0
24 *523:16 *2259:A 0
25 *523:16 *1129:14 0
26 *523:16 *1129:22 0
27 *527:12 *2259:A 0
28 *595:8 *1129:28 0.000181279
29 *671:12 *2264:A 0
30 *961:8 *2264:A 0
31 *961:20 *1129:22 0
32 *961:20 *1129:28 0.00012816
33 *998:8 *2259:A 0.000144119
34 *1101:32 *1129:14 0
35 *1101:43 *1129:14 0
36 *1109:29 *2264:A 0
37 *1109:37 *2264:A 0
*RES
1 *2261:X *1129:6 23.4144 
2 *1129:6 *1129:8 1.144 
3 *1129:8 *1129:14 23.344 
4 *1129:14 *1129:22 22.376 
5 *1129:22 *1129:28 40.9328 
6 *1129:28 *1604:A2 20 
7 *1129:22 *1603:B 20 
8 *1129:22 *2259:A 25.676 
9 *1129:14 *2264:A 47.1192 
10 *1129:8 *1600:A2 20.4576 
11 *1129:6 *1599:B 21.3904 
*END

*D_NET *928 0.00871579
*CONN
*I *1528:A2 I *D sg13g2_a21oi_1
*I *1519:A2 I *D sg13g2_a21oi_1
*I *1516:A2 I *D sg13g2_a21oi_1
*I *1525:A2 I *D sg13g2_a21oi_1
*I *1522:A2 I *D sg13g2_a21oi_1
*I *1507:A2 I *D sg13g2_a21oi_1
*I *1513:A2 I *D sg13g2_a21oi_1
*I *1510:A2 I *D sg13g2_a21oi_1
*I *2130:X O *D sg13g2_buf_1
*CAP
1 *1528:A2 4.68241e-05
2 *1519:A2 0
3 *1516:A2 0
4 *1525:A2 2.77263e-05
5 *1522:A2 0
6 *1507:A2 0.000317999
7 *1513:A2 7.50219e-05
8 *1510:A2 0.000356503
9 *2130:X 0.000485921
10 *928:87 0.000272107
11 *928:79 0.000906283
12 *928:68 0.000796151
13 *928:59 0.000527082
14 *928:50 0.000741889
15 *928:35 0.000856162
16 *928:24 0.00029127
17 *1507:A2 *1136:22 0
18 *1507:A2 *1136:37 0
19 *1510:A2 *1504:A2 0
20 *1510:A2 *1136:22 0.000145052
21 *928:24 *1136:37 0
22 *928:68 *1136:37 0
23 *928:79 *988:18 0.000208077
24 *1507:A1 *1507:A2 8.11419e-06
25 *1507:A1 *1510:A2 0
26 *1509:B1 *1507:A2 0
27 *1519:A1 *928:87 8.08542e-06
28 *1522:A1 *928:50 0.000565459
29 *1522:B1 *928:59 0
30 *1525:B1 *928:59 0
31 *1528:B1 *928:87 0
32 *1533:B1 *928:79 0
33 *1606:A1 *1507:A2 0
34 *1606:B1 *1507:A2 0
35 *1877:D *928:68 0
36 *1908:RESET_B *928:50 0
37 *1908:RESET_B *928:68 0
38 *1908:RESET_B *928:79 0
39 *1923:D *1507:A2 0
40 *2115:A *928:79 0
41 *2268:A *1510:A2 0
42 *476:23 *928:79 0
43 *529:10 *1507:A2 0
44 *529:10 *1510:A2 0.000145052
45 *533:12 *928:35 0
46 *533:12 *928:50 0
47 *537:12 *928:87 0.000553097
48 *541:8 *928:68 0
49 *545:10 *928:87 0
50 *547:35 *928:87 0
51 *575:14 *928:79 0
52 *826:43 *1513:A2 0.000181192
53 *826:43 *928:35 0.000235055
54 *826:43 *928:50 0.00018193
55 *830:31 *1510:A2 0.000209637
56 *840:25 *928:87 7.27688e-05
57 *843:25 *1528:A2 6.46834e-05
58 *843:25 *928:79 0.000436648
59 *921:18 *928:68 0
60 *921:77 *928:87 0
61 *922:12 *1510:A2 0
*RES
1 *2130:X *1510:A2 43.4584 
2 *2130:X *928:24 41.1968 
3 *928:24 *1513:A2 40.7216 
4 *928:24 *928:35 0.9328 
5 *928:35 *1507:A2 43.3726 
6 *928:35 *928:50 24.3472 
7 *928:50 *1522:A2 20 
8 *928:50 *928:59 2.6576 
9 *928:59 *1525:A2 20.2992 
10 *928:59 *928:68 1.5664 
11 *928:68 *1516:A2 20 
12 *928:68 *928:79 5.7024 
13 *928:79 *928:87 42.6158 
14 *928:87 *1519:A2 20 
15 *928:79 *1528:A2 20.4576 
*END

*D_NET *1136 0.0108762
*CONN
*I *1538:A2 I *D sg13g2_a221oi_1
*I *1535:A2 I *D sg13g2_a221oi_1
*I *1544:A2 I *D sg13g2_a221oi_1
*I *1541:A2 I *D sg13g2_a221oi_1
*I *1531:A2 I *D sg13g2_a21oi_1
*I *2130:A I *D sg13g2_buf_1
*I *1504:A2 I *D sg13g2_a21oi_1
*I *2268:X O *D sg13g2_buf_1
*CAP
1 *1538:A2 0.000385931
2 *1535:A2 0
3 *1544:A2 0.000193981
4 *1541:A2 8.39506e-05
5 *1531:A2 0
6 *2130:A 0
7 *1504:A2 0.000214569
8 *2268:X 0.000365857
9 *1136:84 0.00055978
10 *1136:50 0.000423948
11 *1136:46 0.000901108
12 *1136:37 0.00222489
13 *1136:22 0.00179493
14 *1507:A1 *1504:A2 0.000232031
15 *1507:A2 *1136:22 0
16 *1507:A2 *1136:37 0
17 *1510:A2 *1504:A2 0
18 *1510:A2 *1136:22 0.000145052
19 *1513:A1 *1136:37 0
20 *1522:A1 *1136:37 0
21 *1522:B1 *1136:37 0
22 *1525:B1 *1136:37 0.000176633
23 *1535:A1 *1541:A2 0
24 *1535:A1 *1136:84 4.78524e-05
25 *1538:B1 *1538:A2 0
26 *541:8 *1136:37 0
27 *547:35 *1544:A2 0
28 *547:35 *1136:37 0
29 *547:35 *1136:46 0
30 *547:46 *1541:A2 4.79124e-05
31 *547:46 *1544:A2 0
32 *554:8 *1136:50 0
33 *575:14 *1136:37 0.000824439
34 *575:14 *1136:46 0.00105098
35 *575:22 *1538:A2 0.000575663
36 *575:22 *1136:84 0.000210364
37 *825:54 *1136:37 0.000175959
38 *832:46 *1504:A2 1.54556e-05
39 *839:29 *1541:A2 0
40 *840:25 *1136:37 1.54008e-05
41 *840:25 *1136:46 0
42 *842:54 *1136:37 0.000209544
43 *921:18 *1136:37 0
44 *921:56 *1544:A2 0
45 *922:12 *1136:22 0
46 *922:12 *1136:37 0
47 *928:24 *1136:37 0
48 *928:68 *1136:37 0
*RES
1 *2268:X *1504:A2 42.1296 
2 *2268:X *1136:22 21.496 
3 *1136:22 *2130:A 20 
4 *1136:22 *1136:37 14.9864 
5 *1136:37 *1531:A2 20 
6 *1136:37 *1136:46 26.1864 
7 *1136:46 *1136:50 21.144 
8 *1136:50 *1541:A2 20.8888 
9 *1136:50 *1544:A2 21.8678 
10 *1136:46 *1136:84 21.6478 
11 *1136:84 *1535:A2 20 
12 *1136:84 *1538:A2 23.9908 
*END

*D_NET *922 0.00437768
*CONN
*I *1513:B1 I *D sg13g2_a21oi_1
*I *1510:B1 I *D sg13g2_a21oi_1
*I *1498:B1 I *D sg13g2_a21oi_1
*I *1504:B1 I *D sg13g2_a21oi_1
*I *1501:B1 I *D sg13g2_a21oi_1
*I *1507:B1 I *D sg13g2_a21oi_1
*I *2125:X O *D sg13g2_buf_1
*CAP
1 *1513:B1 0.000137756
2 *1510:B1 0
3 *1498:B1 0.000250207
4 *1504:B1 0.000110517
5 *1501:B1 0.000385726
6 *1507:B1 0
7 *2125:X 4.02223e-05
8 *922:29 0.000496244
9 *922:27 0.000443062
10 *922:18 0.000163655
11 *922:12 0.000594585
12 *922:10 0.000375831
13 *922:8 4.02223e-05
14 *922:12 *1510:A2 0
15 *922:12 *1136:22 0
16 *922:12 *1136:37 0
17 *1513:A1 *1513:B1 0
18 *2268:A *1498:B1 0
19 *2268:A *922:12 0
20 *2268:A *922:27 0.00027432
21 *521:12 *1501:B1 0
22 *527:8 *1504:B1 0
23 *527:8 *922:18 0
24 *529:10 *922:18 0
25 *531:10 *1501:B1 0
26 *531:10 *1504:B1 0
27 *547:35 *1498:B1 0.000338454
28 *547:35 *1501:B1 0
29 *547:35 *1513:B1 0.000194368
30 *547:35 *922:12 0.000404263
31 *547:35 *922:27 0
32 *826:43 *922:8 0
33 *829:26 *922:8 0.000128247
34 *830:31 *1501:B1 0
35 *832:46 *1501:B1 0
*RES
1 *2125:X *922:8 40.5104 
2 *922:8 *922:10 20 
3 *922:10 *922:12 2.3056 
4 *922:12 *922:18 41.5664 
5 *922:18 *1507:B1 20 
6 *922:12 *922:27 1.8656 
7 *922:27 *922:29 20 
8 *922:29 *1501:B1 43.2912 
9 *922:29 *1504:B1 41.144 
10 *922:27 *1498:B1 22.2352 
11 *922:27 *1510:B1 20 
12 *922:10 *1513:B1 21.1968 
*END

*D_NET *921 0.00859927
*CONN
*I *1519:B1 I *D sg13g2_a21oi_1
*I *1528:B1 I *D sg13g2_a21oi_1
*I *1531:B1 I *D sg13g2_a21oi_1
*I *1544:C1 I *D sg13g2_a221oi_1
*I *1541:C1 I *D sg13g2_a221oi_1
*I *1538:C1 I *D sg13g2_a221oi_1
*I *1535:C1 I *D sg13g2_a221oi_1
*I *1516:B1 I *D sg13g2_a21oi_1
*I *2124:X O *D sg13g2_buf_1
*CAP
1 *1519:B1 0
2 *1528:B1 0.000265758
3 *1531:B1 0
4 *1544:C1 0
5 *1541:C1 0
6 *1538:C1 0
7 *1535:C1 0
8 *1516:B1 0
9 *2124:X 0.000179058
10 *921:77 0.00039613
11 *921:73 0.000158099
12 *921:56 0.00044727
13 *921:37 0.000610602
14 *921:31 0.000449205
15 *921:27 0.000854826
16 *921:25 0.00118983
17 *921:18 0.000181302
18 *921:8 0.00095351
19 *1528:B1 *928:87 0
20 *1528:B1 *1106:114 0
21 *921:18 *928:68 0
22 *921:18 *1136:37 0
23 *921:56 *1544:A2 0
24 *921:77 *928:87 0
25 *1365:A *921:27 0
26 *1535:B2 *921:56 0.000409197
27 *1541:B2 *921:31 1.54008e-05
28 *1541:B1 *921:37 0.000130055
29 *1544:B2 *921:27 1.54556e-05
30 *1544:B2 *921:31 0
31 *1544:B2 *921:56 0
32 *1544:A1 *921:37 0
33 *1998:CLK *921:31 0
34 *2141:A *921:56 0.000177501
35 *537:12 *921:77 0
36 *545:10 *1528:B1 4.81157e-05
37 *547:35 *921:8 0.000208414
38 *547:35 *921:25 0.000703956
39 *547:35 *921:27 0
40 *547:35 *921:73 0
41 *547:63 *921:37 0.00018416
42 *552:14 *921:56 0
43 *575:14 *1528:B1 8.00842e-05
44 *718:10 *921:25 0
45 *718:23 *921:25 0
46 *718:56 *921:8 0
47 *718:56 *921:25 0
48 *825:54 *921:18 0
49 *827:41 *1528:B1 0
50 *827:41 *921:77 0.00012816
51 *828:38 *921:18 0.000394566
52 *839:29 *921:27 0.000274611
53 *841:8 *921:27 0.000144008
*RES
1 *2124:X *921:8 21.496 
2 *921:8 *921:18 41.9844 
3 *921:18 *1516:B1 20 
4 *921:8 *921:25 5.2624 
5 *921:25 *921:27 4.8928 
6 *921:27 *921:31 2.4464 
7 *921:31 *921:37 41.7776 
8 *921:37 *1535:C1 20 
9 *921:37 *921:56 44.4 
10 *921:56 *1538:C1 20 
11 *921:31 *1541:C1 20 
12 *921:27 *1544:C1 20 
13 *921:25 *921:73 0.2992 
14 *921:73 *921:77 21.144 
15 *921:77 *1531:B1 40 
16 *921:77 *1528:B1 42.0592 
17 *921:73 *1519:B1 20 
*END

*D_NET *917 0.00875258
*CONN
*I *1514:B I *D sg13g2_nor2_1
*I *1511:B I *D sg13g2_nor2_1
*I *1512:A2 I *D sg13g2_a21oi_1
*I *1515:A2 I *D sg13g2_a21oi_1
*I *1553:A2 I *D sg13g2_o21ai_1
*I *1561:A2 I *D sg13g2_o21ai_1
*I *2120:X O *D sg13g2_buf_1
*CAP
1 *1514:B 0.000354123
2 *1511:B 0
3 *1512:A2 0
4 *1515:A2 0.000462944
5 *1553:A2 0.000542406
6 *1561:A2 0
7 *2120:X 0.000161859
8 *917:59 8.87873e-05
9 *917:53 0.000347096
10 *917:49 0.000797165
11 *917:30 0.00138979
12 *917:15 0.00133263
13 *917:8 0.000209963
14 *1514:B *1514:A 0
15 *1514:B *923:8 0.000160013
16 *1515:A2 *996:20 0.000144838
17 *1553:A2 *931:12 0
18 *1553:A2 *1111:8 0
19 *1553:A2 *1111:17 0
20 *917:8 *2120:A 0
21 *917:8 *931:6 0
22 *917:30 *923:14 0.0010873
23 *917:30 *985:21 0
24 *917:49 *923:8 0.000557294
25 *917:49 *923:14 5.29681e-05
26 *917:53 *923:32 0
27 *917:59 *1511:A 0.000287846
28 *917:59 *1108:8 0
29 *1512:B1 *917:53 1.54008e-05
30 *1515:A1 *1515:A2 9.56932e-05
31 *1515:B1 *1515:A2 4.77863e-05
32 *1553:B1 *1553:A2 1.54008e-05
33 *1560:A *1553:A2 0.000209851
34 *1560:A *917:8 0
35 *1561:B1 *917:8 1.54008e-05
36 *1561:B1 *917:15 4.77425e-05
37 *1633:A0 *1553:A2 0
38 *1696:A1 *917:49 0
39 *1696:A2 *1514:B 0
40 *1696:A2 *1515:A2 0
41 *1696:B1 *1514:B 0
42 *1696:B1 *1515:A2 0
43 *1697:A *917:30 0
44 *1878:D *1553:A2 0.000306832
45 *1879:D *1553:A2 0
46 *1891:D *1514:B 0
47 *1909:D *1553:A2 0
48 *1921:D *1515:A2 2.14475e-05
49 *522:27 *1515:A2 0
50 *522:31 *917:30 0
51 *522:46 *1515:A2 0
52 *669:12 *917:30 0
53 *696:12 *1514:B 0
54 *696:12 *917:49 0
*RES
1 *2120:X *917:8 21.496 
2 *917:8 *1561:A2 20 
3 *917:8 *917:15 0.4576 
4 *917:15 *1553:A2 25.4032 
5 *917:15 *917:30 27.7264 
6 *917:30 *1515:A2 44.4 
7 *917:30 *917:49 2.4112 
8 *917:49 *917:53 22.3056 
9 *917:53 *917:59 41.144 
10 *917:59 *1512:A2 20 
11 *917:53 *1511:B 20 
12 *917:49 *1514:B 43.3968 
*END

*D_NET *916 0.00765679
*CONN
*I *1523:B I *D sg13g2_nor2_1
*I *1520:B I *D sg13g2_nor2_1
*I *1521:A2 I *D sg13g2_a21oi_1
*I *1524:A2 I *D sg13g2_a21oi_1
*I *1526:B I *D sg13g2_nor2_1
*I *1527:A2 I *D sg13g2_a21oi_1
*I *1517:B I *D sg13g2_nor2_1
*I *2119:X O *D sg13g2_buf_1
*CAP
1 *1523:B 0.000407311
2 *1520:B 0.000225967
3 *1521:A2 0.000215437
4 *1524:A2 0.000364632
5 *1526:B 0
6 *1527:A2 0
7 *1517:B 0.000594689
8 *2119:X 5.41588e-05
9 *916:67 0.00083885
10 *916:54 0.000533698
11 *916:41 0.000767027
12 *916:32 0.00038508
13 *916:10 0.000654506
14 *916:8 0.000209351
15 *1517:B *1713:A1 0.000241456
16 *1517:B *1110:102 0
17 *1517:B *1148:59 0
18 *1520:B *1108:90 0
19 *1521:A2 *990:8 0
20 *1523:B *1523:A 0
21 *1523:B *1108:90 0.000630797
22 *1523:B *1148:67 0
23 *1524:A2 *1673:A0 0.000597923
24 *1524:A2 *1131:10 0
25 *916:8 *1526:A 0
26 *916:10 *1148:59 0
27 *916:32 *1526:A 0
28 *916:32 *1148:59 0
29 *916:41 *1526:A 0
30 *1521:A1 *1521:A2 0.000144911
31 *1524:B1 *1524:A2 0
32 *1527:A1 *916:8 0
33 *2180:A *1520:B 0
34 *2180:A *1521:A2 0
35 *2180:A *1523:B 0
36 *515:69 *1524:A2 4.77425e-05
37 *515:69 *916:41 7.51285e-05
38 *515:69 *916:67 0
39 *522:55 *1517:B 0
40 *537:12 *1517:B 0
41 *537:12 *916:32 0
42 *537:12 *916:41 0
43 *537:12 *916:54 0
44 *539:12 *1524:A2 1.54008e-05
45 *542:8 *1517:B 0.000181609
46 *542:8 *916:10 0.000236388
47 *542:8 *916:32 0.000234727
48 *663:10 *1520:B 0
49 *663:10 *916:67 0
50 *723:12 *1524:A2 0
51 *723:70 *1524:A2 0
*RES
1 *2119:X *916:8 40.4576 
2 *916:8 *916:10 0.9328 
3 *916:10 *1517:B 45.7024 
4 *916:10 *1527:A2 40 
5 *916:8 *916:32 1.144 
6 *916:32 *1526:B 40 
7 *916:32 *916:41 2.4112 
8 *916:41 *1524:A2 43.4144 
9 *916:41 *916:54 0.9944 
10 *916:54 *1521:A2 41.7512 
11 *916:54 *916:67 21.5664 
12 *916:67 *1520:B 21.7512 
13 *916:67 *1523:B 23.8984 
*END

*D_NET *1135 0.00918382
*CONN
*I *1540:A2 I *D sg13g2_a21oi_1
*I *1539:B I *D sg13g2_nor2_1
*I *1530:A2 I *D sg13g2_a21oi_1
*I *2119:A I *D sg13g2_buf_1
*I *1536:B I *D sg13g2_nor2_1
*I *1537:A2 I *D sg13g2_a21oi_1
*I *1529:B I *D sg13g2_nor2_1
*I *2267:X O *D sg13g2_buf_1
*CAP
1 *1540:A2 2.71365e-05
2 *1539:B 0
3 *1530:A2 0
4 *2119:A 0.00029119
5 *1536:B 6.16111e-05
6 *1537:A2 0
7 *1529:B 0
8 *2267:X 0.000256928
9 *1135:87 0.000219025
10 *1135:79 0.00113793
11 *1135:41 0.0003293
12 *1135:31 0.000910001
13 *1135:25 0.00118461
14 *1135:16 0.000643128
15 *1135:12 0.00141749
16 *1530:A1 *1135:12 1.5412e-05
17 *1530:A1 *1135:79 0
18 *1537:B1 *1135:41 0.00020809
19 *1619:A *1135:16 0
20 *1624:A1 *1536:B 8.00291e-05
21 *1624:A1 *1135:41 0
22 *1625:A *1135:87 0.000562459
23 *1685:S *1135:31 0
24 *1685:S *1135:41 0
25 *1883:D *1135:41 0
26 *1913:D *1135:79 4.7856e-05
27 *1916:D *1135:12 0
28 *1916:D *1135:79 0
29 *1917:D *2119:A 0
30 *537:12 *1135:16 0
31 *537:12 *1135:25 0
32 *544:12 *1135:16 0.000822642
33 *699:8 *1135:41 0.000234461
34 *724:23 *1135:87 4.77425e-05
35 *986:8 *1135:41 0
36 *986:14 *1135:87 0.000130344
37 *989:8 *1135:31 0
38 *989:18 *1135:16 0
39 *989:18 *1135:25 0
40 *1110:12 *1135:12 2.4729e-05
41 *1110:12 *1135:79 0.000274189
42 *1110:27 *1135:79 0
43 *1110:36 *1135:79 0
44 *1110:47 *1540:A2 0
45 *1110:47 *1135:79 0
46 *1110:47 *1135:87 0
47 *1110:86 *1135:25 0
48 *1110:86 *1135:31 0.00024211
49 *1110:102 *2119:A 0
50 *1110:102 *1135:31 1.54008e-05
51 *1131:10 *2119:A 0
52 *1134:21 *1135:12 0
53 *1134:43 *1135:79 0
54 *1134:47 *1540:A2 0
55 *1134:47 *1135:79 0
*RES
1 *2267:X *1135:12 22.4904 
2 *1135:12 *1135:16 23.4672 
3 *1135:16 *1529:B 40 
4 *1135:16 *1135:25 3.0448 
5 *1135:25 *1135:31 24.8224 
6 *1135:31 *1135:41 43.3264 
7 *1135:41 *1537:A2 20 
8 *1135:31 *1536:B 20.7568 
9 *1135:25 *2119:A 42.684 
10 *1135:12 *1530:A2 20 
11 *1135:12 *1135:79 7.2424 
12 *1135:79 *1135:87 42.4728 
13 *1135:87 *1539:B 20 
14 *1135:79 *1540:A2 20.2728 
*END

*D_NET *1137 0.00970197
*CONN
*I *1546:A2 I *D sg13g2_a21oi_1
*I *1570:B I *D sg13g2_nor2_1
*I *1571:A2 I *D sg13g2_a21oi_1
*I *1542:B I *D sg13g2_nor2_1
*I *1543:A2 I *D sg13g2_a21oi_1
*I *1545:B I *D sg13g2_nor2_1
*I *1533:A2 I *D sg13g2_a21oi_1
*I *1532:B I *D sg13g2_nor2_1
*I *2269:X O *D sg13g2_buf_1
*CAP
1 *1546:A2 0
2 *1570:B 0
3 *1571:A2 5.70364e-05
4 *1542:B 0
5 *1543:A2 0.000128018
6 *1545:B 0.00015089
7 *1533:A2 0
8 *1532:B 0
9 *2269:X 0.000646144
10 *1137:91 0.000736556
11 *1137:80 0.000719805
12 *1137:69 0.00114349
13 *1137:42 0.00112608
14 *1137:40 0.000454698
15 *1137:29 0.000737612
16 *1137:16 0.000451839
17 *1137:12 0.000815069
18 *1533:B1 *1137:29 0.000144008
19 *1535:A1 *1137:40 0
20 *1542:A *1137:91 0
21 *1543:A1 *1543:A2 4.23522e-05
22 *1545:A *1545:B 0
23 *1546:A1 *1137:40 1.54008e-05
24 *1546:A1 *1137:69 0
25 *1546:B1 *1137:40 0
26 *1566:A1 *1137:12 0
27 *1622:B1 *1137:29 7.99179e-05
28 *1622:B1 *1137:40 1.54008e-05
29 *1877:CLK *1137:12 0.000272537
30 *1880:CLK *1137:69 0
31 *1881:D *1137:91 0
32 *1884:D *1137:29 0
33 *1915:D *1137:40 0
34 *2115:A *1137:16 0.000240181
35 *2115:A *1137:29 6.95234e-05
36 *2269:A *1137:12 0
37 *98:8 *1545:B 0.000127744
38 *98:8 *1137:69 0.000128742
39 *187:8 *1571:A2 0.000235154
40 *187:8 *1137:91 0.00026591
41 *575:14 *1137:40 0
42 *576:8 *1571:A2 0.000180763
43 *840:33 *1545:B 0
44 *912:20 *1137:40 0
45 *912:20 *1137:69 1.54008e-05
46 *912:35 *1137:69 6.45171e-05
47 *912:54 *1543:A2 0
48 *912:54 *1137:69 0
49 *912:80 *1137:91 0
50 *924:10 *1137:69 0
51 *924:51 *1137:91 0
52 *974:23 *1137:12 0
53 *1127:34 *1137:12 0
54 *1127:51 *1137:12 0.000562293
55 *1127:64 *1137:12 7.48842e-05
56 *1133:15 *1137:69 0
57 *1133:39 *1137:69 0
58 *1133:39 *1137:80 0
59 *1133:39 *1137:91 0
*RES
1 *2269:X *1137:12 45.8608 
2 *1137:12 *1137:16 21.5664 
3 *1137:16 *1532:B 20 
4 *1137:16 *1137:29 2.8336 
5 *1137:29 *1533:A2 20 
6 *1137:29 *1137:40 4.0128 
7 *1137:40 *1137:42 20 
8 *1137:42 *1545:B 41.144 
9 *1137:42 *1137:69 28.6768 
10 *1137:69 *1543:A2 21.3904 
11 *1137:69 *1137:80 0.4576 
12 *1137:80 *1542:B 20 
13 *1137:80 *1137:91 26.0368 
14 *1137:91 *1571:A2 40.9328 
15 *1137:91 *1570:B 40 
16 *1137:40 *1546:A2 20 
*END

*D_NET *932 0.00539458
*CONN
*I *1508:B I *D sg13g2_nor2_1
*I *1565:B I *D sg13g2_nor2_1
*I *2269:A I *D sg13g2_buf_1
*I *1566:A2 I *D sg13g2_a21oi_1
*I *1509:A2 I *D sg13g2_a21oi_1
*I *2134:X O *D sg13g2_buf_1
*CAP
1 *1508:B 0
2 *1565:B 3.91523e-05
3 *2269:A 0.000309438
4 *1566:A2 5.92118e-05
5 *1509:A2 7.44595e-05
6 *2134:X 0.0007486
7 *932:29 0.000431464
8 *932:27 0.000652699
9 *932:14 0.000861679
10 *932:12 0.000985088
11 *1565:B *1127:34 0
12 *2269:A *1137:12 0
13 *932:12 *1209:A1 0
14 *932:12 *1631:A 0.000144878
15 *932:12 *996:33 0
16 *932:27 *1923:RESET_B 0
17 *932:27 *1127:34 0
18 *1552:A *932:12 0.000145005
19 *1552:B *932:12 0
20 *1566:A1 *1566:A2 1.53311e-05
21 *1566:A1 *2269:A 0
22 *1632:S *932:12 0
23 *1908:RESET_B *1566:A2 0
24 *1908:RESET_B *932:27 0
25 *1908:CLK *932:27 0
26 *101:10 *1566:A2 0
27 *101:10 *932:27 0
28 *206:23 *932:27 0
29 *407:18 *932:12 0
30 *530:8 *1509:A2 0.000235156
31 *530:8 *932:14 0.000692418
32 *533:12 *932:12 0
33 *533:12 *932:14 0
34 *567:18 *932:12 0
35 *567:18 *932:14 0
36 *931:12 *932:12 0
*RES
1 *2134:X *932:12 46.1776 
2 *932:12 *932:14 3.0448 
3 *932:14 *1509:A2 40.9328 
4 *932:14 *932:27 24.5232 
5 *932:27 *932:29 0.7216 
6 *932:29 *1566:A2 20.7568 
7 *932:29 *2269:A 23.1944 
8 *932:27 *1565:B 20.4576 
9 *932:12 *1508:B 40 
*END

*D_NET *931 0.00618337
*CONN
*I *2120:A I *D sg13g2_buf_1
*I *1560:B I *D sg13g2_nand2_1
*I *2267:A I *D sg13g2_buf_1
*I *1518:A2 I *D sg13g2_a21oi_1
*I *2134:A I *D sg13g2_buf_1
*I *1552:B I *D sg13g2_nand2_1
*I *2133:X O *D sg13g2_buf_1
*CAP
1 *2120:A 0.000104017
2 *1560:B 0
3 *2267:A 0.000415184
4 *1518:A2 5.24727e-05
5 *2134:A 0
6 *1552:B 0.000213057
7 *2133:X 0
8 *931:34 0.000949196
9 *931:16 0.000507803
10 *931:12 0.00161184
11 *931:6 0.000967247
12 *931:4 0.000235712
13 *1552:B *1700:A1 0
14 *1552:B *932:12 0
15 *1552:B *980:6 0
16 *2120:A *2133:A 0
17 *2267:A *1612:A2 0.000112552
18 *2267:A *2242:A 0
19 *2267:A *1110:12 0
20 *2267:A *1134:8 0
21 *2267:A *1134:21 0.000209856
22 *931:6 *1127:6 0
23 *931:12 *1631:A 0
24 *931:12 *932:12 0
25 *931:12 *996:33 0
26 *931:12 *1111:41 0
27 *931:34 *1111:41 0
28 *931:34 *1111:48 0
29 *1552:A *1552:B 0
30 *1553:A2 *931:12 0
31 *1560:A *931:6 0
32 *1560:A *931:12 0
33 *1612:A1 *1518:A2 4.78521e-05
34 *1612:A1 *2267:A 0.000112447
35 *1632:A0 *931:12 0
36 *1632:S *931:12 0
37 *1633:A0 *931:12 8.02269e-05
38 *1633:S *931:12 0
39 *1879:D *931:12 0.000306837
40 *1889:D *2267:A 0.000177301
41 *1889:D *931:34 0
42 *1920:D *931:34 7.97712e-05
43 *407:18 *1552:B 0
44 *539:12 *931:16 0
45 *539:12 *931:34 0
46 *917:8 *2120:A 0
47 *917:8 *931:6 0
*RES
1 *2133:X *931:4 20 
2 *931:4 *931:6 1.1968 
3 *931:6 *931:12 27.2248 
4 *931:12 *931:16 22.4112 
5 *931:16 *1552:B 21.7512 
6 *931:16 *2134:A 20 
7 *931:12 *931:34 24.3472 
8 *931:34 *1518:A2 20.572 
9 *931:34 *2267:A 24.1008 
10 *931:6 *1560:B 20 
11 *931:4 *2120:A 21.1528 
*END

*D_NET *1138 0.00922764
*CONN
*I *1491:A2 I *D sg13g2_o21ai_1
*I *1492:A2 I *D sg13g2_o21ai_1
*I *1807:A2 I *D sg13g2_o21ai_1
*I *1489:A2 I *D sg13g2_o21ai_1
*I *1494:A2 I *D sg13g2_o21ai_1
*I *1806:A2 I *D sg13g2_o21ai_1
*I *1485:A2 I *D sg13g2_o21ai_1
*I *1495:A2 I *D sg13g2_o21ai_1
*I *2270:X O *D sg13g2_buf_1
*CAP
1 *1491:A2 0.000377493
2 *1492:A2 0.000409823
3 *1807:A2 6.69148e-05
4 *1489:A2 0
5 *1494:A2 0.000183501
6 *1806:A2 0
7 *1485:A2 8.93658e-05
8 *1495:A2 0.000180141
9 *2270:X 2.77263e-05
10 *1138:77 0.000613112
11 *1138:71 0.00059439
12 *1138:64 0.000572947
13 *1138:43 0.000764715
14 *1138:12 0.000957141
15 *1138:8 0.000851654
16 *1138:6 0.000280534
17 *1492:A2 *1864:CLK 0
18 *1807:A2 *1864:CLK 0
19 axi_lite_o[26] *1138:64 0.000128663
20 *1196:A *1138:12 0.000339042
21 *1203:A *1138:12 0.000242017
22 *1205:A2 *1485:A2 0.000159511
23 *1205:A2 *1495:A2 7.56299e-05
24 *1236:A1 *1491:A2 0
25 *1485:A1 *1485:A2 7.51285e-05
26 *1491:B1 *1491:A2 1.54008e-05
27 *1492:B1 *1492:A2 3.97831e-05
28 *1492:A1 *1492:A2 1.54118e-05
29 *1494:B1 *1494:A2 4.77425e-05
30 *1495:A1 *1495:A2 0.000341621
31 *1806:B1 *1138:8 1.54008e-05
32 *1806:B1 *1138:12 8.00842e-05
33 *1807:A1 *1807:A2 4.77425e-05
34 *1865:RESET_B *1138:43 0
35 *1865:D *1138:8 0
36 *1865:D *1138:43 0
37 *1933:D *1491:A2 0
38 *2272:A *1492:A2 0
39 *323:10 *1138:64 0
40 *334:10 *1495:A2 0
41 *342:8 *1138:77 0.000447182
42 *516:50 *1138:64 0
43 *516:72 *1138:64 0
44 *519:21 *1494:A2 7.51285e-05
45 *519:36 *1494:A2 3.23417e-05
46 *519:42 *1807:A2 1.54008e-05
47 *519:51 *1492:A2 0.000403884
48 *519:51 *1807:A2 9.7025e-05
49 *519:85 *1138:64 0.00011236
50 *519:85 *1138:71 1.54008e-05
51 *681:8 *1138:64 0
52 *762:8 *1491:A2 0
53 *762:8 *1138:64 0
54 *762:8 *1138:71 0
55 *930:31 *1495:A2 0
56 *930:33 *1485:A2 4.77425e-05
57 *1105:73 *1138:77 0
58 *1126:8 *1494:A2 0.000340704
59 *1126:12 *1138:43 4.78356e-05
60 *1126:26 *1138:8 0
61 *1126:26 *1138:12 0
62 *1126:26 *1138:43 0
*RES
1 *2270:X *1138:6 20.2992 
2 *1138:6 *1138:8 1.1968 
3 *1138:8 *1138:12 25.4472 
4 *1138:12 *1495:A2 41.8392 
5 *1138:12 *1485:A2 40.9944 
6 *1138:8 *1806:A2 20 
7 *1138:6 *1138:43 20.8272 
8 *1138:43 *1494:A2 42.024 
9 *1138:43 *1138:64 24.1536 
10 *1138:64 *1489:A2 20 
11 *1138:64 *1138:71 0.6424 
12 *1138:71 *1138:77 41.7776 
13 *1138:77 *1807:A2 20.6424 
14 *1138:77 *1492:A2 23.6696 
15 *1138:71 *1491:A2 22.86 
*END

*D_NET *1126 0.0137472
*CONN
*I *2270:A I *D sg13g2_buf_1
*I *1490:A2 I *D sg13g2_o21ai_1
*I *1488:A2 I *D sg13g2_o21ai_1
*I *1486:A2 I *D sg13g2_o21ai_1
*I *1487:A2 I *D sg13g2_o21ai_1
*I *1493:A2 I *D sg13g2_o21ai_1
*I *2258:X O *D sg13g2_buf_1
*CAP
1 *2270:A 0
2 *1490:A2 3.21516e-05
3 *1488:A2 0
4 *1486:A2 0
5 *1487:A2 0.000618283
6 *1493:A2 4.02505e-05
7 *2258:X 0.00078691
8 *1126:87 0.000321674
9 *1126:74 0.000129845
10 *1126:66 0.000712315
11 *1126:47 0.00124748
12 *1126:30 0.000696236
13 *1126:26 0.00180436
14 *1126:12 0.00153631
15 *1126:8 0.000838602
16 *1126:8 *1494:A2 0.000340704
17 *1126:8 *1864:CLK 0
18 *1126:12 *1138:43 4.78356e-05
19 *1126:26 *1138:8 0
20 *1126:26 *1138:12 0
21 *1126:26 *1138:43 0
22 *1126:47 *1145:80 0
23 *1126:66 *1145:15 0
24 *1126:74 *1145:15 0
25 *1196:A *1126:26 0
26 *1198:A2 *1126:12 0
27 *1198:A2 *1126:26 0.000306205
28 *1198:B1 *1126:26 0
29 *1200:B *1487:A2 0
30 *1203:A *1126:26 0.000177394
31 *1215:A1 *1126:66 0.000176537
32 *1215:A2 *1126:66 0
33 *1215:A2 *1126:74 0
34 *1215:B1 *1126:66 4.77425e-05
35 *1220:A *1126:66 0
36 *1221:A2 *1126:87 0.000112136
37 *1480:A *1126:30 0
38 *1480:A *1126:47 0
39 *1486:A1 *1126:74 0.000112651
40 *1487:B1 *1487:A2 0.00122666
41 *1487:B1 *1126:47 0.000181192
42 *1488:A1 *1126:87 3.04166e-05
43 *1493:B1 *1126:30 0
44 *1703:B *1126:8 0
45 *1704:A2 *1126:26 0
46 *1803:A *1126:8 0
47 *1929:D *1126:30 0
48 *1929:D *1126:47 0
49 *1935:RESET_B *1487:A2 0
50 *2165:A *1126:30 0.000241979
51 *73:10 *1126:74 0
52 *82:10 *1126:26 0
53 *331:8 *1126:87 0.000288588
54 *332:8 *1487:A2 0
55 *339:12 *1490:A2 1.54008e-05
56 *339:12 *1126:26 8.01283e-05
57 *506:8 *1487:A2 0
58 *507:44 *1126:74 0.00012816
59 *507:100 *1126:8 0
60 *516:8 *1126:26 0
61 *516:8 *1126:30 0
62 *516:8 *1126:47 0
63 *516:21 *1126:26 0.000597428
64 *519:10 *1126:8 0
65 *519:21 *1126:8 0
66 *681:8 *1126:8 0
67 *682:12 *1126:47 0.000176883
68 *684:12 *1126:87 0
69 *930:16 *1126:26 0
70 *930:39 *1490:A2 0.000103517
71 *930:39 *1126:30 0.000154216
72 *930:52 *1126:47 0.00037308
73 *930:82 *1126:87 6.39133e-05
74 *967:8 *1487:A2 0
75 *1103:27 *1126:87 0
*RES
1 *2258:X *1126:8 46.8464 
2 *1126:8 *1126:12 20.4576 
3 *1126:12 *1126:26 12.9712 
4 *1126:26 *1126:30 2.8424 
5 *1126:30 *1493:A2 20.4576 
6 *1126:30 *1126:47 24.3912 
7 *1126:47 *1487:A2 46.556 
8 *1126:47 *1126:66 22.1208 
9 *1126:66 *1126:74 41.3376 
10 *1126:74 *1486:A2 20 
11 *1126:66 *1126:87 42.9348 
12 *1126:87 *1488:A2 20 
13 *1126:26 *1490:A2 20.5896 
14 *1126:12 *2270:A 20 
*END

*D_NET *1121 0.0164005
*CONN
*I *1499:B I *D sg13g2_nor2_1
*I *1502:B I *D sg13g2_nor2_1
*I *1503:A2 I *D sg13g2_a21oi_1
*I *2133:A I *D sg13g2_buf_1
*I *1505:B I *D sg13g2_nor2_1
*I *1506:A2 I *D sg13g2_a21oi_1
*I *2258:A I *D sg13g2_buf_1
*I *1500:A2 I *D sg13g2_a21oi_1
*I *2253:X O *D sg13g2_buf_1
*CAP
1 *1499:B 7.54247e-05
2 *1502:B 0
3 *1503:A2 0
4 *2133:A 0.000390035
5 *1505:B 0
6 *1506:A2 0.000105199
7 *2258:A 0.000955671
8 *1500:A2 0.000445863
9 *2253:X 0.000420561
10 *1121:56 0.000342973
11 *1121:54 0.00106195
12 *1121:52 0.000561433
13 *1121:48 0.000965203
14 *1121:33 0.00208004
15 *1121:27 0.000944751
16 *1121:8 0.00144929
17 *2133:A *2259:A 0
18 *2258:A *1866:CLK 0
19 *1121:27 *1895:CLK 0.000289003
20 *1121:48 *1899:CLK 0.000306936
21 *1206:A1 *2133:A 8.00842e-05
22 *1206:A1 *1121:56 0
23 *1298:A *1121:52 0.000266318
24 *1298:A *1121:54 0.00154756
25 *1298:A *1121:56 0.000181695
26 *1497:A *1121:48 0
27 *1505:A *1506:A2 0
28 *1505:A *1121:56 0
29 *1591:A *1121:48 0
30 *1592:B1 *2258:A 0
31 *1600:B1 *1500:A2 0
32 *1893:CLK *2133:A 0
33 *1894:CLK *1121:48 0
34 *1895:RESET_B *1500:A2 0
35 *1895:D *1500:A2 0
36 *1900:RESET_B *2258:A 0
37 *2120:A *2133:A 0
38 *2261:A *1121:8 0
39 *407:14 *1506:A2 0
40 *407:14 *1121:56 0
41 *506:52 *1499:B 0
42 *506:52 *1121:27 0
43 *506:52 *1121:33 0.00120924
44 *506:74 *1121:52 0
45 *507:73 *1121:8 0
46 *507:84 *1121:8 0
47 *507:84 *1121:27 0
48 *517:16 *1500:A2 0.000449343
49 *517:16 *1121:27 0
50 *522:12 *1121:48 0.000241979
51 *523:16 *1500:A2 1.54008e-05
52 *525:14 *1121:54 0
53 *526:8 *1121:52 0.000394566
54 *526:8 *1121:54 0.00018128
55 *528:8 *1506:A2 0.00018128
56 *578:20 *1121:8 0
57 *581:58 *2258:A 0
58 *673:12 *1121:33 0.000831602
59 *892:10 *1500:A2 0
60 *893:10 *1500:A2 0
61 *962:14 *1121:48 8.02595e-05
62 *964:8 *1121:27 0
63 *964:20 *1121:33 0.000345533
64 *971:8 *2258:A 0
65 *1101:18 *1121:48 0
66 *1105:23 *2258:A 0
67 *1105:34 *2258:A 0
*RES
1 *2253:X *1121:8 43.4144 
2 *1121:8 *1500:A2 44.8224 
3 *1121:8 *1121:27 25.8344 
4 *1121:27 *1121:33 45.368 
5 *1121:33 *2258:A 28.1488 
6 *1121:33 *1121:48 7.8936 
7 *1121:48 *1121:52 21.7776 
8 *1121:52 *1121:54 6.2128 
9 *1121:54 *1121:56 1.7776 
10 *1121:56 *1506:A2 40.9328 
11 *1121:56 *1505:B 40 
12 *1121:54 *2133:A 43.2296 
13 *1121:52 *1503:A2 40 
14 *1121:48 *1502:B 20 
15 *1121:27 *1499:B 20.6424 
*END

*D_NET *913 0.0121989
*CONN
*I *1291:A I *D sg13g2_inv_4
*I *1283:A1 I *D sg13g2_a21oi_2
*I *1276:A1 I *D sg13g2_a21oi_1
*I *1275:B I *D sg13g2_nor2_1
*I *1269:B I *D sg13g2_nor2_1
*I *1833:B I *D sg13g2_xnor2_1
*I *1254:B1 I *D sg13g2_a21o_1
*I *1819:B I *D sg13g2_xnor2_1
*I *2116:X O *D sg13g2_buf_1
*CAP
1 *1291:A 2.77263e-05
2 *1283:A1 0.00033627
3 *1276:A1 3.49262e-05
4 *1275:B 0
5 *1269:B 0
6 *1833:B 0.000199853
7 *1254:B1 0
8 *1819:B 0.000723995
9 *2116:X 0.00060005
10 *913:77 0.000605929
11 *913:66 0.000867735
12 *913:54 0.00105018
13 *913:18 0.00109568
14 *913:16 0.000967104
15 *913:14 0.000543783
16 *913:10 0.00113772
17 *1819:B *1072:8 0
18 *1819:B *1079:25 1.54446e-05
19 *1819:B *1079:27 0.000890533
20 *1819:B *1079:46 4.79124e-05
21 *1819:B *1100:8 0
22 *1819:B *1143:23 0
23 *1833:B *1088:30 8.01938e-05
24 *1833:B *1100:83 0
25 *913:10 *1266:A 0
26 *913:10 *1376:A_N 0.000186673
27 *913:14 *1088:30 0
28 *913:14 *1112:49 0
29 *913:16 *1044:19 0.000905607
30 *913:16 *1079:68 0
31 *913:16 *1088:30 0
32 *913:18 *1044:19 0.000288589
33 *913:18 *1072:8 0
34 *913:18 *1143:10 0
35 *913:54 *1376:A_N 1.54008e-05
36 *913:54 *1088:6 0.000259183
37 *913:77 *1147:91 0
38 *1265:A2 *913:66 2.21831e-05
39 *1268:A2 *913:10 0
40 *1269:A *913:10 0
41 *68:8 *913:18 0
42 *352:8 *1819:B 0
43 *363:8 *1819:B 0
44 *374:10 *913:66 0
45 *378:10 *913:54 0
46 *379:10 *913:66 0
47 *379:14 *913:66 0.000145069
48 *383:10 *1283:A1 0.000342364
49 *384:8 *913:66 0
50 *384:8 *913:77 0
51 *385:18 *913:77 0
52 *392:10 *1283:A1 0
53 *400:8 *913:54 0
54 *400:22 *913:10 0
55 *400:65 *913:66 0
56 *400:71 *913:66 0.000234311
57 *404:30 *913:66 0
58 *475:12 *913:18 0
59 *475:43 *913:18 0
60 *475:49 *1833:B 0.000339398
61 *505:96 *913:18 0.000235055
62 *510:10 *1283:A1 0
63 *510:10 *913:66 0
64 *510:10 *913:77 0
65 *707:14 *1819:B 0
*RES
1 *2116:X *913:10 25.1216 
2 *913:10 *913:14 21.5664 
3 *913:14 *913:16 4.9456 
4 *913:16 *913:18 3.6784 
5 *913:18 *1819:B 46.4064 
6 *913:18 *1254:B1 40 
7 *913:16 *1833:B 41.936 
8 *913:14 *1269:B 40 
9 *913:10 *913:54 3.4144 
10 *913:54 *913:66 26.3008 
11 *913:66 *1275:B 40 
12 *913:66 *913:77 2.0504 
13 *913:77 *1276:A1 40.2728 
14 *913:77 *1283:A1 43.3176 
15 *913:54 *1291:A 20.2992 
*END

*D_NET *906 0.00747328
*CONN
*I *1460:S I *D sg13g2_mux2_1
*I *1456:S I *D sg13g2_mux2_1
*I *1458:S I *D sg13g2_mux2_1
*I *1455:S I *D sg13g2_mux2_1
*I *1454:S I *D sg13g2_mux2_1
*I *1457:S I *D sg13g2_mux2_1
*I *1453:S I *D sg13g2_mux2_1
*I *1459:S I *D sg13g2_mux2_1
*I *2109:X O *D sg13g2_buf_1
*CAP
1 *1460:S 0.000181304
2 *1456:S 3.7893e-05
3 *1458:S 0
4 *1455:S 0.000112314
5 *1454:S 0
6 *1457:S 0.000171446
7 *1453:S 0.000358374
8 *1459:S 0
9 *2109:X 0.000462543
10 *906:60 0.000179183
11 *906:35 0.00057053
12 *906:31 0.000597646
13 *906:27 0.00104013
14 *906:18 0.00101169
15 *906:12 0.000914498
16 *1455:S *1455:A1 0
17 *1455:S *1458:A1 0
18 *1457:S *1454:A1 0.000775005
19 *906:12 *927:85 0
20 *906:18 *1459:A1 0
21 *906:18 *2212:A 0
22 *906:18 *1181:12 0
23 *906:27 *2212:A 0
24 *906:31 *1176:12 0
25 *1453:A0 *1453:S 0
26 *1454:A0 *1453:S 4.77425e-05
27 *1456:A0 *1456:S 0
28 *1953:D *1456:S 0
29 *1955:D *1453:S 0
30 *1955:D *906:31 0
31 *621:10 *906:31 0
32 *623:10 *906:18 0
33 *623:10 *906:27 0
34 *624:10 *906:31 0
35 *625:10 *1457:S 5.38157e-05
36 *625:10 *906:31 0
37 *625:10 *906:35 0.000130344
38 *625:25 *1457:S 0.000828821
39 *903:27 *1453:S 0
40 *903:38 *1455:S 0
41 *903:38 *906:27 0
42 *903:47 *906:27 0
*RES
1 *2109:X *906:12 42.6928 
2 *906:12 *906:18 25.9576 
3 *906:18 *1459:S 20 
4 *906:18 *906:27 3.9248 
5 *906:27 *906:31 5.4032 
6 *906:31 *906:35 20.5104 
7 *906:35 *1453:S 43.4144 
8 *906:35 *1457:S 43.4672 
9 *906:31 *1454:S 20 
10 *906:27 *906:60 0.7216 
11 *906:60 *1455:S 21.5664 
12 *906:60 *1458:S 20 
13 *906:12 *1456:S 40.6424 
14 *2109:X *1460:S 41.7952 
*END

*D_NET *915 0.0246861
*CONN
*I *1461:S I *D sg13g2_mux2_1
*I *1464:S I *D sg13g2_mux2_1
*I *1467:S I *D sg13g2_mux2_1
*I *1463:S I *D sg13g2_mux2_1
*I *1462:S I *D sg13g2_mux2_1
*I *1465:S I *D sg13g2_mux2_1
*I *1468:S I *D sg13g2_mux2_1
*I *1466:S I *D sg13g2_mux2_1
*I *2118:X O *D sg13g2_buf_1
*CAP
1 *1461:S 0.000228513
2 *1464:S 0
3 *1467:S 0
4 *1463:S 0
5 *1462:S 0
6 *1465:S 0
7 *1468:S 0
8 *1466:S 0
9 *2118:X 0.000363611
10 *915:93 0.000324478
11 *915:87 0.00123735
12 *915:72 0.00183708
13 *915:64 0.00186932
14 *915:49 0.00124968
15 *915:42 0.00055766
16 *915:35 0.000787083
17 *915:16 0.000821805
18 *915:12 0.00140143
19 *915:8 0.0017549
20 *1461:S *2217:A 0
21 *1461:S *1027:27 0
22 *915:12 *919:48 0
23 *915:49 *2217:A 0
24 *915:49 *2220:A 0.000242313
25 *915:64 *2217:A 0
26 *915:64 *2220:A 0
27 *915:64 *1174:10 8.00842e-05
28 *915:72 *1790:B 0
29 *915:72 *1027:27 0
30 *915:72 *1057:8 0.00023464
31 *915:87 *1790:B 0
32 *915:87 *1077:8 0
33 *915:87 *1078:14 0
34 *915:87 *1078:25 0.00135761
35 *915:93 *1077:27 0.000500214
36 *915:93 *1171:10 0
37 *1368:A1 *915:93 0.000182023
38 *1420:A *1461:S 0.000274507
39 *1421:B1 *1461:S 0
40 *1430:A1 *915:12 0.00136452
41 *1461:A0 *1461:S 0
42 *1463:A0 *915:72 0
43 *1463:A0 *915:87 0
44 *1788:A2 *915:12 0.000269852
45 *1944:D *915:8 0
46 *1944:D *915:42 0
47 *1946:D *915:72 0
48 *1949:D *915:8 8.02379e-05
49 *1975:CLK *915:12 0
50 *2303:A *915:35 0.000273869
51 *2307:A *915:64 0
52 *63:10 *915:87 0
53 *285:10 *915:93 0
54 *434:14 *915:12 0
55 *435:8 *915:12 0
56 *492:8 *915:12 0
57 *493:25 *915:72 0
58 *499:8 *915:12 0.000562684
59 *612:20 *915:35 0.00131916
60 *613:8 *915:42 0
61 *613:8 *915:49 0
62 *613:14 *915:12 0.0018066
63 *617:10 *915:49 1.54556e-05
64 *617:10 *915:64 0.00053421
65 *619:6 *915:8 0
66 *619:6 *915:42 0
67 *619:6 *915:49 0
68 *619:21 *915:12 0
69 *714:80 *915:12 0.000184492
70 *714:80 *915:35 0
71 *720:49 *915:8 0
72 *721:96 *915:12 0.000557452
73 *721:102 *915:12 0.000342629
74 *900:38 *915:87 0
75 *900:44 *915:72 0
76 *900:71 *915:93 0.000500301
77 *905:98 *915:87 0
78 *907:36 *915:64 0
79 *907:44 *915:72 0.000341535
80 *914:53 *915:35 0.000955225
81 *914:66 *915:35 0.000273572
*RES
1 *2118:X *915:8 23.3704 
2 *915:8 *915:12 38.4624 
3 *915:12 *915:16 20.2728 
4 *915:16 *1466:S 20 
5 *915:16 *915:35 49.68 
6 *915:35 *1468:S 20 
7 *915:8 *915:42 0.2728 
8 *915:42 *1465:S 20 
9 *915:42 *915:49 4.8928 
10 *915:49 *1462:S 20 
11 *915:49 *915:64 46.336 
12 *915:64 *915:72 48.5712 
13 *915:72 *1463:S 20 
14 *915:72 *915:87 49.6096 
15 *915:87 *915:93 44.1008 
16 *915:93 *1467:S 20 
17 *915:87 *1464:S 20 
18 *915:64 *1461:S 22.2352 
*END

*D_NET *927 0.0138065
*CONN
*I *1446:S I *D sg13g2_mux2_1
*I *2118:A I *D sg13g2_buf_1
*I *2109:A I *D sg13g2_buf_1
*I *1451:S I *D sg13g2_mux2_1
*I *1452:S I *D sg13g2_mux2_1
*I *1450:S I *D sg13g2_mux2_1
*I *1449:S I *D sg13g2_mux2_1
*I *1445:S I *D sg13g2_mux2_1
*I *2129:X O *D sg13g2_buf_1
*CAP
1 *1446:S 7.00014e-05
2 *2118:A 0
3 *2109:A 0.000171636
4 *1451:S 7.14727e-05
5 *1452:S 0
6 *1450:S 0
7 *1449:S 0
8 *1445:S 5.17103e-05
9 *2129:X 0.00027553
10 *927:85 0.00292549
11 *927:66 0.00321373
12 *927:55 0.000814309
13 *927:40 0.000886288
14 *927:27 0.000854572
15 *927:23 0.00117635
16 *927:10 0.0010394
17 *927:10 *1388:A1 0
18 *927:10 *1445:A1 0.00034221
19 *927:23 *1168:10 0
20 *927:27 *1449:A1 0
21 *927:55 *1450:A1 0
22 *927:55 *1173:8 0
23 *927:66 *1452:A1 0
24 *927:85 *1452:A1 0
25 *927:85 *1457:A1 8.0194e-05
26 *927:85 *1954:CLK 0
27 *927:85 *1955:CLK 0
28 *927:85 *1957:CLK 0
29 *927:85 *934:10 0
30 *927:85 *1034:8 0
31 *927:85 *1118:23 0
32 *927:85 *1118:34 0
33 *927:85 *1118:36 0
34 *1397:A *927:85 0
35 *1445:A0 *927:23 0.000401298
36 *1449:A0 *927:27 0
37 *1449:A0 *927:40 0
38 *1457:A0 *927:85 0
39 *1950:CLK *927:85 0.000533673
40 *1952:RESET_B *927:85 0
41 *1952:D *927:85 0
42 *1953:RESET_B *2109:A 0
43 *1953:RESET_B *927:85 0
44 *1953:CLK *927:85 0
45 *1954:RESET_B *927:85 0
46 *1957:RESET_B *927:66 0
47 *1957:D *927:55 0
48 *1957:D *927:66 0
49 *1958:D *1451:S 0
50 *1960:RESET_B *927:40 0
51 *1960:D *927:40 0
52 *1963:D *927:10 1.54008e-05
53 *1989:D *927:10 0.000209615
54 *2089:A *927:40 0
55 *2089:A *927:55 0
56 *607:12 *927:23 0
57 *608:10 *927:23 0
58 *628:8 *927:40 0
59 *628:8 *927:55 0
60 *628:8 *927:66 0
61 *628:14 *927:55 0.000448603
62 *629:10 *1451:S 0
63 *629:10 *927:66 0
64 *629:10 *927:85 0
65 *630:10 *927:40 8.02595e-05
66 *630:10 *927:55 0
67 *903:17 *927:85 0
68 *903:23 *927:85 0
69 *906:12 *927:85 0
70 *925:24 *927:10 0.0001448
71 *925:30 *927:10 0
*RES
1 *2129:X *927:10 42.9744 
2 *927:10 *1445:S 40.5104 
3 *927:10 *927:23 26.7408 
4 *927:23 *927:27 3.9248 
5 *927:27 *1449:S 20 
6 *927:27 *927:40 4.5232 
7 *927:40 *1450:S 20 
8 *927:40 *927:55 44.4352 
9 *927:55 *1452:S 20 
10 *927:55 *927:66 23.5816 
11 *927:66 *1451:S 40.6424 
12 *927:66 *927:85 44.2704 
13 *927:85 *2109:A 21.7776 
14 *927:85 *2118:A 20 
15 *927:23 *1446:S 20.7216 
*END

*D_NET *939 0.00703715
*CONN
*I *1396:A2 I *D sg13g2_a21oi_1
*I *1394:A2 I *D sg13g2_a21oi_1
*I *1397:B I *D sg13g2_nor2_1
*I *1398:A2 I *D sg13g2_a21oi_1
*I *1402:B I *D sg13g2_nor2_1
*I *1403:A2 I *D sg13g2_a21oi_1
*I *1400:A2 I *D sg13g2_a21oi_1
*I *2105:X O *D sg13g2_buf_1
*CAP
1 *1396:A2 0.000222735
2 *1394:A2 0.000450297
3 *1397:B 0
4 *1398:A2 0
5 *1402:B 0.000131028
6 *1403:A2 0
7 *1400:A2 0
8 *2105:X 7.71012e-05
9 *939:57 0.000167944
10 *939:47 0.000534641
11 *939:30 0.000529861
12 *939:21 0.000652681
13 *939:14 0.000768509
14 *939:12 0.000727719
15 *939:8 0.000429294
16 *1394:A2 *1040:8 0
17 *1402:B *1848:A2 0
18 *1402:B *1038:25 0
19 *939:8 *1340:A2 0.000266907
20 *939:12 *1340:A2 0.000289002
21 *939:12 *1450:A1 0.000181781
22 *939:21 *1959:CLK 0
23 *939:21 *1038:8 0
24 *939:47 *1848:A2 0
25 *939:57 *1350:A2 0
26 *939:57 *1983:CLK 0
27 *1394:B1 *1394:A2 0
28 *1395:A *1394:A2 0.00027466
29 *1395:B *1394:A2 0.000307133
30 *1395:B *1396:A2 0
31 *1396:B1 *1394:A2 0
32 *1396:B1 *1396:A2 0
33 *1398:A1 *939:57 7.52149e-05
34 *1398:B1 *939:47 0
35 *1398:B1 *939:57 0
36 *1399:B *1394:A2 0
37 *1399:B *939:14 0
38 *1400:B1 *939:14 0
39 *1403:A1 *1402:B 7.52149e-05
40 *1403:A1 *939:47 0.000585841
41 *1403:B1 *939:21 0
42 *1983:RESET_B *939:21 0
43 *1983:RESET_B *939:47 0
44 *1983:D *939:21 0
45 *1984:D *939:47 0
46 *1985:D *1394:A2 0
47 *446:14 *939:8 0
48 *446:14 *939:12 0
49 *721:59 *1396:A2 0
50 *844:84 *1394:A2 4.77425e-05
51 *919:8 *939:57 0
52 *919:12 *939:47 0.000241847
*RES
1 *2105:X *939:8 41.144 
2 *939:8 *939:12 21.7776 
3 *939:12 *939:14 1.3816 
4 *939:14 *1400:A2 20 
5 *939:14 *939:21 4.8928 
6 *939:21 *1403:A2 20 
7 *939:21 *939:30 20.2728 
8 *939:30 *1402:B 41.4168 
9 *939:30 *939:47 24.1624 
10 *939:47 *939:57 41.6896 
11 *939:57 *1398:A2 20 
12 *939:47 *1397:B 20 
13 *939:12 *1394:A2 24.5672 
14 *939:8 *1396:A2 42.1208 
*END

*D_NET *907 0.00777758
*CONN
*I *1429:B I *D sg13g2_nor2_1
*I *1424:B I *D sg13g2_nor2_1
*I *1423:A2 I *D sg13g2_a21oi_1
*I *1421:A2 I *D sg13g2_a21oi_1
*I *1420:B I *D sg13g2_nor2_1
*I *1422:B I *D sg13g2_nor2_1
*I *1417:B I *D sg13g2_nor2_1
*I *2110:X O *D sg13g2_buf_1
*CAP
1 *1429:B 2.36489e-05
2 *1424:B 0.000234976
3 *1423:A2 0.000193015
4 *1421:A2 2.76699e-05
5 *1420:B 0
6 *1422:B 0
7 *1417:B 0
8 *2110:X 0.000155663
9 *907:44 0.000121179
10 *907:36 0.000711411
11 *907:29 0.000737553
12 *907:25 0.000746413
13 *907:21 0.00115841
14 *907:17 0.000974793
15 *907:6 0.000561785
16 *1424:B *1391:A 0
17 *1424:B *1113:50 0.000213373
18 *907:6 *919:35 0
19 *907:17 *1113:22 0
20 *907:21 *1354:A 0.000242137
21 *907:21 *1391:A 4.77425e-05
22 *907:21 *1026:8 0
23 *907:21 *1113:22 0
24 *907:25 *1462:A1 0
25 *907:25 *1113:50 7.51285e-05
26 *907:29 *1462:A1 0.000554164
27 *907:36 *915:64 0
28 *907:36 *1174:10 0
29 *907:44 *915:72 0.000341535
30 *1355:A *1424:B 0.000307227
31 *1356:B1 *907:21 0
32 *1418:B1 *907:6 0
33 *1418:B1 *907:17 0
34 *1421:B1 *1421:A2 0
35 *1424:A *1424:B 0
36 *1975:D *907:6 0
37 *1975:D *907:17 0
38 *34:8 *907:44 0
39 *477:8 *907:25 0
40 *477:8 *907:29 0
41 *477:16 *1423:A2 0
42 *477:16 *907:17 0
43 *477:16 *907:21 0
44 *477:20 *907:17 0
45 *493:25 *907:44 7.52149e-05
46 *496:12 *1424:B 0
47 *616:8 *907:44 0
48 *905:8 *907:21 0.000274545
49 *905:24 *1423:A2 0
50 *905:24 *907:36 0
*RES
1 *2110:X *907:6 21.1968 
2 *907:6 *1417:B 20 
3 *907:6 *907:17 4.0128 
4 *907:17 *907:21 25.0776 
5 *907:21 *907:25 3.3176 
6 *907:25 *907:29 22.2 
7 *907:29 *1422:B 20 
8 *907:29 *907:36 5.0776 
9 *907:36 *907:44 41.628 
10 *907:44 *1420:B 20 
11 *907:36 *1421:A2 20.2728 
12 *907:25 *1423:A2 41.5664 
13 *907:21 *1424:B 42.684 
14 *907:17 *1429:B 20.2992 
*END

*D_NET *942 0.00317245
*CONN
*I *2110:A I *D sg13g2_buf_1
*I *1416:A2 I *D sg13g2_a21oi_1
*I *1409:A2 I *D sg13g2_a21oi_1
*I *1407:A2 I *D sg13g2_a21oi_1
*I *1414:A2 I *D sg13g2_a21oi_1
*I *2108:X O *D sg13g2_buf_1
*CAP
1 *2110:A 0.000289577
2 *1416:A2 0
3 *1409:A2 0
4 *1407:A2 0
5 *1414:A2 2.73107e-05
6 *2108:X 2.77263e-05
7 *942:41 0.000518821
8 *942:30 0.00057347
9 *942:23 0.000146585
10 *942:8 0.000392569
11 *942:6 0.000590625
12 *942:8 *1114:8 0
13 *942:23 *1114:10 0
14 *942:23 *1114:32 0
15 *942:30 *1114:8 0
16 *1407:A1 *942:23 7.52149e-05
17 *1407:B1 *942:23 0
18 *1408:B *942:8 0
19 *1408:B *942:30 0
20 *1409:B1 *942:30 0
21 *1414:A1 *942:23 0
22 *1414:B1 *1414:A2 0
23 *1977:D *1414:A2 4.78521e-05
24 *1977:D *942:8 0.000306794
25 *1979:RESET_B *942:41 0
26 *486:8 *942:23 0.00012816
27 *720:8 *2110:A 0
28 *720:8 *942:41 0
29 *720:16 *2110:A 0
30 *911:27 *942:23 4.77425e-05
31 *911:97 *942:30 0
32 *919:35 *942:30 0
*RES
1 *2108:X *942:6 20.2992 
2 *942:6 *942:8 2.1208 
3 *942:8 *1414:A2 20.2728 
4 *942:8 *942:23 41.4168 
5 *942:23 *1407:A2 20 
6 *942:6 *942:30 3.0448 
7 *942:30 *1409:A2 20 
8 *942:30 *942:41 1.9536 
9 *942:41 *1416:A2 20 
10 *942:41 *2110:A 22.8952 
*END

*D_NET *941 0.00535017
*CONN
*I *1412:A2 I *D sg13g2_a21oi_1
*I *1411:B I *D sg13g2_nor2_1
*I *1413:B I *D sg13g2_nor2_1
*I *1415:B I *D sg13g2_nor2_1
*I *2108:A I *D sg13g2_buf_1
*I *1408:B I *D sg13g2_nor2_1
*I *1406:B I *D sg13g2_nor2_1
*I *1405:A2 I *D sg13g2_a21oi_1
*I *2107:X O *D sg13g2_buf_1
*CAP
1 *1412:A2 3.37061e-05
2 *1411:B 3.13021e-05
3 *1413:B 0.000177133
4 *1415:B 0.000172672
5 *2108:A 6.32154e-05
6 *1408:B 0.000133541
7 *1406:B 4.60605e-05
8 *1405:A2 0.000219806
9 *2107:X 0.000622304
10 *941:51 0.000262757
11 *941:47 0.000436161
12 *941:36 0.000415549
13 *941:32 0.000560257
14 *941:28 0.000347919
15 *941:24 0.000541698
16 *1408:B *942:8 0
17 *1408:B *942:30 0
18 *1413:B *1033:8 0
19 *2108:A *1114:10 0.000235556
20 *941:24 *1114:53 0
21 *941:36 *1033:8 4.7526e-05
22 *941:47 *1030:8 0
23 *941:51 *1114:10 0.000235055
24 *1405:B1 *1405:A2 0
25 *1406:A *1406:B 0
26 *1406:A *941:36 0
27 *1408:A *1408:B 0
28 *1408:A *1415:B 0
29 *1411:A *1411:B 0
30 *1412:A1 *941:24 0.000692735
31 *1412:A1 *941:28 7.52149e-05
32 *1412:B1 *1411:B 0
33 *1412:B1 *1412:A2 0
34 *1412:B1 *1413:B 0
35 *1412:B1 *941:32 0
36 *1414:B1 *1413:B 0
37 *1977:D *1413:B 0
38 *1981:RESET_B *1405:A2 0
39 *1981:D *1405:A2 0
40 *486:8 *2108:A 0
41 *486:8 *941:51 0
42 *919:20 *1405:A2 0
43 *919:35 *941:24 0
*RES
1 *2107:X *1405:A2 41.892 
2 *2107:X *941:24 44.2152 
3 *941:24 *941:28 21.144 
4 *941:28 *941:32 2.0504 
5 *941:32 *941:36 1.6808 
6 *941:36 *1406:B 20.5324 
7 *941:36 *941:47 1.936 
8 *941:47 *941:51 20.9328 
9 *941:51 *1408:B 41.7512 
10 *941:51 *2108:A 40.9328 
11 *941:47 *1415:B 21.7512 
12 *941:32 *1413:B 22.0768 
13 *941:28 *1411:B 20.2728 
14 *941:24 *1412:A2 40.2728 
*END

*D_NET *920 0.0075063
*CONN
*I *1434:A2 I *D sg13g2_a21oi_1
*I *1433:B I *D sg13g2_nor2_1
*I *1436:A2 I *D sg13g2_a21oi_1
*I *1435:B I *D sg13g2_nor2_1
*I *1427:A2 I *D sg13g2_a21oi_1
*I *1426:B I *D sg13g2_nor2_1
*I *1425:A2 I *D sg13g2_a21oi_1
*I *2123:X O *D sg13g2_buf_1
*CAP
1 *1434:A2 0
2 *1433:B 0
3 *1436:A2 0
4 *1435:B 0
5 *1427:A2 0
6 *1426:B 0
7 *1425:A2 0.00032071
8 *2123:X 0.000158206
9 *920:88 0.000369961
10 *920:73 0.000967285
11 *920:57 0.000130756
12 *920:47 0.000458639
13 *920:39 0.00119536
14 *920:30 0.00038322
15 *920:21 0.000399552
16 *920:8 0.000765402
17 *920:73 *1366:A 0
18 *920:73 *1467:A1 0
19 *920:88 *1165:10 0
20 *1425:A1 *1425:A2 1.53311e-05
21 *1434:A1 *920:73 0
22 *1434:A1 *920:88 0.000176753
23 *1434:B1 *920:73 0
24 *1434:B1 *920:88 4.78343e-05
25 *1435:A *920:47 0
26 *1435:A *920:57 0.000181695
27 *1467:A0 *920:73 0
28 *1941:RESET_B *920:73 0
29 *1941:D *920:47 0
30 *1941:D *920:57 4.77425e-05
31 *1942:D *920:73 8.03692e-05
32 *1971:RESET_B *1425:A2 0.000288852
33 *1971:RESET_B *920:21 0.000501736
34 *2303:A *920:47 0.000209505
35 *2303:A *920:57 4.77425e-05
36 *2303:A *920:88 0.000176753
37 *37:8 *920:21 0
38 *40:10 *920:88 0
39 *67:8 *920:57 0.00023547
40 *411:12 *920:57 7.52149e-05
41 *453:8 *920:21 0
42 *453:8 *920:30 0
43 *453:8 *920:39 0
44 *453:8 *920:57 0
45 *458:8 *920:30 0
46 *458:8 *920:39 0
47 *458:8 *920:47 0
48 *497:8 *920:21 7.55443e-05
49 *497:8 *920:30 0.000181279
50 *502:8 *920:47 0
51 *611:10 *920:88 0
52 *714:26 *1425:A2 1.53875e-05
53 *714:26 *920:8 0
54 *714:30 *1425:A2 0
55 *900:12 *1425:A2 0
56 *900:12 *920:8 0
*RES
1 *2123:X *920:8 41.1968 
2 *920:8 *1425:A2 43.08 
3 *920:8 *920:21 3.4672 
4 *920:21 *1426:B 40 
5 *920:21 *920:30 1.3552 
6 *920:30 *1427:A2 40 
7 *920:30 *920:39 3.0448 
8 *920:39 *920:47 23.2208 
9 *920:47 *920:57 41.6896 
10 *920:57 *1435:B 20 
11 *920:47 *1436:A2 20 
12 *920:39 *920:73 25.5616 
13 *920:73 *1433:B 20 
14 *920:73 *920:88 43.432 
15 *920:88 *1434:A2 20 
*END

*D_NET *919 0.0158204
*CONN
*I *1404:B I *D sg13g2_nor2_1
*I *1430:A2 I *D sg13g2_a21oi_1
*I *1432:A2 I *D sg13g2_a21oi_1
*I *1431:B I *D sg13g2_nor2_1
*I *2123:A I *D sg13g2_buf_1
*I *1418:A2 I *D sg13g2_a21oi_1
*I *2107:A I *D sg13g2_buf_1
*I *2122:X O *D sg13g2_buf_1
*CAP
1 *1404:B 0
2 *1430:A2 0.000193204
3 *1432:A2 0.000129805
4 *1431:B 2.41961e-05
5 *2123:A 0.000684481
6 *1418:A2 0
7 *2107:A 0
8 *2122:X 0.000241959
9 *919:67 0.000422261
10 *919:54 0.00126586
11 *919:48 0.000791571
12 *919:35 0.0020751
13 *919:20 0.00208452
14 *919:12 0.000783722
15 *919:8 0.000731019
16 *1430:A2 *1113:22 0
17 *2123:A *1428:A 0
18 *919:8 *939:57 0
19 *919:8 *1038:25 0.000661887
20 *919:12 *1401:A 0
21 *919:12 *939:47 0.000241847
22 *919:20 *1405:A2 0
23 *919:35 *1976:CLK 0
24 *919:35 *941:24 0
25 *919:35 *942:30 0
26 *919:35 *1114:41 0
27 *919:35 *1114:45 0
28 *919:35 *1114:53 0
29 *919:35 *1114:74 0
30 *919:54 *1335:A2 0.000181694
31 *1398:A1 *919:8 0
32 *1405:B1 *919:12 0
33 *1405:B1 *919:20 0
34 *1418:B1 *919:35 0
35 *1418:B1 *919:48 0
36 *1430:B1 *1430:A2 0
37 *1432:A1 *1432:A2 7.52149e-05
38 *1432:B1 *1432:A2 0
39 *1975:D *919:35 0
40 *1975:CLK *919:35 0
41 *1979:RESET_B *919:35 0
42 *1981:D *919:12 0
43 *1983:RESET_B *919:12 0
44 *283:10 *1432:A2 0
45 *283:10 *919:67 0
46 *434:14 *919:48 0.000929035
47 *434:14 *919:54 0.000500123
48 *436:12 *1432:A2 0.00026599
49 *436:12 *919:54 0.000771565
50 *436:12 *919:67 0.000907969
51 *499:8 *919:48 0
52 *612:30 *1432:A2 0
53 *612:30 *919:67 0
54 *625:25 *919:20 0.000145052
55 *714:26 *2123:A 0
56 *720:16 *919:35 0
57 *721:90 *2123:A 0
58 *721:96 *2123:A 0
59 *721:96 *919:67 0
60 *721:102 *1430:A2 0
61 *721:102 *2123:A 0
62 *907:6 *919:35 0
63 *911:27 *919:35 0.000565196
64 *911:29 *919:35 0.000339475
65 *911:40 *919:20 0.00011229
66 *911:40 *919:35 0.000291393
67 *911:97 *919:35 0.00040395
68 *915:12 *919:48 0
*RES
1 *2122:X *919:8 42.6224 
2 *919:8 *919:12 24.5232 
3 *919:12 *919:20 2.6488 
4 *919:20 *2107:A 20 
5 *919:20 *919:35 16.4648 
6 *919:35 *1418:A2 20 
7 *919:35 *919:48 43.9512 
8 *919:48 *919:54 24.5584 
9 *919:54 *2123:A 45.984 
10 *919:54 *919:67 3.6784 
11 *919:67 *1431:B 40.2728 
12 *919:67 *1432:A2 41.4168 
13 *919:48 *1430:A2 21.7512 
14 *919:12 *1404:B 20 
*END

*D_NET *925 0.0163105
*CONN
*I *1390:S I *D sg13g2_mux2_1
*I *1393:B I *D sg13g2_nor2_1
*I *2122:A I *D sg13g2_buf_1
*I *2105:A I *D sg13g2_buf_1
*I *1395:B I *D sg13g2_nor2_1
*I *1399:B I *D sg13g2_nor2_1
*I *1389:S I *D sg13g2_mux2_1
*I *1388:S I *D sg13g2_mux2_1
*I *2128:X O *D sg13g2_buf_1
*CAP
1 *1390:S 3.20849e-05
2 *1393:B 2.77263e-05
3 *2122:A 0.000713304
4 *2105:A 0
5 *1395:B 0.000173476
6 *1399:B 0.000263444
7 *1389:S 0.000111827
8 *1388:S 0
9 *2128:X 4.08322e-05
10 *925:92 0.000854336
11 *925:81 0.000416477
12 *925:68 0.000912396
13 *925:58 0.00125462
14 *925:39 0.00112849
15 *925:30 0.000126132
16 *925:24 0.00122986
17 *925:12 0.00251835
18 *925:8 0.00176012
19 *1395:B *1394:A2 0.000307133
20 *1395:B *1396:A2 0
21 *1399:B *1394:A2 0
22 *1399:B *1959:CLK 0
23 *1399:B *939:14 0
24 *2122:A *1340:A2 0.000448099
25 *2122:A *1348:A 0
26 *2122:A *1350:A2 0
27 *925:12 *1390:A1 0
28 *925:12 *2073:CLK 0
29 *925:12 *2083:CLK 0
30 *925:12 *1046:8 0
31 *925:12 *1095:33 0
32 *925:12 *1095:71 0
33 *925:12 *1095:77 0
34 *925:12 *1120:10 0
35 *925:12 *1120:12 0
36 *925:12 *1120:20 0
37 *925:12 *1120:69 0
38 *925:24 *1445:A1 7.34783e-05
39 *925:24 *927:10 0.0001448
40 *925:30 *927:10 0
41 *925:58 *1446:A1 0
42 *925:58 *1449:A1 0
43 *925:58 *1047:26 0
44 *925:68 *1450:A1 0.000767865
45 *925:68 *1960:CLK 0
46 *925:81 *1450:A1 0.000501874
47 *925:92 *1340:A2 0.000426746
48 *925:92 *1450:A1 7.52158e-05
49 *1350:A1 *2122:A 8.0216e-05
50 *1388:A0 *925:30 0
51 *1393:A *925:58 1.54556e-05
52 *1393:A *925:68 6.48039e-05
53 *1395:A *925:68 0.000767952
54 *1395:A *925:81 0.000373627
55 *1396:B1 *1395:B 0
56 *1398:B1 *2122:A 0
57 *1400:B1 *1399:B 0
58 *1446:A0 *925:58 0
59 *1447:A *925:12 0.000342122
60 *1848:B1 *2122:A 0
61 *1959:D *925:68 4.78359e-05
62 *1960:RESET_B *925:68 0
63 *1962:D *925:58 0
64 *1984:RESET_B *2122:A 0
65 *1984:D *2122:A 0
66 *1989:RESET_B *925:24 0
67 *1989:D *925:24 0
68 *2128:A *925:12 0.000127744
69 *438:12 *2122:A 0
70 *438:12 *925:92 0
71 *505:44 *925:24 0
72 *579:8 *2122:A 0
73 *579:52 *2122:A 0
74 *606:10 *925:12 0.000182023
75 *606:10 *925:24 0
76 *607:8 *1389:S 0
77 *719:8 *925:58 0
78 *719:12 *925:58 0
79 *719:55 *925:68 0
80 *721:59 *2122:A 0
81 *873:22 *925:12 0
*RES
1 *2128:X *925:8 40.2728 
2 *925:8 *925:12 35.7168 
3 *925:12 *925:24 47.4536 
4 *925:24 *925:30 40.9328 
5 *925:30 *1388:S 20 
6 *925:24 *925:39 23.4144 
7 *925:39 *1389:S 40.9328 
8 *925:39 *925:58 26.2128 
9 *925:58 *925:68 27.0312 
10 *925:68 *1399:B 42.0504 
11 *925:68 *925:81 1.9888 
12 *925:81 *1395:B 41.7512 
13 *925:81 *925:92 1.9888 
14 *925:92 *2105:A 40 
15 *925:92 *2122:A 46.9696 
16 *925:58 *1393:B 20.2992 
17 *925:12 *1390:S 20.2728 
*END

*D_NET *937 0.00781107
*CONN
*I *2071:RESET_B I *D sg13g2_dfrbpq_1
*I *1991:RESET_B I *D sg13g2_dfrbpq_1
*I *1992:RESET_B I *D sg13g2_dfrbpq_1
*I *2070:RESET_B I *D sg13g2_dfrbpq_1
*I *2074:RESET_B I *D sg13g2_dfrbpq_1
*I *2059:RESET_B I *D sg13g2_dfrbpq_1
*I *2103:X O *D sg13g2_buf_1
*CAP
1 *2071:RESET_B 0
2 *1991:RESET_B 0
3 *1992:RESET_B 0
4 *2070:RESET_B 0
5 *2074:RESET_B 0.000308423
6 *2059:RESET_B 0
7 *2103:X 2.9025e-05
8 *937:62 0.000513986
9 *937:47 0.000736918
10 *937:38 0.000901176
11 *937:34 0.00107564
12 *937:12 0.00044239
13 *937:6 0.000560391
14 *2074:RESET_B *2074:CLK 0
15 *2074:RESET_B *1106:27 0
16 *937:12 *2249:A 0.000112182
17 *937:34 *2249:A 0.000240167
18 *1750:A2 *937:38 0
19 *1992:D *937:47 0
20 *1992:D *937:62 0
21 *2047:RESET_B *937:62 0
22 *2077:RESET_B *2074:RESET_B 0.000307133
23 *147:8 *937:62 0
24 *252:16 *937:38 0
25 *254:10 *937:38 0.000208027
26 *310:14 *937:62 0
27 *399:12 *2074:RESET_B 0.000586256
28 *399:12 *937:12 0.00034026
29 *844:107 *937:47 0
30 *851:12 *2074:RESET_B 5.30319e-05
31 *851:14 *2074:RESET_B 0.000554162
32 *851:14 *937:12 0.000340181
33 *873:56 *937:38 0
34 *873:56 *937:62 0
35 *873:68 *937:62 0.000501719
*RES
1 *2103:X *937:6 20.2992 
2 *937:6 *937:12 21.9976 
3 *937:12 *2059:RESET_B 40 
4 *937:12 *2074:RESET_B 44.3472 
5 *937:6 *937:34 3.5816 
6 *937:34 *937:38 5.984 
7 *937:38 *2070:RESET_B 20 
8 *937:38 *937:47 2.0768 
9 *937:47 *1992:RESET_B 20 
10 *937:47 *937:62 44.8576 
11 *937:62 *1991:RESET_B 20 
12 *937:34 *2071:RESET_B 20 
*END

*D_NET *938 0.0118257
*CONN
*I *1993:RESET_B I *D sg13g2_dfrbpq_1
*I *1994:RESET_B I *D sg13g2_dfrbpq_1
*I *2056:RESET_B I *D sg13g2_dfrbpq_1
*I *2057:RESET_B I *D sg13g2_dfrbpq_1
*I *2053:RESET_B I *D sg13g2_dfrbpq_1
*I *2076:RESET_B I *D sg13g2_dfrbpq_1
*I *2075:RESET_B I *D sg13g2_dfrbpq_1
*I *2078:RESET_B I *D sg13g2_dfrbpq_1
*I *2104:X O *D sg13g2_buf_1
*CAP
1 *1993:RESET_B 0
2 *1994:RESET_B 0.000401475
3 *2056:RESET_B 0.000807423
4 *2057:RESET_B 2.56635e-05
5 *2053:RESET_B 0.000199036
6 *2076:RESET_B 0.000113286
7 *2075:RESET_B 0
8 *2078:RESET_B 0.000341295
9 *2104:X 0.000472721
10 *938:71 0.00132887
11 *938:60 0.000903701
12 *938:54 0.000806955
13 *938:46 0.000817277
14 *938:29 0.000974754
15 *938:20 0.000372216
16 *1994:RESET_B *1106:15 0
17 *2053:RESET_B *1106:15 0
18 *2056:RESET_B *2063:CLK 0.000238641
19 *2056:RESET_B *1139:32 7.67102e-05
20 *938:46 *1993:CLK 0.000874211
21 *938:46 *1115:29 0
22 *938:46 *1115:31 0
23 *938:60 *1106:15 0
24 *1694:A1 *2056:RESET_B 0
25 *1694:B1 *2056:RESET_B 0
26 *1781:A0 *2053:RESET_B 0
27 *1783:A1 *2056:RESET_B 8.03692e-05
28 *1783:A2 *2056:RESET_B 0
29 *1785:B *2056:RESET_B 0
30 *1785:A *2056:RESET_B 0
31 *1841:B *938:46 0
32 *2027:RESET_B *938:20 0
33 *2027:RESET_B *938:29 0
34 *2027:D *2076:RESET_B 8.0216e-05
35 *2027:D *2078:RESET_B 0.000242483
36 *2027:D *938:20 0.000209593
37 *2027:D *938:29 0.00038867
38 *2056:D *2056:RESET_B 0
39 *2078:D *2078:RESET_B 0
40 *149:12 *938:54 0
41 *149:12 *938:60 0
42 *214:14 *2056:RESET_B 0
43 *214:22 *2056:RESET_B 4.78192e-05
44 *236:12 *2078:RESET_B 0
45 *281:8 *938:71 0
46 *310:14 *2076:RESET_B 8.02927e-05
47 *385:24 *2056:RESET_B 0
48 *385:24 *2057:RESET_B 4.77863e-05
49 *517:16 *2057:RESET_B 4.77863e-05
50 *833:38 *2056:RESET_B 0
51 *834:12 *938:54 0
52 *834:12 *938:60 0
53 *834:37 *1994:RESET_B 0.000436275
54 *851:77 *2078:RESET_B 0.000501786
55 *887:12 *938:54 0
56 *887:12 *938:60 0.000130055
57 *887:12 *938:71 0.000778344
58 *896:10 *938:71 0
59 *897:8 *2053:RESET_B 0
60 *897:23 *2053:RESET_B 0
*RES
1 *2104:X *2078:RESET_B 43.5816 
2 *2104:X *938:20 21.1968 
3 *938:20 *2075:RESET_B 20 
4 *938:20 *938:29 22.3056 
5 *938:29 *2076:RESET_B 40.968 
6 *938:29 *938:46 25.8256 
7 *938:46 *938:54 41.6016 
8 *938:54 *938:60 21.892 
9 *938:60 *2053:RESET_B 41.7512 
10 *938:60 *938:71 5.368 
11 *938:71 *2057:RESET_B 40.2728 
12 *938:71 *2056:RESET_B 47.2776 
13 *938:54 *1994:RESET_B 23.784 
14 *938:46 *1993:RESET_B 20 
*END

*D_NET *936 0.0101378
*CONN
*I *2060:RESET_B I *D sg13g2_dfrbpq_1
*I *2055:RESET_B I *D sg13g2_dfrbpq_1
*I *2054:RESET_B I *D sg13g2_dfrbpq_1
*I *2062:RESET_B I *D sg13g2_dfrbpq_1
*I *2061:RESET_B I *D sg13g2_dfrbpq_1
*I *2063:RESET_B I *D sg13g2_dfrbpq_1
*I *2064:RESET_B I *D sg13g2_dfrbpq_1
*I *2051:RESET_B I *D sg13g2_dfrbpq_1
*I *2102:X O *D sg13g2_buf_1
*CAP
1 *2060:RESET_B 9.7775e-05
2 *2055:RESET_B 0.000206408
3 *2054:RESET_B 2.68526e-05
4 *2062:RESET_B 0.000166002
5 *2061:RESET_B 2.77263e-05
6 *2063:RESET_B 0.000495572
7 *2064:RESET_B 0
8 *2051:RESET_B 0.000247802
9 *2102:X 6.68694e-05
10 *936:85 0.000973993
11 *936:70 0.00132275
12 *936:59 0.000827511
13 *936:44 0.000683918
14 *936:34 0.00130023
15 *936:21 0.00126905
16 *936:8 0.000982169
17 *936:6 0.000358072
18 *2051:RESET_B *1147:31 0
19 *2051:RESET_B *1147:35 1.54556e-05
20 *2055:RESET_B *1139:8 0
21 *2055:RESET_B *1139:17 0
22 *2062:RESET_B *2061:CLK 0
23 *2062:RESET_B *2062:CLK 0
24 *936:8 *1147:31 0
25 *936:21 *1100:64 0
26 *936:21 *1106:27 0
27 *936:21 *1147:21 0
28 *936:21 *1147:31 0
29 *936:34 *1106:27 0
30 *936:34 *1106:43 0
31 *936:70 *1106:43 0
32 *936:85 *1106:43 0
33 *936:85 *1139:8 0
34 *1760:A *936:85 4.78195e-05
35 *1760:B *936:85 0
36 *1763:A *936:44 0
37 *1766:A1 *2063:RESET_B 0
38 *1766:A2 *2063:RESET_B 0.000145056
39 *1774:A1 *2063:RESET_B 0
40 *1774:B1 *2063:RESET_B 8.01938e-05
41 *1852:A *936:59 0
42 *1853:A *936:44 0
43 *1853:B *936:59 0.000234224
44 *2054:D *2055:RESET_B 0
45 *2055:D *2055:RESET_B 0
46 *2060:D *936:6 0
47 *2060:D *936:8 0.000177399
48 *2062:D *2062:RESET_B 0
49 *2063:D *2063:RESET_B 0
50 *2064:D *936:21 0
51 *2064:D *936:34 0
52 *263:23 *936:59 0
53 *267:12 *2063:RESET_B 0
54 *267:38 *936:44 0
55 *273:24 *936:59 0
56 *273:24 *936:70 0
57 *273:24 *936:85 0
58 *274:8 *936:59 0.000181608
59 *276:25 *936:59 7.52149e-05
60 *277:10 *936:34 0
61 *277:10 *936:44 0.00012816
62 *277:10 *936:59 0
63 *385:18 *936:59 0
64 *385:24 *2063:RESET_B 0
65 *385:24 *936:44 0
66 *385:24 *936:59 0
67 *387:36 *2063:RESET_B 0
68 *404:36 *2060:RESET_B 0
69 *404:36 *936:8 0
70 *517:16 *2063:RESET_B 0
71 *851:69 *936:8 0
72 *877:8 *936:70 0
73 *878:10 *2063:RESET_B 0
74 *880:6 *936:85 0
75 *883:12 *936:44 0
76 *883:12 *936:70 0
77 *885:10 *936:8 0
*RES
1 *2102:X *936:6 20.7216 
2 *936:6 *936:8 1.936 
3 *936:8 *2051:RESET_B 22.2352 
4 *936:8 *936:21 24.9456 
5 *936:21 *2064:RESET_B 40 
6 *936:21 *936:34 5.9136 
7 *936:34 *936:44 41.7952 
8 *936:44 *2063:RESET_B 44.1536 
9 *936:34 *936:59 23.344 
10 *936:59 *2061:RESET_B 20.2992 
11 *936:59 *936:70 23.4672 
12 *936:70 *2062:RESET_B 41.5664 
13 *936:70 *936:85 26.8288 
14 *936:85 *2054:RESET_B 20.2992 
15 *936:85 *2055:RESET_B 21.8656 
16 *936:6 *2060:RESET_B 21.1792 
*END

*D_NET *1095 0.0117758
*CONN
*I *2072:RESET_B I *D sg13g2_dfrbpq_1
*I *2065:RESET_B I *D sg13g2_dfrbpq_1
*I *2073:RESET_B I *D sg13g2_dfrbpq_1
*I *2066:RESET_B I *D sg13g2_dfrbpq_1
*I *2069:RESET_B I *D sg13g2_dfrbpq_1
*I *2068:RESET_B I *D sg13g2_dfrbpq_1
*I *2067:RESET_B I *D sg13g2_dfrbpq_1
*I *2099:X O *D sg13g2_buf_1
*CAP
1 *2072:RESET_B 0.000581929
2 *2065:RESET_B 0
3 *2073:RESET_B 0
4 *2066:RESET_B 0
5 *2069:RESET_B 0
6 *2068:RESET_B 0
7 *2067:RESET_B 1.75704e-05
8 *2099:X 0.00024983
9 *1095:77 0.00111824
10 *1095:71 0.00145632
11 *1095:65 0.000495562
12 *1095:53 0.0010024
13 *1095:37 0.00144922
14 *1095:33 0.000914329
15 *1095:16 0.0011689
16 *1095:12 0.000509207
17 *2072:RESET_B *2083:CLK 1.54008e-05
18 *2072:RESET_B *1120:69 0
19 *2072:RESET_B *1120:73 0
20 *1095:12 *2249:A 0
21 *1095:12 *1117:78 0.00039202
22 *1095:16 *1117:78 0
23 *1095:33 *2121:A 0
24 *1095:33 *1100:20 0.000394981
25 *1095:33 *1120:69 0
26 *1095:37 *2121:A 0
27 *1095:53 *1117:14 0.000394566
28 *1095:65 *2121:A 0
29 *1095:71 *2121:A 0
30 *1095:77 *1987:CLK 1.54008e-05
31 *1288:C *1095:53 0
32 *1289:C *1095:53 0
33 *1290:A *1095:53 0
34 *1290:B *1095:53 0
35 *1390:A1 *1095:77 0
36 *1757:A1 *1095:37 0.000274375
37 *1757:A1 *1095:53 0
38 *1757:B1 *1095:37 8.01609e-05
39 *1961:RESET_B *1095:77 0
40 *2065:D *1095:71 0
41 *2069:D *1095:37 0
42 *2069:D *1095:53 0
43 *2072:D *2072:RESET_B 0
44 *2084:D *1095:77 0
45 *2128:A *2072:RESET_B 0
46 *395:10 *1095:37 0
47 *395:10 *1095:65 0
48 *401:12 *1095:33 0
49 *505:18 *1095:77 0
50 *721:16 *1095:12 0
51 *721:59 *1095:53 0
52 *844:26 *1095:77 0
53 *844:28 *1095:77 0.000341949
54 *844:58 *1095:53 0
55 *844:58 *1095:77 0.000341949
56 *864:8 *1095:53 0
57 *873:8 *2072:RESET_B 0
58 *873:22 *2072:RESET_B 0
59 *873:22 *1095:33 0.000129078
60 *873:33 *2072:RESET_B 6.97393e-05
61 *873:33 *1095:16 0
62 *873:50 *1095:12 0.000128439
63 *873:50 *1095:16 0
64 *925:12 *1095:33 0
65 *925:12 *1095:71 0
66 *925:12 *1095:77 0
67 *1046:8 *1095:77 0
68 *1046:40 *1095:53 0.000234224
*RES
1 *2099:X *1095:12 42.508 
2 *1095:12 *1095:16 22.3056 
3 *1095:16 *2067:RESET_B 20.2728 
4 *1095:16 *1095:33 43.5904 
5 *1095:33 *1095:37 4.3208 
6 *1095:37 *1095:53 49.2928 
7 *1095:53 *2068:RESET_B 20 
8 *1095:37 *2069:RESET_B 20 
9 *1095:33 *1095:65 1.3816 
10 *1095:65 *1095:71 23.2912 
11 *1095:71 *1095:77 31.264 
12 *1095:77 *2066:RESET_B 20 
13 *1095:71 *2073:RESET_B 40 
14 *1095:65 *2065:RESET_B 20 
15 *1095:16 *2072:RESET_B 25.4296 
*END

*D_NET *722 0.0134059
*CONN
*I *2002:RESET_B I *D sg13g2_dfrbpq_1
*I *1995:RESET_B I *D sg13g2_dfrbpq_1
*I *1998:RESET_B I *D sg13g2_dfrbpq_1
*I *1999:RESET_B I *D sg13g2_dfrbpq_1
*I *1997:RESET_B I *D sg13g2_dfrbpq_1
*I *1996:RESET_B I *D sg13g2_dfrbpq_1
*I *2000:RESET_B I *D sg13g2_dfrbpq_1
*I *2001:RESET_B I *D sg13g2_dfrbpq_1
*I *2095:X O *D sg13g2_buf_1
*CAP
1 *2002:RESET_B 2.77263e-05
2 *1995:RESET_B 0
3 *1998:RESET_B 0
4 *1999:RESET_B 0
5 *1997:RESET_B 0
6 *1996:RESET_B 0.000475811
7 *2000:RESET_B 0
8 *2001:RESET_B 0
9 *2095:X 0.000765555
10 *722:88 0.00078666
11 *722:78 0.00133301
12 *722:66 0.000249145
13 *722:56 0.00186211
14 *722:43 0.00123128
15 *722:23 0.000972632
16 *722:10 0.00105765
17 *722:6 0.00146333
18 *1996:RESET_B *1669:A2 0
19 *1996:RESET_B *1996:CLK 0
20 *1996:RESET_B *726:8 0
21 *722:6 *726:8 0
22 *722:10 *726:8 0
23 *722:23 *1669:A2 7.52158e-05
24 *722:23 *726:8 0
25 *722:23 *909:54 0.000287343
26 *722:78 *924:14 0
27 *722:88 cio_gpio_o[1] 0
28 *722:88 intr_gpio_o[3] 0
29 *722:88 *1792:S 0.000274332
30 *722:88 *1122:82 1.5412e-05
31 intr_gpio_o[0] *1996:RESET_B 0
32 *1664:A0 *722:10 0
33 *1665:A0 *722:23 0
34 *1666:A1 *722:66 0
35 *1668:A *722:23 0
36 *1669:A1 *722:23 0
37 *1789:A1 *722:66 2.24232e-05
38 *1792:A1 *722:88 0
39 *1995:D *722:88 0
40 *1997:D *722:6 0
41 *1998:D *722:66 0
42 *1998:CLK *722:56 0
43 *1999:D *722:66 0
44 *2000:D *722:23 0
45 *2020:CLK *722:56 0
46 *2021:RESET_B *722:6 0
47 *2146:A *722:78 0
48 *2148:A *722:78 0
49 *141:10 *722:10 0.000306662
50 *205:22 *722:6 0
51 *205:22 *722:10 0
52 *283:10 *722:56 0
53 *362:63 *722:6 0.000209779
54 *410:16 *722:10 0
55 *410:16 *722:23 0
56 *569:25 *1996:RESET_B 0
57 *573:10 *722:88 0.000129078
58 *701:27 *722:88 0
59 *708:18 *722:88 0.000306657
60 *710:26 *722:56 0
61 *710:32 *722:56 0.000209505
62 *710:32 *722:66 0.000307095
63 *710:32 *722:78 0.000907479
64 *711:12 *722:66 0.000130055
*RES
1 *2095:X *722:6 26.3712 
2 *722:6 *722:10 5.192 
3 *722:10 *2001:RESET_B 20 
4 *722:10 *722:23 44.5584 
5 *722:23 *2000:RESET_B 20 
6 *722:23 *1996:RESET_B 24.224 
7 *722:6 *722:43 21.144 
8 *722:43 *1997:RESET_B 40 
9 *722:43 *722:56 28.8352 
10 *722:56 *722:66 42.5344 
11 *722:66 *1999:RESET_B 20 
12 *722:56 *1998:RESET_B 20 
13 *722:56 *722:78 5.2624 
14 *722:78 *722:88 47.392 
15 *722:88 *1995:RESET_B 20 
16 *722:78 *2002:RESET_B 20.2992 
*END

*D_NET *903 0.00721003
*CONN
*I *1958:RESET_B I *D sg13g2_dfrbpq_1
*I *1956:RESET_B I *D sg13g2_dfrbpq_1
*I *1954:RESET_B I *D sg13g2_dfrbpq_1
*I *1953:RESET_B I *D sg13g2_dfrbpq_1
*I *1950:RESET_B I *D sg13g2_dfrbpq_1
*I *1951:RESET_B I *D sg13g2_dfrbpq_1
*I *1955:RESET_B I *D sg13g2_dfrbpq_1
*I *1957:RESET_B I *D sg13g2_dfrbpq_1
*I *2089:X O *D sg13g2_buf_1
*CAP
1 *1958:RESET_B 0
2 *1956:RESET_B 0
3 *1954:RESET_B 0.000276036
4 *1953:RESET_B 0.000585731
5 *1950:RESET_B 0
6 *1951:RESET_B 0
7 *1955:RESET_B 2.77263e-05
8 *1957:RESET_B 0.000272354
9 *2089:X 2.36489e-05
10 *903:47 0.000802091
11 *903:38 0.000784791
12 *903:29 0.000624533
13 *903:27 0.000913084
14 *903:23 0.00111181
15 *903:17 0.000817373
16 *903:6 0.000610243
17 *1953:RESET_B *2109:A 0
18 *1953:RESET_B *927:85 0
19 *1954:RESET_B *1955:CLK 1.53311e-05
20 *1954:RESET_B *927:85 0
21 *1957:RESET_B *927:66 0
22 *903:17 *1960:CLK 0
23 *903:17 *927:85 0
24 *903:17 *1118:36 0
25 *903:23 *1451:A1 0
26 *903:23 *927:85 0
27 *903:27 *1453:S 0
28 *903:27 *1955:CLK 0
29 *903:38 *1455:A1 0
30 *903:38 *1455:S 0
31 *903:38 *1458:A1 0
32 *903:38 *906:27 0
33 *903:47 *906:27 0
34 *1456:A0 *1953:RESET_B 5.69484e-05
35 *1950:CLK *1953:RESET_B 0
36 *1953:D *1953:RESET_B 1.53871e-05
37 *1954:D *1954:RESET_B 0
38 *1954:D *903:38 0
39 *1955:D *903:27 0
40 *1956:D *903:27 1.5412e-05
41 *1957:D *1957:RESET_B 0
42 *1958:D *903:17 0
43 *2089:A *1957:RESET_B 0
44 *57:10 *903:38 0.000242137
45 *57:10 *903:47 1.54008e-05
46 *623:10 *903:47 0
*RES
1 *2089:X *903:6 20.2992 
2 *903:6 *1957:RESET_B 22.7632 
3 *903:6 *903:17 3.0448 
4 *903:17 *903:23 4.4352 
5 *903:23 *903:27 5.6144 
6 *903:27 *903:29 0.2992 
7 *903:29 *1955:RESET_B 20.2992 
8 *903:29 *903:38 5.2624 
9 *903:38 *1951:RESET_B 20 
10 *903:38 *903:47 2.0768 
11 *903:47 *1950:RESET_B 20 
12 *903:47 *1953:RESET_B 25.5792 
13 *903:27 *1954:RESET_B 23.2912 
14 *903:23 *1956:RESET_B 20 
15 *903:17 *1958:RESET_B 20 
*END

*D_NET *719 0.00589414
*CONN
*I *1959:RESET_B I *D sg13g2_dfrbpq_1
*I *2089:A I *D sg13g2_buf_1
*I *1960:RESET_B I *D sg13g2_dfrbpq_1
*I *1962:RESET_B I *D sg13g2_dfrbpq_1
*I *1988:RESET_B I *D sg13g2_dfrbpq_1
*I *1963:RESET_B I *D sg13g2_dfrbpq_1
*I *1989:RESET_B I *D sg13g2_dfrbpq_1
*I *2092:X O *D sg13g2_buf_1
*CAP
1 *1959:RESET_B 3.04198e-05
2 *2089:A 0.000239261
3 *1960:RESET_B 0.0001775
4 *1962:RESET_B 0
5 *1988:RESET_B 0
6 *1963:RESET_B 0
7 *1989:RESET_B 0.000197132
8 *2092:X 0.000780076
9 *719:59 0.000547317
10 *719:55 0.000538017
11 *719:29 6.80736e-05
12 *719:14 0.000632585
13 *719:12 0.00077456
14 *719:8 0.000810215
15 *1959:RESET_B *1960:CLK 4.77425e-05
16 *1960:RESET_B *925:68 0
17 *1960:RESET_B *927:40 0
18 *1989:RESET_B *1963:CLK 0
19 *1989:RESET_B *1989:CLK 0
20 *1989:RESET_B *925:24 0
21 *2089:A *1450:A1 7.99179e-05
22 *2089:A *1957:RESET_B 0
23 *2089:A *1960:CLK 0
24 *2089:A *927:40 0
25 *2089:A *927:55 0
26 *719:8 *925:58 0
27 *719:12 *1389:A1 0
28 *719:12 *1988:CLK 0
29 *719:12 *925:58 0
30 *719:14 *1388:A1 0
31 *719:14 *1988:CLK 0
32 *719:29 *1388:A1 0
33 *719:29 *1445:A1 0.000235228
34 *719:55 *1960:CLK 0
35 *719:55 *925:68 0
36 *719:55 *1040:8 0
37 *1395:A *719:55 0.000288087
38 *1395:A *719:59 0.000448013
39 *1959:D *2089:A 0
40 *1962:D *719:8 0
41 *1962:D *719:12 0
42 *1988:D *719:12 0
43 *1988:D *719:14 0
44 *1989:D *1989:RESET_B 0
45 *1989:D *719:14 0
*RES
1 *2092:X *719:8 23.9776 
2 *719:8 *719:12 3.7136 
3 *719:12 *719:14 3.4144 
4 *719:14 *1989:RESET_B 21.8656 
5 *719:14 *719:29 40.9328 
6 *719:29 *1963:RESET_B 20 
7 *719:12 *1988:RESET_B 20 
8 *719:8 *1962:RESET_B 20 
9 *2092:X *719:55 43.8192 
10 *719:55 *719:59 21.7776 
11 *719:59 *1960:RESET_B 21.6808 
12 *719:59 *2089:A 22.2352 
13 *719:55 *1959:RESET_B 40.2728 
*END

*D_NET *905 0.0112395
*CONN
*I *1971:RESET_B I *D sg13g2_dfrbpq_1
*I *1946:RESET_B I *D sg13g2_dfrbpq_1
*I *1945:RESET_B I *D sg13g2_dfrbpq_1
*I *1972:RESET_B I *D sg13g2_dfrbpq_1
*I *1970:RESET_B I *D sg13g2_dfrbpq_1
*I *1973:RESET_B I *D sg13g2_dfrbpq_1
*I *1948:RESET_B I *D sg13g2_dfrbpq_1
*I *1974:RESET_B I *D sg13g2_dfrbpq_1
*I *2098:X O *D sg13g2_buf_1
*CAP
1 *1971:RESET_B 0.000591125
2 *1946:RESET_B 0
3 *1945:RESET_B 2.77263e-05
4 *1972:RESET_B 0
5 *1970:RESET_B 0
6 *1973:RESET_B 3.28728e-05
7 *1948:RESET_B 0.00021152
8 *1974:RESET_B 0
9 *2098:X 0.000156355
10 *905:98 0.000346946
11 *905:81 0.00107782
12 *905:71 0.0013925
13 *905:60 0.00050021
14 *905:53 0.000719448
15 *905:24 0.00124754
16 *905:14 0.00138908
17 *905:8 0.000794002
18 *1971:RESET_B *1425:A2 0.000288852
19 *1971:RESET_B *920:21 0.000501736
20 *1971:RESET_B *1054:10 0
21 *905:8 *907:21 0.000274545
22 *905:24 *1423:A2 0
23 *905:24 *907:36 0
24 *905:60 *1113:50 0
25 *905:71 *1113:50 0.000181608
26 *905:81 *1113:50 4.77425e-05
27 *905:98 *915:87 0
28 *1946:D *905:81 0
29 *1946:D *905:98 4.79124e-05
30 *1946:CLK *905:98 0
31 *1947:RESET_B *905:24 0.000177224
32 *1948:D *1948:RESET_B 0
33 *1948:CLK *1948:RESET_B 0
34 *1972:D *905:71 0
35 *1972:D *905:81 0
36 *1973:D *905:14 0
37 *1973:D *905:24 0
38 *1973:CLK *905:14 0.000238641
39 *1973:CLK *905:53 0.00099409
40 *36:8 *1971:RESET_B 0
41 *36:8 *905:71 0
42 *37:8 *1971:RESET_B 0
43 *458:8 *1971:RESET_B 0
44 *477:12 *905:24 0
45 *477:16 *1973:RESET_B 0
46 *477:16 *905:8 0
47 *477:16 *905:14 0
48 *477:16 *905:24 0
49 *477:80 *905:24 0
50 *714:26 *905:81 0
51 *714:30 *905:81 0
52 *714:62 *1971:RESET_B 0
53 *720:67 *905:14 0
54 *720:67 *905:24 0
55 *721:110 *1971:RESET_B 0
56 *721:110 *905:71 0
57 *900:12 *1971:RESET_B 0
*RES
1 *2098:X *905:8 41.5664 
2 *905:8 *905:14 23.5024 
3 *905:14 *905:24 9.3896 
4 *905:24 *1974:RESET_B 20 
5 *905:24 *1948:RESET_B 21.8656 
6 *905:14 *1973:RESET_B 20.4928 
7 *905:8 *905:53 24.1624 
8 *905:53 *1970:RESET_B 20 
9 *905:53 *905:60 3.4144 
10 *905:60 *1972:RESET_B 20 
11 *905:60 *905:71 21.2056 
12 *905:71 *905:81 26.292 
13 *905:81 *1945:RESET_B 20.2992 
14 *905:81 *905:98 43.2208 
15 *905:98 *1946:RESET_B 20 
16 *905:71 *1971:RESET_B 46.0632 
*END

*D_NET *720 0.00778439
*CONN
*I *2098:A I *D sg13g2_buf_1
*I *1947:RESET_B I *D sg13g2_dfrbpq_1
*I *1944:RESET_B I *D sg13g2_dfrbpq_1
*I *1949:RESET_B I *D sg13g2_dfrbpq_1
*I *1975:RESET_B I *D sg13g2_dfrbpq_1
*I *1979:RESET_B I *D sg13g2_dfrbpq_1
*I *1976:RESET_B I *D sg13g2_dfrbpq_1
*I *2093:X O *D sg13g2_buf_1
*CAP
1 *2098:A 0.000244027
2 *1947:RESET_B 0.000199003
3 *1944:RESET_B 0
4 *1949:RESET_B 0
5 *1975:RESET_B 0.00015502
6 *1979:RESET_B 0.000242716
7 *1976:RESET_B 0
8 *2093:X 0.000409921
9 *720:67 0.000886412
10 *720:56 0.000677492
11 *720:49 0.000230848
12 *720:41 0.000607724
13 *720:16 0.000458293
14 *720:12 0.000664242
15 *720:8 0.000846332
16 *1947:RESET_B *905:24 0.000177224
17 *1975:RESET_B *1335:A2 0
18 *1979:RESET_B *919:35 0
19 *1979:RESET_B *942:41 0
20 *720:8 *2110:A 0
21 *720:8 *942:41 0
22 *720:12 *1335:A2 0
23 *720:12 *1460:A1 0
24 *720:16 *2110:A 0
25 *720:16 *919:35 0
26 *720:49 *1460:A1 0.000555822
27 *720:49 *915:8 0
28 *720:67 *905:14 0
29 *720:67 *905:24 0
30 *1416:A1 *1975:RESET_B 0
31 *1416:A1 *720:12 0
32 *1423:A1 *2098:A 0.000662717
33 *1944:D *720:56 0
34 *1973:D *720:67 0
35 *32:8 *720:12 0
36 *477:20 *720:56 0
37 *477:24 *720:49 7.51285e-05
38 *477:30 *720:8 0
39 *477:30 *720:41 0.000242055
40 *477:30 *720:49 0
41 *477:30 *720:56 3.23417e-05
42 *491:10 *720:8 0
43 *491:10 *720:12 0
44 *495:10 *1947:RESET_B 0
45 *495:10 *2098:A 7.51285e-05
46 *495:10 *720:67 0.000341949
47 *613:8 *720:67 0
48 *619:21 *720:49 0
*RES
1 *2093:X *720:8 23.344 
2 *720:8 *720:12 23.0448 
3 *720:12 *720:16 21.936 
4 *720:16 *1976:RESET_B 20 
5 *720:16 *1979:RESET_B 22.0768 
6 *720:12 *1975:RESET_B 41.5664 
7 *720:8 *720:41 1.3816 
8 *720:41 *720:49 42.4728 
9 *720:49 *1949:RESET_B 20 
10 *720:41 *720:56 2.1208 
11 *720:56 *1944:RESET_B 20 
12 *720:56 *720:67 24.5848 
13 *720:67 *1947:RESET_B 41.7512 
14 *720:67 *2098:A 43.256 
*END

*D_NET *911 0.0127375
*CONN
*I *2093:A I *D sg13g2_buf_1
*I *1980:RESET_B I *D sg13g2_dfrbpq_1
*I *1981:RESET_B I *D sg13g2_dfrbpq_1
*I *1983:RESET_B I *D sg13g2_dfrbpq_1
*I *1982:RESET_B I *D sg13g2_dfrbpq_1
*I *1952:RESET_B I *D sg13g2_dfrbpq_1
*I *1978:RESET_B I *D sg13g2_dfrbpq_1
*I *1977:RESET_B I *D sg13g2_dfrbpq_1
*I *2114:X O *D sg13g2_buf_1
*CAP
1 *2093:A 0
2 *1980:RESET_B 0
3 *1981:RESET_B 0.000390685
4 *1983:RESET_B 0.000729345
5 *1982:RESET_B 0
6 *1952:RESET_B 0.000399408
7 *1978:RESET_B 8.64409e-05
8 *1977:RESET_B 1.65219e-05
9 *2114:X 0.000874834
10 *911:97 0.000769527
11 *911:57 0.00103757
12 *911:42 0.000981085
13 *911:40 0.000916984
14 *911:29 0.000526891
15 *911:27 0.000527189
16 *911:25 0.00113684
17 *911:16 4.42482e-05
18 *911:14 0.000874834
19 *1952:RESET_B *1457:A1 0
20 *1952:RESET_B *927:85 0
21 *1981:RESET_B *1405:A2 0
22 *1981:RESET_B *1844:A2 0
23 *1981:RESET_B *1113:28 0.000588922
24 *1983:RESET_B *919:12 0
25 *1983:RESET_B *939:21 0
26 *1983:RESET_B *939:47 0
27 *911:14 *1029:23 0
28 *911:14 *1114:32 0.000501874
29 *911:27 *919:35 0.000565196
30 *911:27 *942:23 4.77425e-05
31 *911:29 *919:35 0.000339475
32 *911:40 *919:20 0.00011229
33 *911:40 *919:35 0.000291393
34 *911:42 *1457:A1 0
35 *911:42 *1113:28 0.000289113
36 *911:57 *2250:A 0
37 *911:97 *919:35 0.00040395
38 *911:97 *942:30 0
39 *911:97 *1029:23 0
40 *911:97 *1114:8 0
41 *1314:A *911:14 0
42 *1315:B1 *911:14 0
43 *1407:A1 *911:14 0
44 *1408:A *911:97 7.52149e-05
45 *1409:A1 *911:97 0
46 *1409:B1 *911:97 0
47 *1952:D *1952:RESET_B 0
48 *1977:D *911:27 0
49 *1978:D *911:40 0
50 *1980:D *1978:RESET_B 0
51 *1980:D *911:27 0
52 *1982:D *1983:RESET_B 0
53 *29:8 *911:97 0
54 *491:10 *911:97 0.000209966
55 *580:38 *1981:RESET_B 0
56 *728:14 *1952:RESET_B 0
57 *728:14 *911:42 0
58 *902:8 *911:14 0
*RES
1 *2114:X *911:14 49.0376 
2 *911:14 *911:16 20 
3 *911:16 *1977:RESET_B 20.1936 
4 *911:16 *911:25 0.2992 
5 *911:25 *911:27 3.2296 
6 *911:27 *911:29 1.936 
7 *911:29 *1978:RESET_B 20.9328 
8 *911:29 *911:40 22.3056 
9 *911:40 *911:42 2.4112 
10 *911:42 *1952:RESET_B 43.2384 
11 *911:42 *911:57 22.6752 
12 *911:57 *1982:RESET_B 20 
13 *911:57 *1983:RESET_B 25.984 
14 *911:40 *1981:RESET_B 43.608 
15 *911:27 *1980:RESET_B 20 
16 *911:25 *911:97 46.9696 
17 *911:97 *2093:A 20 
*END

*D_NET *926 0.00340625
*CONN
*I *2030:RESET_B I *D sg13g2_dfrbpq_1
*I *2034:RESET_B I *D sg13g2_dfrbpq_1
*I *2031:RESET_B I *D sg13g2_dfrbpq_1
*I *2025:RESET_B I *D sg13g2_dfrbpq_1
*I *2035:RESET_B I *D sg13g2_dfrbpq_1
*I *2101:X O *D sg13g2_buf_1
*CAP
1 *2030:RESET_B 0.000450972
2 *2034:RESET_B 0
3 *2031:RESET_B 0
4 *2025:RESET_B 0.000232891
5 *2035:RESET_B 0
6 *2101:X 0.000330819
7 *926:40 0.000725199
8 *926:29 0.000427504
9 *926:6 0.000410435
10 *2025:RESET_B *2025:CLK 0
11 *2025:RESET_B *2035:CLK 0
12 *2030:RESET_B *1098:18 0.000291656
13 *2030:RESET_B *1098:35 0.00024222
14 *2030:RESET_B *1119:8 0
15 *926:6 *1119:19 0
16 *926:29 *1119:19 0
17 *926:40 *1098:18 4.78028e-05
18 *926:40 *1119:8 2.21754e-05
19 *926:40 *1119:17 0
20 *926:40 *1119:19 0
21 *2030:CLK *2030:RESET_B 0
22 *715:10 *2025:RESET_B 0
23 *715:10 *926:6 1.54008e-05
24 *715:10 *926:29 0.000209174
25 *715:10 *926:40 0
*RES
1 *2101:X *926:6 21.3816 
2 *926:6 *2035:RESET_B 20 
3 *926:6 *2025:RESET_B 22.288 
4 *2101:X *926:29 21.496 
5 *926:29 *2031:RESET_B 20 
6 *926:29 *926:40 2.5344 
7 *926:40 *2034:RESET_B 20 
8 *926:40 *2030:RESET_B 24.136 
*END

*D_NET *910 0.0151216
*CONN
*I *2038:RESET_B I *D sg13g2_dfrbpq_1
*I *2045:RESET_B I *D sg13g2_dfrbpq_1
*I *2027:RESET_B I *D sg13g2_dfrbpq_1
*I *2024:RESET_B I *D sg13g2_dfrbpq_1
*I *1984:RESET_B I *D sg13g2_dfrbpq_1
*I *2026:RESET_B I *D sg13g2_dfrbpq_1
*I *2101:A I *D sg13g2_buf_1
*I *2113:X O *D sg13g2_buf_1
*CAP
1 *2038:RESET_B 5.00669e-05
2 *2045:RESET_B 0
3 *2027:RESET_B 0.00109223
4 *2024:RESET_B 0
5 *1984:RESET_B 0.00021577
6 *2026:RESET_B 0
7 *2101:A 0.000138998
8 *2113:X 0
9 *910:48 0.00138547
10 *910:37 0.00214826
11 *910:33 0.00140151
12 *910:31 0.00201425
13 *910:25 0.000921118
14 *910:21 0.001276
15 *910:6 0.000942869
16 *1984:RESET_B *2122:A 0
17 *2027:RESET_B *2078:CLK 0
18 *2027:RESET_B *938:20 0
19 *2027:RESET_B *938:29 0
20 *2027:RESET_B *1115:44 0
21 *2101:A *2113:A 0.00023464
22 *910:31 *2045:CLK 0
23 *910:33 *1128:10 0
24 *910:37 *1128:10 0
25 *910:37 *1128:12 0
26 *910:37 *1128:16 0
27 *910:37 *1128:22 0
28 *910:37 *1128:24 0
29 *910:48 *1128:39 0.000533503
30 *1299:A1 *910:21 0
31 *1398:A1 *910:48 0
32 *1699:A0 *2027:RESET_B 0
33 *1699:S *2027:RESET_B 0
34 *1841:A *2027:RESET_B 8.0194e-05
35 *1845:B *2101:A 0
36 *1845:B *910:21 0
37 *1847:B *1984:RESET_B 0.000274321
38 *1984:D *1984:RESET_B 0
39 *2026:D *910:48 1.54556e-05
40 *2027:D *2027:RESET_B 0
41 *2047:RESET_B *910:48 0
42 *2081:D *910:21 0.000181608
43 *442:8 *910:48 0
44 *444:8 *910:48 0
45 *448:12 *910:37 0
46 *449:8 *910:37 0.00023464
47 *716:8 *2027:RESET_B 0.000316064
48 *716:8 *910:25 0
49 *716:8 *910:31 0
50 *716:19 *910:21 0.000983311
51 *716:19 *910:25 0
52 *721:70 *910:48 0.000341857
53 *826:35 *910:21 0
54 *829:26 *910:21 0
55 *830:44 *2101:A 0
56 *830:44 *910:21 0
57 *831:12 *910:33 0
58 *831:32 *910:31 0
59 *836:10 *910:21 0
60 *849:10 *2038:RESET_B 0
61 *849:10 *910:25 0
62 *851:77 *2027:RESET_B 0
63 *904:8 *910:33 0
64 *904:8 *910:37 0
65 *904:20 *2038:RESET_B 6.48152e-05
66 *904:20 *910:25 0.000274622
*RES
1 *2113:X *910:6 40 
2 *910:6 *2101:A 41.628 
3 *910:6 *910:21 28.9584 
4 *910:21 *910:25 3.5552 
5 *910:25 *910:31 24.5584 
6 *910:31 *910:33 3.8896 
7 *910:33 *910:37 27.9024 
8 *910:37 *2026:RESET_B 20 
9 *910:37 *910:48 30.5248 
10 *910:48 *1984:RESET_B 41.936 
11 *910:33 *2024:RESET_B 40 
12 *910:31 *2027:RESET_B 49.5744 
13 *910:25 *2045:RESET_B 20 
14 *910:21 *2038:RESET_B 20.4576 
*END

*D_NET *914 0.010507
*CONN
*I *1968:RESET_B I *D sg13g2_dfrbpq_1
*I *1941:RESET_B I *D sg13g2_dfrbpq_1
*I *1942:RESET_B I *D sg13g2_dfrbpq_1
*I *1967:RESET_B I *D sg13g2_dfrbpq_1
*I *1943:RESET_B I *D sg13g2_dfrbpq_1
*I *1969:RESET_B I *D sg13g2_dfrbpq_1
*I *2028:RESET_B I *D sg13g2_dfrbpq_1
*I *2117:X O *D sg13g2_buf_1
*CAP
1 *1968:RESET_B 0.000253632
2 *1941:RESET_B 0.000435782
3 *1942:RESET_B 6.46974e-05
4 *1967:RESET_B 0
5 *1943:RESET_B 0
6 *1969:RESET_B 0
7 *2028:RESET_B 0
8 *2117:X 7.01616e-05
9 *914:70 0.000647471
10 *914:66 0.00123681
11 *914:53 0.00129033
12 *914:38 0.00105329
13 *914:23 0.00103124
14 *914:14 0.000514838
15 *914:6 0.00101708
16 *1941:RESET_B *2223:A 0
17 *1941:RESET_B *920:73 0
18 *1942:RESET_B *1165:10 0
19 *914:6 *1106:98 0
20 *914:14 *1337:A1 0
21 *914:14 *1106:94 0
22 *914:23 *1106:98 0
23 *914:38 *1106:98 0
24 *914:38 *1113:10 0
25 *914:53 *915:35 0.000955225
26 *914:66 *915:35 0.000273572
27 *1432:A1 *914:38 0
28 *1434:A1 *1941:RESET_B 0.000274364
29 *1942:CLK *914:53 0
30 *1942:CLK *914:66 0.00040318
31 *1943:D *914:38 0
32 *1967:D *1941:RESET_B 0
33 *1969:D *914:38 0
34 *2028:D *914:14 0
35 *2032:CLK *914:6 0
36 *2032:CLK *914:23 0
37 *2298:A *1968:RESET_B 0.000274583
38 *2298:A *914:66 0.000274189
39 *2303:A *1941:RESET_B 0
40 *2303:A *1968:RESET_B 0
41 *2303:A *914:66 0
42 *285:10 *1942:RESET_B 0
43 *610:8 *914:66 0.000436517
44 *612:12 *1968:RESET_B 0
45 *612:30 *914:38 0
46 *843:41 *914:14 0
47 *908:24 *914:14 0
*RES
1 *2117:X *914:6 20.4576 
2 *914:6 *914:14 43.872 
3 *914:14 *2028:RESET_B 20 
4 *914:6 *914:23 3.608 
5 *914:23 *1969:RESET_B 20 
6 *914:23 *914:38 44.8576 
7 *914:38 *1943:RESET_B 20 
8 *914:38 *914:53 44.9104 
9 *914:53 *1967:RESET_B 20 
10 *914:53 *914:66 7.4272 
11 *914:66 *914:70 21.144 
12 *914:70 *1942:RESET_B 40.5104 
13 *914:70 *1941:RESET_B 43.9248 
14 *914:66 *1968:RESET_B 22.2352 
*END

*D_NET *912 0.00884986
*CONN
*I *1884:RESET_B I *D sg13g2_dfrbpq_1
*I *1915:RESET_B I *D sg13g2_dfrbpq_1
*I *1881:RESET_B I *D sg13g2_dfrbpq_1
*I *1907:RESET_B I *D sg13g2_dfrbpq_1
*I *1876:RESET_B I *D sg13g2_dfrbpq_1
*I *1912:RESET_B I *D sg13g2_dfrbpq_1
*I *1880:RESET_B I *D sg13g2_dfrbpq_1
*I *1911:RESET_B I *D sg13g2_dfrbpq_1
*I *2115:X O *D sg13g2_buf_1
*CAP
1 *1884:RESET_B 0.000100625
2 *1915:RESET_B 7.92599e-05
3 *1881:RESET_B 0
4 *1907:RESET_B 0
5 *1876:RESET_B 0
6 *1912:RESET_B 0
7 *1880:RESET_B 0
8 *1911:RESET_B 0
9 *2115:X 0.000132945
10 *912:95 0.000476567
11 *912:80 0.000952256
12 *912:69 0.000736879
13 *912:54 0.000894984
14 *912:35 0.00116939
15 *912:20 0.000780178
16 *912:14 0.000655765
17 *912:10 0.000432545
18 *912:8 0.000132945
19 *1884:RESET_B *1621:B 0
20 *1884:RESET_B *1133:6 0
21 *1915:RESET_B *1545:A 0
22 *1915:RESET_B *1106:114 0
23 *912:14 *2280:A 0
24 *912:14 *1133:6 0.000240943
25 *912:14 *1133:15 0.000304517
26 *912:20 *1133:15 0.000304802
27 *912:20 *1137:40 0
28 *912:20 *1137:69 1.54008e-05
29 *912:35 *1133:15 7.98201e-05
30 *912:35 *1137:69 6.45171e-05
31 *912:54 *1542:A 0
32 *912:54 *1543:A2 0
33 *912:54 *924:10 0
34 *912:54 *1137:69 0
35 *912:80 *924:51 0
36 *912:80 *1137:91 0
37 *912:95 *1881:CLK 0
38 *912:95 *924:38 0
39 *912:95 *924:42 0
40 *912:95 *1133:72 0.000929584
41 axi_lite_o[7] *912:95 0
42 *1543:A1 *912:54 4.23522e-05
43 *1543:B1 *912:54 5.05102e-05
44 *1546:A1 *912:35 0.000143413
45 *1630:A1 *912:35 0
46 *1876:D *912:80 0
47 *1876:D *912:95 0
48 *1881:D *912:95 0
49 *1912:D *912:54 0
50 *1915:CLK *1915:RESET_B 0
51 *98:8 *912:35 0.000129659
52 *180:10 *1884:RESET_B 0
53 *180:10 *912:14 0
54 *575:22 *912:54 0
55 *575:22 *912:69 0
56 *575:22 *912:80 0
57 *712:14 *912:95 0
58 *840:33 *912:35 0
59 *840:33 *912:54 0
*RES
1 *2115:X *912:8 41.144 
2 *912:8 *912:10 20 
3 *912:10 *912:14 23.0448 
4 *912:14 *912:20 22.2616 
5 *912:20 *1911:RESET_B 20 
6 *912:20 *912:35 44.8576 
7 *912:35 *1880:RESET_B 20 
8 *912:35 *912:54 5.6364 
9 *912:54 *1912:RESET_B 20 
10 *912:54 *912:69 2.9216 
11 *912:69 *1876:RESET_B 20 
12 *912:69 *912:80 4.0128 
13 *912:80 *1907:RESET_B 20 
14 *912:80 *912:95 45.544 
15 *912:95 *1881:RESET_B 20 
16 *912:14 *1915:RESET_B 40.7832 
17 *912:10 *1884:RESET_B 20.9416 
*END

*D_NET *476 0.00841994
*CONN
*I *2036:RESET_B I *D sg13g2_dfrbpq_1
*I *2115:A I *D sg13g2_buf_1
*I *1877:RESET_B I *D sg13g2_dfrbpq_1
*I *1908:RESET_B I *D sg13g2_dfrbpq_1
*I *2039:RESET_B I *D sg13g2_dfrbpq_1
*I *1387:X O *D sg13g2_buf_1
*CAP
1 *2036:RESET_B 0
2 *2115:A 0.000426957
3 *1877:RESET_B 0
4 *1908:RESET_B 0.000667964
5 *2039:RESET_B 0.000505531
6 *1387:X 0.000260428
7 *476:69 0.000187014
8 *476:40 0.000448726
9 *476:23 0.00127881
10 *476:8 0.00116802
11 *1908:RESET_B *1566:A1 0.000143413
12 *1908:RESET_B *1566:A2 0
13 *1908:RESET_B *571:18 0
14 *1908:RESET_B *928:50 0
15 *1908:RESET_B *928:68 0
16 *1908:RESET_B *928:79 0
17 *1908:RESET_B *932:27 0
18 *1908:RESET_B *1127:51 0
19 *2039:RESET_B *557:42 0
20 *2039:RESET_B *710:43 0.000758495
21 *2039:RESET_B *711:33 0
22 *2115:A *2091:A 0.000112308
23 *2115:A *928:79 0
24 *2115:A *1127:51 0
25 *2115:A *1137:16 0.000240181
26 *2115:A *1137:29 6.95234e-05
27 *476:8 *710:43 7.98097e-05
28 *476:8 *711:33 0
29 *476:23 *718:103 0
30 *476:23 *843:25 0
31 *476:23 *928:79 0
32 *476:23 *1148:26 0.00151178
33 *476:69 *710:43 0
34 *476:69 *824:8 0.00012816
35 *1387:A *476:69 0.000209549
36 *1635:B1 *1908:RESET_B 4.75265e-05
37 *101:10 *1908:RESET_B 0.000175742
*RES
1 *1387:X *476:8 20.7568 
2 *476:8 *2039:RESET_B 24.3384 
3 *476:8 *476:23 47.0136 
4 *476:23 *1908:RESET_B 25.8784 
5 *476:23 *476:40 0.2992 
6 *476:40 *1877:RESET_B 20 
7 *476:40 *2115:A 24.2856 
8 *1387:X *476:69 41.7072 
9 *476:69 *2036:RESET_B 40 
*END

*D_NET *362 0.00907396
*CONN
*I *2021:RESET_B I *D sg13g2_dfrbpq_1
*I *2037:RESET_B I *D sg13g2_dfrbpq_1
*I *1387:A I *D sg13g2_buf_1
*I *2023:RESET_B I *D sg13g2_dfrbpq_1
*I *2020:RESET_B I *D sg13g2_dfrbpq_1
*I *1253:X O *D sg13g2_buf_1
*CAP
1 *2021:RESET_B 0.000229605
2 *2037:RESET_B 2.9025e-05
3 *1387:A 0.000651896
4 *2023:RESET_B 6.04856e-05
5 *2020:RESET_B 0.000804218
6 *1253:X 0.000485319
7 *362:63 0.000564832
8 *362:35 0.000855046
9 *362:12 0.00168974
10 *362:6 0.00153438
11 *1387:A *476:69 0.000209549
12 *1387:A *710:43 0
13 *1387:A *711:33 0
14 *1387:A *827:41 0
15 *1387:A *842:54 0
16 *2020:RESET_B *1307:A0 0
17 *2020:RESET_B *1370:A2 4.77425e-05
18 *2020:RESET_B *1837:B 8.00473e-05
19 *2020:RESET_B *1838:A2 0
20 *2020:RESET_B *710:10 4.78524e-05
21 *2021:RESET_B *722:6 0
22 *362:6 *1709:A 0.000144253
23 *362:6 *1709:C 0
24 *362:6 *2095:A 0
25 *362:6 *725:25 0.000241979
26 *362:6 *725:40 0
27 *362:6 *726:8 0
28 *362:6 *827:31 7.92096e-05
29 *362:12 *827:31 0
30 *362:12 *827:41 0
31 *362:12 *835:29 0.00102874
32 *362:12 *842:54 0
33 *362:12 *1123:55 0
34 *362:35 *827:41 0
35 *362:35 *842:54 0
36 *362:63 *2095:A 0
37 *362:63 *722:6 0.000209779
38 *1710:B1 *362:6 0
39 *1838:B1 *2020:RESET_B 8.02595e-05
40 *1851:A0 *2020:RESET_B 0
41 *1851:A0 *2023:RESET_B 0
42 *2023:D *2020:RESET_B 0
43 *285:14 *2020:RESET_B 0
44 *307:18 *2023:RESET_B 0
*RES
1 *1253:X *362:6 24.1536 
2 *362:6 *362:12 26.2744 
3 *362:12 *2020:RESET_B 46.8464 
4 *362:12 *362:35 1.144 
5 *362:35 *2023:RESET_B 40.4576 
6 *362:35 *1387:A 45.3064 
7 *362:6 *362:63 2.9304 
8 *362:63 *2037:RESET_B 20.2992 
9 *362:63 *2021:RESET_B 21.936 
*END

*D_NET *1099 0.00640695
*CONN
*I *2022:RESET_B I *D sg13g2_dfrbpq_1
*I *1253:A I *D sg13g2_buf_1
*I *2044:RESET_B I *D sg13g2_dfrbpq_1
*I *2043:RESET_B I *D sg13g2_dfrbpq_1
*I *2046:RESET_B I *D sg13g2_dfrbpq_1
*I *2231:X O *D sg13g2_buf_1
*CAP
1 *2022:RESET_B 0
2 *1253:A 0
3 *2044:RESET_B 0
4 *2043:RESET_B 0
5 *2046:RESET_B 0.000277767
6 *2231:X 8.15077e-05
7 *1099:66 0.000446527
8 *1099:53 0.000405772
9 *1099:22 0.000755287
10 *1099:14 0.000606191
11 *1099:12 0.000991709
12 *1099:6 0.000985302
13 *1099:6 *1113:89 0
14 *1099:66 *1113:89 0
15 *1299:A0 *1099:6 0
16 *1299:A0 *1099:66 0
17 *2022:D *1099:66 0
18 *2022:CLK *1099:12 0.000395177
19 *2044:CLK *1099:14 0
20 *2044:CLK *1099:22 0
21 *13:8 *1099:12 0
22 *205:10 *2046:RESET_B 0
23 *450:8 *1099:12 0
24 *717:39 *1099:22 0
25 *725:16 *2046:RESET_B 0
26 *725:25 *2046:RESET_B 1.54008e-05
27 *825:8 *1099:66 0
28 *825:21 *1099:12 0
29 *825:21 *1099:66 0
30 *825:54 *1099:53 0
31 *828:19 *1099:66 0
32 *828:38 *1099:53 0.000558066
33 *849:10 *1099:22 0
34 *904:20 *1099:14 0.000192947
35 *904:20 *1099:22 0.000274769
36 *904:20 *1099:53 0.000420527
*RES
1 *2231:X *1099:6 20.6424 
2 *1099:6 *1099:12 44.7344 
3 *1099:12 *1099:14 1.1968 
4 *1099:14 *1099:22 44.8224 
5 *1099:22 *2046:RESET_B 22.6224 
6 *1099:22 *2043:RESET_B 20 
7 *1099:14 *2044:RESET_B 20 
8 *1099:12 *1099:53 44.6904 
9 *1099:53 *1253:A 20 
10 *1099:6 *1099:66 43.6608 
11 *1099:66 *2022:RESET_B 20 
*END

*D_NET *1098 0.010645
*CONN
*I *2113:A I *D sg13g2_buf_1
*I *2032:RESET_B I *D sg13g2_dfrbpq_1
*I *2117:A I *D sg13g2_buf_1
*I *2114:A I *D sg13g2_buf_1
*I *2029:RESET_B I *D sg13g2_dfrbpq_1
*I *2033:RESET_B I *D sg13g2_dfrbpq_1
*I *2231:A I *D sg13g2_buf_1
*I *2230:X O *D sg13g2_buf_1
*CAP
1 *2113:A 0.000125759
2 *2032:RESET_B 0.000297717
3 *2117:A 0
4 *2114:A 0
5 *2029:RESET_B 0
6 *2033:RESET_B 2.36489e-05
7 *2231:A 0
8 *2230:X 0.000681748
9 *1098:76 0.000337583
10 *1098:66 0.000754547
11 *1098:57 0.00050659
12 *1098:51 0.000654077
13 *1098:44 0.00039738
14 *1098:35 0.000876734
15 *1098:24 0.000493595
16 *1098:18 0.00160929
17 *1098:10 0.00128286
18 *1098:8 0.0012071
19 *1098:10 *1119:34 0
20 *1098:10 *1124:46 0
21 *1098:35 *1124:86 0
22 *1098:35 *1130:31 0
23 *1098:35 *1130:38 0
24 *1098:44 *1130:38 0
25 *1098:44 *1130:53 0
26 *1332:B1 *2032:RESET_B 0
27 *1343:A *1098:8 0.000208152
28 *1345:A1 *1098:8 0
29 *1845:B *1098:10 0
30 *1845:B *1098:18 0
31 *2029:D *2032:RESET_B 0
32 *2029:D *1098:44 0
33 *2029:D *1098:66 0
34 *2030:RESET_B *1098:18 0.000291656
35 *2030:RESET_B *1098:35 0.00024222
36 *2030:D *2033:RESET_B 0
37 *2030:CLK *1098:35 0
38 *2030:CLK *1098:44 0
39 *2032:CLK *2032:RESET_B 0
40 *2101:A *2113:A 0.00023464
41 *177:8 *1098:10 0
42 *432:8 *1098:57 0
43 *443:10 *1098:8 0
44 *580:23 *1098:8 0
45 *715:10 *1098:18 0.000371867
46 *721:82 *1098:8 0
47 *830:44 *2113:A 0
48 *830:44 *1098:10 0
49 *843:41 *1098:76 0
50 *908:30 *2032:RESET_B 0
51 *908:30 *1098:66 0
52 *908:30 *1098:76 0
53 *908:34 *1098:44 0
54 *908:34 *1098:51 0
55 *926:40 *1098:18 4.78028e-05
*RES
1 *2230:X *1098:8 46.0016 
2 *1098:8 *1098:10 5.368 
3 *1098:10 *1098:18 25.8344 
4 *1098:18 *1098:24 45.1568 
5 *1098:24 *2231:A 20 
6 *1098:18 *1098:35 4.4616 
7 *1098:35 *2033:RESET_B 20.2992 
8 *1098:35 *1098:44 3.4144 
9 *1098:44 *2029:RESET_B 20 
10 *1098:44 *1098:51 0.2728 
11 *1098:51 *1098:57 45.1568 
12 *1098:57 *2114:A 20 
13 *1098:51 *1098:66 1.232 
14 *1098:66 *1098:76 43.3264 
15 *1098:76 *2117:A 20 
16 *1098:66 *2032:RESET_B 22.8072 
17 *1098:10 *2113:A 41.4168 
*END

*D_NET *1097 0.0180028
*CONN
*I *2014:RESET_B I *D sg13g2_dfrbpq_1
*I *2012:RESET_B I *D sg13g2_dfrbpq_1
*I *2016:RESET_B I *D sg13g2_dfrbpq_1
*I *2005:RESET_B I *D sg13g2_dfrbpq_1
*I *2004:RESET_B I *D sg13g2_dfrbpq_1
*I *2017:RESET_B I *D sg13g2_dfrbpq_1
*I *1939:RESET_B I *D sg13g2_dfrbpq_1
*I *2013:RESET_B I *D sg13g2_dfrbpq_1
*I *2085:X O *D sg13g2_buf_1
*CAP
1 *2014:RESET_B 0
2 *2012:RESET_B 0
3 *2016:RESET_B 9.25906e-05
4 *2005:RESET_B 2.64976e-05
5 *2004:RESET_B 0.000574287
6 *2017:RESET_B 0.000352882
7 *1939:RESET_B 0.000442307
8 *2013:RESET_B 0.000507698
9 *2085:X 0.000184834
10 *1097:120 0.000700638
11 *1097:105 0.000885472
12 *1097:69 0.00126071
13 *1097:63 0.00165523
14 *1097:46 0.00201372
15 *1097:38 0.000934778
16 *1097:21 0.00087979
17 *1097:6 0.000821523
18 *2004:RESET_B *2004:CLK 0
19 *2004:RESET_B *2228:A 0.000177555
20 *2013:RESET_B *2013:CLK 0
21 *2016:RESET_B *1141:56 0
22 *2017:RESET_B *1189:12 0.000454344
23 *1097:46 *1141:6 0
24 *1097:46 *1141:16 0
25 *1097:63 *1189:12 0.00050787
26 *1097:105 *2013:CLK 0.000242341
27 *1097:105 *2085:A 0
28 *1097:120 *2085:A 0.000565845
29 *1097:120 *1112:25 0
30 axi_lite_o[0] *2004:RESET_B 0
31 *1245:A *1097:69 0.000107631
32 *1250:A *1097:46 0
33 *1381:B *1097:46 0
34 *1383:A *2013:RESET_B 0
35 *1384:B *2013:RESET_B 0
36 *1439:A0 *1939:RESET_B 0.000241979
37 *1470:S *2016:RESET_B 0
38 *1471:S *1097:120 0
39 *1647:B *2004:RESET_B 0
40 *1830:A *1097:63 0
41 *2014:D *1097:120 0
42 *2014:CLK *1097:120 0.000503345
43 *2187:A *2004:RESET_B 0
44 *2327:A *2004:RESET_B 0.000339573
45 *16:20 *1097:38 0.00012816
46 *134:12 *2004:RESET_B 0
47 *156:10 *1097:69 0.000829364
48 *172:10 *1097:63 0
49 *189:18 *1097:69 0
50 *193:12 *1097:69 0
51 *193:27 *1097:69 0
52 *353:40 *1097:69 0
53 *357:22 *1097:63 0
54 *357:35 *1097:46 4.77425e-05
55 *358:6 *1097:46 0.000242203
56 *358:10 *1097:46 8.02924e-05
57 *360:8 *1097:69 0.000616314
58 *467:27 *2005:RESET_B 0
59 *467:27 *1097:63 0
60 *471:10 *1097:21 0
61 *471:10 *1097:38 0
62 *474:8 *1097:120 0
63 *604:6 *2004:RESET_B 0.000209763
64 *615:20 *1097:69 0
65 *650:12 *1939:RESET_B 0
66 *650:12 *2017:RESET_B 8.0216e-05
67 *651:10 *1939:RESET_B 0
68 *651:10 *1097:46 0
69 *688:12 *1097:63 0
70 *691:32 *2017:RESET_B 0
71 *691:40 *2013:RESET_B 0.000207985
72 *707:14 *1097:46 0
73 *793:17 *2005:RESET_B 4.77425e-05
74 *793:17 *1097:63 0.000241979
75 *1023:14 *1097:69 0.00018387
76 *1080:6 *2016:RESET_B 6.47275e-05
77 *1080:6 *1097:46 0.000209505
78 *1080:21 *1097:46 0.000339508
79 *1082:10 *1097:120 0
*RES
1 *2085:X *1097:6 40 
2 *1097:6 *2013:RESET_B 44.6992 
3 *1097:6 *1097:21 3.256 
4 *1097:21 *1939:RESET_B 44.1712 
5 *1097:21 *1097:38 21.3552 
6 *1097:38 *1097:46 26.6 
7 *1097:46 *2017:RESET_B 43.2912 
8 *1097:46 *1097:63 27.5944 
9 *1097:63 *1097:69 48.1136 
10 *1097:69 *2004:RESET_B 25.4648 
11 *1097:63 *2005:RESET_B 20.2728 
12 *1097:38 *2016:RESET_B 20.968 
13 *2085:X *1097:105 21.6808 
14 *1097:105 *2012:RESET_B 20 
15 *1097:105 *1097:120 47.1808 
16 *1097:120 *2014:RESET_B 20 
*END

*D_NET *475 0.012121
*CONN
*I *2018:RESET_B I *D sg13g2_dfrbpq_1
*I *1966:RESET_B I *D sg13g2_dfrbpq_1
*I *1862:RESET_B I *D sg13g2_dfrbpq_1
*I *1940:RESET_B I *D sg13g2_dfrbpq_1
*I *1863:RESET_B I *D sg13g2_dfrbpq_1
*I *2011:RESET_B I *D sg13g2_dfrbpq_1
*I *1964:RESET_B I *D sg13g2_dfrbpq_1
*I *1938:RESET_B I *D sg13g2_dfrbpq_1
*I *1386:X O *D sg13g2_buf_1
*CAP
1 *2018:RESET_B 0.000520401
2 *1966:RESET_B 0.000444792
3 *1862:RESET_B 6.68694e-05
4 *1940:RESET_B 0
5 *1863:RESET_B 0
6 *2011:RESET_B 0.000595035
7 *1964:RESET_B 0
8 *1938:RESET_B 0.000364732
9 *1386:X 6.34964e-05
10 *475:80 0.00102719
11 *475:66 0.000326106
12 *475:58 0.000797707
13 *475:49 0.000877422
14 *475:43 0.00081749
15 *475:27 0.000931892
16 *475:12 0.00100167
17 *475:8 0.000646378
18 *1938:RESET_B *1439:A0 0
19 *1938:RESET_B *1440:A0 0
20 *1938:RESET_B *1073:12 0.000241979
21 *1938:RESET_B *1073:20 0.000176642
22 *1938:RESET_B *1143:23 0
23 *1966:RESET_B *1438:B1 0
24 *1966:RESET_B *1469:A0 0
25 *1966:RESET_B *1100:83 0.000759767
26 *2011:RESET_B *2232:A 0
27 *2011:RESET_B *861:12 0
28 *2011:RESET_B *1079:27 0
29 *2011:RESET_B *1106:27 0
30 *2018:RESET_B *1044:19 0
31 *2018:RESET_B *1079:62 0
32 *2018:RESET_B *1100:83 0
33 *2018:RESET_B *1112:49 0
34 *475:8 *653:20 0.000111838
35 *475:8 *707:14 0.000111838
36 *475:12 *913:18 0
37 *475:12 *1072:18 0
38 *475:12 *1079:46 0.000342145
39 *475:12 *1112:38 0
40 *475:27 *1440:A0 0
41 *475:27 *1072:12 0
42 *475:27 *1073:20 7.99797e-05
43 *475:43 *913:18 0
44 *475:43 *1044:19 0
45 *475:43 *1112:49 0
46 *475:49 *1469:A0 0
47 *475:49 *1833:B 0.000339398
48 *475:49 *653:20 0
49 *475:49 *1100:83 0
50 *475:49 *1143:10 0
51 *475:58 *1100:49 0
52 *475:58 *1100:83 0
53 *475:58 *1143:10 0.000242472
54 *475:58 *1143:78 0
55 *475:66 *1079:58 0
56 *475:66 *1100:49 0.00033942
57 *475:66 *1143:84 0
58 *475:66 *1143:92 0
59 *475:80 *1112:49 0
60 *1438:A2 *1966:RESET_B 8.02927e-05
61 *1818:B1 *475:58 0
62 *1862:D *475:58 0
63 *1863:D *475:49 0
64 *1863:D *475:58 0
65 *1940:D *475:49 0
66 *1940:D *475:58 0
67 *1966:D *1966:RESET_B 0
68 *2018:D *2018:RESET_B 0
69 *43:10 *1938:RESET_B 0
70 *44:10 *2011:RESET_B 1.54008e-05
71 *44:10 *475:27 0.000242137
72 *352:8 *475:12 0.000556516
73 *401:12 *475:66 0
74 *474:51 *2011:RESET_B 0
75 *474:51 *475:27 0
*RES
1 *1386:X *475:8 40.6424 
2 *475:8 *475:12 23.6784 
3 *475:12 *1938:RESET_B 23.1592 
4 *475:12 *475:27 3.5112 
5 *475:27 *1964:RESET_B 20 
6 *475:27 *2011:RESET_B 25.6144 
7 *475:8 *475:43 2.4112 
8 *475:43 *475:49 24.268 
9 *475:49 *1863:RESET_B 20 
10 *475:49 *475:58 3.7136 
11 *475:58 *475:66 43.08 
12 *475:66 *1940:RESET_B 20 
13 *475:58 *1862:RESET_B 20.7216 
14 *475:43 *475:80 0.5104 
15 *475:80 *1966:RESET_B 44.3384 
16 *475:80 *2018:RESET_B 44.4792 
*END

*D_NET *406 0.00984579
*CONN
*I *2008:RESET_B I *D sg13g2_dfrbpq_1
*I *2006:RESET_B I *D sg13g2_dfrbpq_1
*I *1874:RESET_B I *D sg13g2_dfrbpq_1
*I *2009:RESET_B I *D sg13g2_dfrbpq_1
*I *2015:RESET_B I *D sg13g2_dfrbpq_1
*I *2019:RESET_B I *D sg13g2_dfrbpq_1
*I *1297:X O *D sg13g2_buf_1
*CAP
1 *2008:RESET_B 0
2 *2006:RESET_B 0.000827406
3 *1874:RESET_B 2.58753e-05
4 *2009:RESET_B 3.59096e-05
5 *2015:RESET_B 0
6 *2019:RESET_B 0.000617119
7 *1297:X 0.000205795
8 *406:58 0.00110875
9 *406:43 0.000904748
10 *406:16 0.00112896
11 *406:10 0.000781729
12 *406:8 0.0010373
13 *2006:RESET_B *1475:B 0
14 *2006:RESET_B *2006:CLK 0
15 *2006:RESET_B *511:6 0
16 *2006:RESET_B *1146:45 0
17 *2019:RESET_B *467:10 0.000144866
18 *2019:RESET_B *467:27 1.54008e-05
19 *2019:RESET_B *652:16 0.000981144
20 *2019:RESET_B *793:17 0
21 *406:8 *1297:A 0
22 *406:10 *1143:54 0.000478485
23 *406:16 *1826:A 0
24 *406:16 *652:16 0.000291393
25 *406:16 *793:17 0.00012816
26 *406:16 *1143:41 0
27 *406:16 *1143:54 0.000503729
28 *406:43 *1751:S 0
29 *406:43 *509:10 0
30 *406:43 *510:43 0
31 *406:58 *1474:B 0
32 *406:58 *1874:CLK 0
33 *1475:A *2006:RESET_B 0
34 *1800:A *2006:RESET_B 8.01447e-05
35 *1812:A1 *406:8 0
36 *2008:D *2006:RESET_B 0
37 *136:10 *406:43 0.000234726
38 *136:10 *406:58 0.000266405
39 *163:10 *406:43 0
40 *193:27 *2006:RESET_B 0
41 *202:10 *2006:RESET_B 0
42 *361:36 *2009:RESET_B 4.77425e-05
43 *361:49 *406:10 0
44 *361:49 *406:43 0
45 *361:49 *406:58 0
46 *366:8 *406:58 0
*RES
1 *1297:X *406:8 41.3816 
2 *406:8 *406:10 2.6224 
3 *406:10 *406:16 25.6408 
4 *406:16 *2019:RESET_B 25.8608 
5 *406:16 *2015:RESET_B 20 
6 *406:10 *2009:RESET_B 40.2728 
7 *406:8 *406:43 6.0016 
8 *406:43 *1874:RESET_B 40.2728 
9 *406:43 *406:58 22.8952 
10 *406:58 *2006:RESET_B 27.8848 
11 *406:58 *2008:RESET_B 20 
*END

*D_NET *1103 0.0108139
*CONN
*I *1936:RESET_B I *D sg13g2_dfrbpq_1
*I *1932:RESET_B I *D sg13g2_dfrbpq_1
*I *1865:RESET_B I *D sg13g2_dfrbpq_1
*I *1937:RESET_B I *D sg13g2_dfrbpq_1
*I *1928:RESET_B I *D sg13g2_dfrbpq_1
*I *1927:RESET_B I *D sg13g2_dfrbpq_1
*I *1929:RESET_B I *D sg13g2_dfrbpq_1
*I *1934:RESET_B I *D sg13g2_dfrbpq_1
*I *2235:X O *D sg13g2_buf_1
*CAP
1 *1936:RESET_B 0
2 *1932:RESET_B 2.77263e-05
3 *1865:RESET_B 0.000387159
4 *1937:RESET_B 0
5 *1928:RESET_B 0.00016838
6 *1927:RESET_B 0.000461007
7 *1929:RESET_B 0
8 *1934:RESET_B 0
9 *2235:X 0.000126511
10 *1103:68 0.000553618
11 *1103:66 0.000468162
12 *1103:40 0.00100345
13 *1103:36 0.00162845
14 *1103:27 0.00141257
15 *1103:18 0.000892008
16 *1103:12 0.000607238
17 *1103:8 0.000273904
18 *1865:RESET_B *1138:43 0
19 *1103:12 *1145:15 0
20 *1103:27 *1934:CLK 0
21 *1103:27 *1126:87 0
22 *1196:A *1865:RESET_B 0
23 *1196:A *1103:68 0
24 *1205:A1 *1103:36 0
25 *1205:A2 *1103:40 0.000425918
26 *1213:A *1103:27 0
27 *1217:A *1927:RESET_B 8.03692e-05
28 *1217:B *1927:RESET_B 0.000155388
29 *1221:A2 *1103:27 0
30 *1224:A1 *1927:RESET_B 0
31 *1493:B1 *1103:27 0
32 *1493:B1 *1103:36 0
33 *1495:A1 *1103:40 0.000397229
34 *1865:D *1865:RESET_B 0
35 *1929:D *1103:27 0
36 *1929:D *1103:36 0
37 *1932:D *1103:36 0.000209164
38 *1932:D *1103:66 0.000420523
39 *1934:D *1103:27 0
40 *1937:D *1103:68 0
41 *73:10 *1103:8 0
42 *73:10 *1103:18 0.00087609
43 *81:10 *1928:RESET_B 0.000144349
44 *334:10 *1927:RESET_B 0
45 *335:12 *1103:18 0
46 *507:44 *1103:8 0
47 *507:44 *1103:18 0
48 *516:41 *1865:RESET_B 0
49 *516:41 *1103:66 0
50 *516:41 *1103:68 0
51 *516:50 *1865:RESET_B 0
52 *518:26 *1927:RESET_B 0
53 *674:10 *1103:36 0
54 *685:10 *1103:66 0
55 *686:10 *1865:RESET_B 0
56 *757:12 *1103:36 4.74263e-05
57 *760:8 *1103:36 0
58 *763:10 *1103:36 0
59 *763:18 *1103:36 0
60 *790:17 *1927:RESET_B 0
61 *790:17 *1928:RESET_B 0
62 *930:39 *1103:36 0
63 *1002:10 *1103:36 4.72458e-05
*RES
1 *2235:X *1103:8 41.144 
2 *1103:8 *1103:12 21.1968 
3 *1103:12 *1103:18 45.7904 
4 *1103:18 *1934:RESET_B 20 
5 *1103:18 *1103:27 3.7136 
6 *1103:27 *1929:RESET_B 20 
7 *1103:27 *1103:36 8.1752 
8 *1103:36 *1103:40 24.312 
9 *1103:40 *1927:RESET_B 43.9336 
10 *1103:40 *1928:RESET_B 41.5224 
11 *1103:36 *1103:66 2.4904 
12 *1103:66 *1103:68 1.5664 
13 *1103:68 *1937:RESET_B 20 
14 *1103:68 *1865:RESET_B 23.4144 
15 *1103:66 *1932:RESET_B 20.2992 
16 *1103:12 *1936:RESET_B 20 
*END

*D_NET *1102 0.0111333
*CONN
*I *2235:A I *D sg13g2_buf_1
*I *1935:RESET_B I *D sg13g2_dfrbpq_1
*I *1905:RESET_B I *D sg13g2_dfrbpq_1
*I *1898:RESET_B I *D sg13g2_dfrbpq_1
*I *1904:RESET_B I *D sg13g2_dfrbpq_1
*I *1903:RESET_B I *D sg13g2_dfrbpq_1
*I *2007:RESET_B I *D sg13g2_dfrbpq_1
*I *2234:X O *D sg13g2_buf_1
*CAP
1 *2235:A 1.88913e-05
2 *1935:RESET_B 0.000905925
3 *1905:RESET_B 0
4 *1898:RESET_B 0
5 *1904:RESET_B 0.000344744
6 *1903:RESET_B 0
7 *2007:RESET_B 0.000168841
8 *2234:X 0.000308568
9 *1102:69 0.00110494
10 *1102:42 0.000614964
11 *1102:36 0.00047976
12 *1102:32 0.000519739
13 *1102:23 0.000568683
14 *1102:12 0.000748454
15 *1102:8 0.000449577
16 *1904:RESET_B *1145:31 0
17 *1935:RESET_B *1487:A2 0
18 *1935:RESET_B *1898:CLK 0
19 *1935:RESET_B *1145:23 0
20 *1102:23 *1146:90 0
21 *1102:32 *1146:90 0
22 *1102:36 *1145:23 0
23 *1102:42 *1145:23 0
24 *1102:42 *1145:31 0
25 *1214:A *1935:RESET_B 0
26 *1214:B *1935:RESET_B 0
27 *1580:B1 *1102:42 0
28 *1580:A1 *1102:36 0
29 *1808:A *1102:23 0
30 *1898:D *1904:RESET_B 8.03692e-05
31 *1905:D *1904:RESET_B 0
32 *2278:A *2007:RESET_B 0.000274496
33 *2278:A *1102:12 4.77425e-05
34 *74:10 *1935:RESET_B 0
35 *364:10 *1102:8 0
36 *367:8 *1102:8 0
37 *506:14 *1935:RESET_B 0
38 *507:27 *1102:12 0.000194236
39 *507:44 *1102:23 0.00151662
40 *507:44 *1102:32 0.000661472
41 *507:44 *1102:69 0.000874591
42 *583:8 *1102:32 0.000501962
43 *583:8 *1102:69 0.00074871
44 *933:68 *1904:RESET_B 0
45 *943:8 *2007:RESET_B 0
46 *943:14 *1102:8 0
47 *967:8 *1935:RESET_B 0
48 *972:27 *1102:36 0
49 *975:12 *1935:RESET_B 0
50 *1018:8 *1102:23 0
*RES
1 *2234:X *1102:8 43.256 
2 *1102:8 *1102:12 21.3816 
3 *1102:12 *2007:RESET_B 21.5664 
4 *1102:12 *1102:23 26.2128 
5 *1102:23 *1903:RESET_B 40 
6 *1102:23 *1102:32 2.6224 
7 *1102:32 *1102:36 21.936 
8 *1102:36 *1102:42 2.5872 
9 *1102:42 *1904:RESET_B 23.3792 
10 *1102:42 *1898:RESET_B 20 
11 *1102:36 *1905:RESET_B 20 
12 *1102:32 *1102:69 23.5772 
13 *1102:69 *1935:RESET_B 27.7924 
14 *1102:69 *2235:A 20.2442 
*END

*D_NET *1104 0.0126325
*CONN
*I *2010:RESET_B I *D sg13g2_dfrbpq_1
*I *1875:RESET_B I *D sg13g2_dfrbpq_1
*I *1872:RESET_B I *D sg13g2_dfrbpq_1
*I *1901:RESET_B I *D sg13g2_dfrbpq_1
*I *2003:RESET_B I *D sg13g2_dfrbpq_1
*I *1869:RESET_B I *D sg13g2_dfrbpq_1
*I *1868:RESET_B I *D sg13g2_dfrbpq_1
*I *1873:RESET_B I *D sg13g2_dfrbpq_1
*I *2236:X O *D sg13g2_buf_1
*CAP
1 *2010:RESET_B 0
2 *1875:RESET_B 0
3 *1872:RESET_B 0
4 *1901:RESET_B 0.000375986
5 *2003:RESET_B 0.00014744
6 *1869:RESET_B 0
7 *1868:RESET_B 0.000802775
8 *1873:RESET_B 0.00032712
9 *2236:X 0
10 *1104:97 0.000672358
11 *1104:82 0.00101965
12 *1104:68 0.000493196
13 *1104:62 0.000886996
14 *1104:29 0.00128149
15 *1104:23 0.000795663
16 *1104:12 0.000845199
17 *1104:6 0.000771064
18 *1868:RESET_B *1869:CLK 4.77425e-05
19 *1873:RESET_B *1144:26 0.000209374
20 *1873:RESET_B *1144:32 0.000306925
21 *1104:12 *1144:26 0.000161999
22 *1104:23 *1107:30 0
23 *1104:29 *1107:30 0
24 *1104:62 *1107:39 0
25 *1274:A2 *1104:23 7.51285e-05
26 *1274:A2 *1104:29 0.000288587
27 *1280:B *1104:62 0
28 *1282:A *1868:RESET_B 0.000242089
29 *1649:A *1104:62 0
30 *1649:B *1104:62 1.54449e-05
31 *1649:B *1104:82 0.000161509
32 *1650:A2 *1104:82 0.000436227
33 *1650:A2 *1104:97 0.000259171
34 *1657:A1 *1901:RESET_B 0
35 *1657:A1 *1104:62 0.00017724
36 *1793:S *1104:12 0
37 *1815:A *1104:97 0.000274583
38 *1815:B *1104:97 0
39 *1868:D *1868:RESET_B 0
40 *1872:D *1901:RESET_B 0
41 *1872:D *1104:62 0
42 *2276:A *1104:82 0
43 *2297:A *1873:RESET_B 0
44 *164:10 *1104:97 0.000468912
45 *197:40 *1873:RESET_B 0
46 *197:40 *2003:RESET_B 0
47 *371:8 *1868:RESET_B 0
48 *371:8 *1104:29 0
49 *383:10 *1868:RESET_B 0
50 *385:18 *1868:RESET_B 0
51 *392:10 *1868:RESET_B 0
52 *507:8 *1104:97 0
53 *507:10 *1104:82 0
54 *507:27 *1901:RESET_B 0
55 *507:59 *1104:97 0
56 *510:18 *1868:RESET_B 0
57 *510:18 *1104:29 0
58 *510:59 *1104:82 0
59 *510:59 *1104:97 0
60 *656:10 *1901:RESET_B 0
61 *657:14 *2003:RESET_B 0.000209374
62 *881:10 *1104:97 0
63 *945:8 *1104:68 0.000399906
64 *946:10 *1104:12 0
65 *946:10 *1104:23 0.000479363
66 *951:46 *1104:62 0
*RES
1 *2236:X *1104:6 40 
2 *1104:6 *1104:12 22.7896 
3 *1104:12 *1873:RESET_B 23.0448 
4 *1104:12 *1104:23 22.2 
5 *1104:23 *1104:29 24.2944 
6 *1104:29 *1868:RESET_B 27.4272 
7 *1104:29 *1869:RESET_B 20 
8 *1104:23 *2003:RESET_B 41.1968 
9 *1104:6 *1104:62 23.1592 
10 *1104:62 *1104:68 41.5664 
11 *1104:68 *1901:RESET_B 23.4144 
12 *1104:68 *1872:RESET_B 20 
13 *1104:62 *1104:82 3.4144 
14 *1104:82 *1875:RESET_B 20 
15 *1104:82 *1104:97 46.336 
16 *1104:97 *2010:RESET_B 20 
*END

*D_NET *1105 0.0115796
*CONN
*I *1931:RESET_B I *D sg13g2_dfrbpq_1
*I *1930:RESET_B I *D sg13g2_dfrbpq_1
*I *1933:RESET_B I *D sg13g2_dfrbpq_1
*I *1864:RESET_B I *D sg13g2_dfrbpq_1
*I *1900:RESET_B I *D sg13g2_dfrbpq_1
*I *1902:RESET_B I *D sg13g2_dfrbpq_1
*I *1866:RESET_B I *D sg13g2_dfrbpq_1
*I *1867:RESET_B I *D sg13g2_dfrbpq_1
*I *2237:X O *D sg13g2_buf_1
*CAP
1 *1931:RESET_B 0
2 *1930:RESET_B 0
3 *1933:RESET_B 2.64995e-05
4 *1864:RESET_B 3.43728e-05
5 *1900:RESET_B 0.00020332
6 *1902:RESET_B 0.000319218
7 *1866:RESET_B 0
8 *1867:RESET_B 0
9 *2237:X 0.000206855
10 *1105:96 0.000714679
11 *1105:86 0.00115752
12 *1105:73 0.0010588
13 *1105:60 0.00110489
14 *1105:49 0.000826855
15 *1105:34 0.000972484
16 *1105:23 0.00118357
17 *1105:12 0.000672785
18 *1105:10 0.000206855
19 *1900:RESET_B *1866:CLK 0
20 *1900:RESET_B *2258:A 0
21 *1902:RESET_B *1895:CLK 0
22 *1902:RESET_B *1140:41 0.000287672
23 *1933:RESET_B *1933:CLK 0
24 *1105:10 *2241:A 0
25 *1105:10 *1107:54 0
26 *1105:23 *1867:CLK 0
27 *1105:23 *2258:A 0
28 *1105:34 *2258:A 0
29 *1105:73 *1138:77 0
30 *1105:86 *1933:CLK 0
31 *1105:96 *1140:87 0.00110061
32 *1233:A1 *1105:96 0
33 *1233:B1 *1105:96 8.02595e-05
34 *1236:A1 *1933:RESET_B 4.77534e-05
35 *1236:A1 *1105:86 0
36 *1236:B1 *1105:86 0
37 *1491:B1 *1105:73 0
38 *1491:A1 *1105:73 0
39 *1492:B1 *1105:73 0
40 *1492:A1 *1105:96 0
41 *1585:A *1105:34 0
42 *1590:A2 *1105:23 0
43 *1595:A *1105:23 4.78359e-05
44 *1801:A *1105:23 0
45 *1802:B1 *1105:23 4.79124e-05
46 *1802:B1 *1105:34 0
47 *1867:D *1105:10 0
48 *1867:D *1105:23 0.000274528
49 *1930:D *1105:96 0
50 *79:10 *1105:73 0
51 *159:10 *1105:34 0
52 *342:8 *1105:73 0
53 *345:10 *1105:86 0
54 *507:84 *1902:RESET_B 0.000554994
55 *507:84 *1105:49 0
56 *507:84 *1105:60 0
57 *507:84 *1105:73 0
58 *581:58 *1105:34 0
59 *588:8 *1902:RESET_B 0
60 *588:8 *1105:49 0
61 *588:8 *1105:60 0
62 *588:8 *1105:73 0
63 *591:8 *1105:10 0
64 *677:10 *1105:96 0
65 *680:10 *1105:73 0
66 *966:6 *1105:23 0.000161944
67 *978:8 *1105:73 0.00028743
*RES
1 *2237:X *1105:10 41.8128 
2 *1105:10 *1105:12 20 
3 *1105:12 *1867:RESET_B 20 
4 *1105:12 *1105:23 6.072 
5 *1105:23 *1866:RESET_B 20 
6 *1105:23 *1105:34 24.1096 
7 *1105:34 *1902:RESET_B 43.6168 
8 *1105:34 *1105:49 1.144 
9 *1105:49 *1900:RESET_B 41.3816 
10 *1105:49 *1105:60 3.8896 
11 *1105:60 *1864:RESET_B 40.2728 
12 *1105:60 *1105:73 25.7904 
13 *1105:73 *1933:RESET_B 20.2728 
14 *1105:73 *1105:86 3.828 
15 *1105:86 *1105:96 47.8144 
16 *1105:96 *1930:RESET_B 20 
17 *1105:86 *1931:RESET_B 20 
*END

*D_NET *1101 0.0103608
*CONN
*I *1925:RESET_B I *D sg13g2_dfrbpq_1
*I *1899:RESET_B I *D sg13g2_dfrbpq_1
*I *1895:RESET_B I *D sg13g2_dfrbpq_1
*I *1893:RESET_B I *D sg13g2_dfrbpq_1
*I *1924:RESET_B I *D sg13g2_dfrbpq_1
*I *1923:RESET_B I *D sg13g2_dfrbpq_1
*I *1892:RESET_B I *D sg13g2_dfrbpq_1
*I *1926:RESET_B I *D sg13g2_dfrbpq_1
*I *2233:X O *D sg13g2_buf_1
*CAP
1 *1925:RESET_B 0
2 *1899:RESET_B 0
3 *1895:RESET_B 0.000268522
4 *1893:RESET_B 3.36686e-05
5 *1924:RESET_B 0
6 *1923:RESET_B 0.000635667
7 *1892:RESET_B 8.83555e-05
8 *1926:RESET_B 0
9 *2233:X 0.000186823
10 *1101:53 0.000967939
11 *1101:49 0.00113142
12 *1101:43 0.00124622
13 *1101:32 0.000654767
14 *1101:24 0.00150954
15 *1101:18 0.00175266
16 *1101:10 0.00102819
17 *1895:RESET_B *1500:A2 0
18 *1895:RESET_B *1129:6 0
19 *1101:10 *1109:37 0
20 *1101:10 *1109:46 0
21 *1101:18 *1109:37 0
22 *1101:18 *1109:81 0
23 *1101:18 *1121:48 0
24 *1101:18 *1132:12 0
25 *1101:24 *1592:A2 0
26 *1101:24 *1109:29 0
27 *1101:24 *1132:12 8.00842e-05
28 *1101:32 *1129:14 0
29 *1101:43 *1129:14 0
30 *1497:A *1101:18 0.000274452
31 *1509:A1 *1923:RESET_B 0
32 *1602:A1 *1101:18 0
33 *1605:A *1923:RESET_B 8.00705e-05
34 *1606:A1 *1923:RESET_B 0
35 *1895:D *1895:RESET_B 0
36 *1923:D *1923:RESET_B 0
37 *1924:D *1101:49 0
38 *1925:D *1101:10 0
39 *1925:D *1101:18 0
40 *110:10 *1101:18 0.000238126
41 *206:14 *1101:53 0
42 *206:23 *1923:RESET_B 0
43 *215:8 *1101:49 0
44 *280:16 *1101:49 0
45 *522:12 *1101:10 0
46 *522:12 *1101:18 0
47 *523:16 *1893:RESET_B 0
48 *523:16 *1101:32 0
49 *523:16 *1101:43 0
50 *523:22 *1101:32 0.000184311
51 *525:14 *1101:18 0
52 *595:8 *1101:49 0
53 *932:27 *1923:RESET_B 0
54 *961:20 *1101:43 0
55 *999:23 *1101:18 0
*RES
1 *2233:X *1101:10 21.9008 
2 *1101:10 *1101:18 47.6736 
3 *1101:18 *1101:24 27.5944 
4 *1101:24 *1101:32 23.036 
5 *1101:32 *1926:RESET_B 20 
6 *1101:32 *1101:43 22.8952 
7 *1101:43 *1101:49 28.5448 
8 *1101:49 *1101:53 2.2352 
9 *1101:53 *1892:RESET_B 20.9328 
10 *1101:53 *1923:RESET_B 25.4032 
11 *1101:49 *1924:RESET_B 20 
12 *1101:43 *1893:RESET_B 40.2728 
13 *1101:24 *1895:RESET_B 42.2088 
14 *1101:18 *1899:RESET_B 20 
15 *1101:10 *1925:RESET_B 20 
*END

*D_NET *1108 0.0135495
*CONN
*I *1888:RESET_B I *D sg13g2_dfrbpq_1
*I *1919:RESET_B I *D sg13g2_dfrbpq_1
*I *1887:RESET_B I *D sg13g2_dfrbpq_1
*I *1918:RESET_B I *D sg13g2_dfrbpq_1
*I *1890:RESET_B I *D sg13g2_dfrbpq_1
*I *1921:RESET_B I *D sg13g2_dfrbpq_1
*I *1891:RESET_B I *D sg13g2_dfrbpq_1
*I *1922:RESET_B I *D sg13g2_dfrbpq_1
*I *2240:X O *D sg13g2_buf_1
*CAP
1 *1888:RESET_B 0.000856837
2 *1919:RESET_B 0.000229805
3 *1887:RESET_B 2.77263e-05
4 *1918:RESET_B 0
5 *1890:RESET_B 0
6 *1921:RESET_B 0.00056007
7 *1891:RESET_B 0
8 *1922:RESET_B 0.000128387
9 *2240:X 0.000535449
10 *1108:90 0.00202571
11 *1108:77 0.00119571
12 *1108:70 0.000256302
13 *1108:62 0.00074493
14 *1108:49 0.000379113
15 *1108:34 0.00106408
16 *1108:21 0.000683963
17 *1108:10 0.000427743
18 *1108:8 0.000535449
19 *1108:21 *1132:49 0
20 *1108:34 *1132:49 0
21 *1108:62 *1148:67 8.02927e-05
22 *1108:77 *1148:67 0
23 *1108:90 *1615:B 0
24 *1108:90 *1148:67 0
25 *1511:A *1108:8 0
26 *1514:A *1921:RESET_B 0
27 *1520:B *1108:90 0
28 *1523:A *1108:90 0
29 *1523:B *1108:90 0.000630797
30 *1609:A *1108:34 0
31 *1609:A *1108:49 0.000130162
32 *1610:A1 *1108:34 0.000112689
33 *1610:B1 *1108:34 4.77863e-05
34 *1613:A *1888:RESET_B 4.78359e-05
35 *1614:A1 *1888:RESET_B 0
36 *1614:A1 *1108:90 0.000404082
37 *1696:A2 *1921:RESET_B 0
38 *1711:A1 *1108:49 0
39 *1888:D *1888:RESET_B 0.000760809
40 *1890:D *1108:34 0
41 *1891:D *1922:RESET_B 0.000209769
42 *1891:D *1108:21 0.000388863
43 *1918:D *1108:70 0
44 *1921:D *1921:RESET_B 0
45 *2149:A *1888:RESET_B 0
46 *2180:A *1108:90 0
47 *90:8 *1919:RESET_B 0
48 *515:57 *1108:77 0
49 *515:57 *1108:90 0
50 *515:61 *1108:90 0
51 *515:76 *1888:RESET_B 0
52 *515:76 *1108:90 0
53 *515:84 *1888:RESET_B 0
54 *534:8 *1921:RESET_B 0
55 *538:8 *1919:RESET_B 0
56 *539:12 *1108:70 4.78192e-05
57 *662:12 *1919:RESET_B 0
58 *669:12 *1922:RESET_B 0
59 *669:12 *1108:8 0
60 *669:12 *1108:21 0
61 *695:12 *1108:8 0
62 *723:47 *1108:70 0
63 *723:93 *1919:RESET_B 0.000501961
64 *917:59 *1108:8 0
65 *923:87 *1108:62 0.000274583
66 *923:87 *1108:70 0.000181279
67 *992:10 *1888:RESET_B 0
68 *992:10 *1919:RESET_B 0
69 *994:8 *1108:34 7.95255e-05
*RES
1 *2240:X *1108:8 45.1568 
2 *1108:8 *1108:10 20 
3 *1108:10 *1922:RESET_B 21.1968 
4 *1108:10 *1108:21 3.0272 
5 *1108:21 *1891:RESET_B 20 
6 *1108:21 *1108:34 23.432 
7 *1108:34 *1921:RESET_B 45.192 
8 *1108:34 *1108:49 1.6016 
9 *1108:49 *1890:RESET_B 40 
10 *1108:49 *1108:62 22.2616 
11 *1108:62 *1108:70 42.8952 
12 *1108:70 *1918:RESET_B 20 
13 *1108:62 *1108:77 1.7512 
14 *1108:77 *1887:RESET_B 20.2992 
15 *1108:77 *1108:90 28.7296 
16 *1108:90 *1919:RESET_B 42.6224 
17 *1108:90 *1888:RESET_B 47.7616 
*END

*D_NET *1110 0.0118464
*CONN
*I *1917:RESET_B I *D sg13g2_dfrbpq_1
*I *1886:RESET_B I *D sg13g2_dfrbpq_1
*I *1883:RESET_B I *D sg13g2_dfrbpq_1
*I *1914:RESET_B I *D sg13g2_dfrbpq_1
*I *1882:RESET_B I *D sg13g2_dfrbpq_1
*I *1913:RESET_B I *D sg13g2_dfrbpq_1
*I *1916:RESET_B I *D sg13g2_dfrbpq_1
*I *1885:RESET_B I *D sg13g2_dfrbpq_1
*I *2242:X O *D sg13g2_buf_1
*CAP
1 *1917:RESET_B 0
2 *1886:RESET_B 0
3 *1883:RESET_B 4.77048e-05
4 *1914:RESET_B 0.000140394
5 *1882:RESET_B 0.00014884
6 *1913:RESET_B 2.77263e-05
7 *1916:RESET_B 0
8 *1885:RESET_B 0.000161547
9 *2242:X 0.000551009
10 *1110:102 0.000943785
11 *1110:86 0.00176826
12 *1110:64 0.000871529
13 *1110:47 0.00121119
14 *1110:36 0.000605552
15 *1110:27 0.000453271
16 *1110:23 0.00114406
17 *1110:12 0.00077777
18 *1882:RESET_B *1148:94 0.000238126
19 *1110:12 *1134:21 0
20 *1110:12 *1135:12 2.4729e-05
21 *1110:12 *1135:79 0.000274189
22 *1110:27 *1135:79 0
23 *1110:36 *1135:79 0
24 *1110:47 *1540:A2 0
25 *1110:47 *1135:79 0
26 *1110:47 *1135:87 0
27 *1110:64 *1148:94 0.00169687
28 *1110:86 *1135:25 0
29 *1110:86 *1135:31 0.00024211
30 *1110:102 *2119:A 0
31 *1110:102 *1135:31 1.54008e-05
32 *1517:B *1110:102 0
33 *1527:A1 *1110:102 0
34 *1527:B1 *1110:102 4.77702e-05
35 *1540:B1 *1882:RESET_B 0
36 *1618:B1 *1110:102 0
37 *1619:A *1885:RESET_B 0
38 *1619:A *1110:23 0
39 *1619:A *1110:86 0
40 *1682:A0 *1110:86 0
41 *1882:D *1882:RESET_B 0
42 *1882:D *1110:47 0
43 *1883:D *1883:RESET_B 0
44 *1883:D *1914:RESET_B 0
45 *1885:CLK *1110:27 0
46 *1886:D *1110:102 4.77425e-05
47 *1913:D *1882:RESET_B 0
48 *1914:CLK *1914:RESET_B 0
49 *1917:D *1110:102 0.000278726
50 *2267:A *1110:12 0
51 *123:12 *1110:102 0
52 *522:46 *1110:102 0
53 *522:55 *1110:102 0
54 *537:12 *1110:102 0.000128097
55 *541:14 *1110:102 0
56 *542:8 *1110:102 0
57 *548:12 *1110:64 0
58 *662:12 *1110:86 0
59 *699:8 *1110:64 0
60 *724:23 *1110:36 0
61 *724:23 *1110:47 0
62 *724:32 *1110:36 0
63 *724:40 *1110:27 0
64 *724:40 *1110:36 0
65 *724:40 *1110:86 0
66 *724:51 *1885:RESET_B 0
67 *724:78 *1110:64 0
68 *989:18 *1110:86 0
*RES
1 *2242:X *1110:12 45.1216 
2 *1110:12 *1885:RESET_B 41.144 
3 *1110:12 *1110:23 0.5104 
4 *1110:23 *1110:27 21.936 
5 *1110:27 *1916:RESET_B 20 
6 *1110:27 *1110:36 1.8656 
7 *1110:36 *1913:RESET_B 20.2992 
8 *1110:36 *1110:47 23.0448 
9 *1110:47 *1882:RESET_B 41.6896 
10 *1110:47 *1110:64 28.1136 
11 *1110:64 *1914:RESET_B 21.1968 
12 *1110:64 *1883:RESET_B 20.4576 
13 *1110:23 *1110:86 27.0224 
14 *1110:86 *1110:102 48.448 
15 *1110:102 *1886:RESET_B 20 
16 *1110:86 *1917:RESET_B 20 
*END

*D_NET *1111 0.00353506
*CONN
*I *2242:A I *D sg13g2_buf_1
*I *1920:RESET_B I *D sg13g2_dfrbpq_1
*I *1889:RESET_B I *D sg13g2_dfrbpq_1
*I *1879:RESET_B I *D sg13g2_dfrbpq_1
*I *1910:RESET_B I *D sg13g2_dfrbpq_1
*I *1878:RESET_B I *D sg13g2_dfrbpq_1
*I *2243:X O *D sg13g2_buf_1
*CAP
1 *2242:A 0.000253074
2 *1920:RESET_B 0
3 *1889:RESET_B 0
4 *1879:RESET_B 3.66008e-05
5 *1910:RESET_B 0
6 *1878:RESET_B 6.68694e-05
7 *2243:X 0.000337257
8 *1111:48 0.000428372
9 *1111:41 0.00037578
10 *1111:28 0.000469719
11 *1111:17 0.000432307
12 *1111:8 0.000603796
13 *2242:A *1148:52 0
14 *1111:8 *1148:52 0
15 *1111:17 *1148:52 0
16 *1111:28 *1148:52 0
17 *1111:41 *1148:52 0
18 *1111:48 *1148:52 0
19 *1553:A2 *1111:8 0
20 *1553:A2 *1111:17 0
21 *1878:D *1111:8 0
22 *1889:D *2242:A 0
23 *1889:D *1111:48 0
24 *1909:RESET_B *1111:8 0.000242281
25 *2267:A *2242:A 0
26 *539:12 *1879:RESET_B 0.000129163
27 *539:12 *1111:28 0.000159839
28 *931:12 *1111:41 0
29 *931:34 *1111:41 0
30 *931:34 *1111:48 0
*RES
1 *2243:X *1111:8 23.1592 
2 *1111:8 *1878:RESET_B 20.7216 
3 *1111:8 *1111:17 1.936 
4 *1111:17 *1910:RESET_B 20 
5 *1111:17 *1111:28 22.288 
6 *1111:28 *1879:RESET_B 40.5104 
7 *1111:28 *1111:41 21.936 
8 *1111:41 *1889:RESET_B 20 
9 *1111:41 *1111:48 1.5664 
10 *1111:48 *1920:RESET_B 20 
11 *1111:48 *2242:A 22.5608 
*END

*D_NET *1109 0.0115972
*CONN
*I *1894:RESET_B I *D sg13g2_dfrbpq_1
*I *2240:A I *D sg13g2_buf_1
*I *1909:RESET_B I *D sg13g2_dfrbpq_1
*I *2243:A I *D sg13g2_buf_1
*I *2233:A I *D sg13g2_buf_1
*I *1897:RESET_B I *D sg13g2_dfrbpq_1
*I *2241:X O *D sg13g2_buf_1
*CAP
1 *1894:RESET_B 0
2 *2240:A 0.000140586
3 *1909:RESET_B 0.000192825
4 *2243:A 0
5 *2233:A 0
6 *1897:RESET_B 0.00042062
7 *2241:X 0.000162273
8 *1109:81 0.000133817
9 *1109:50 0.000322532
10 *1109:46 0.000645103
11 *1109:37 0.00101402
12 *1109:29 0.00229317
13 *1109:12 0.00210304
14 *1909:RESET_B *1111:8 0.000242281
15 *1109:12 *1897:CLK 0
16 *1109:29 *1592:A2 0
17 *1109:29 *1897:CLK 0
18 *1109:29 *2264:A 0
19 *1109:29 *1132:12 0
20 *1109:29 *1140:30 0
21 *1109:37 *2264:A 0
22 *1109:37 *1132:12 0
23 *1109:37 *1148:52 0
24 *1109:81 *1132:12 4.78524e-05
25 *1202:A0 *1109:29 0
26 *1202:A1 *1109:29 0
27 *1503:B1 *1109:37 4.7803e-05
28 *1590:A2 *1109:29 0
29 *1592:B1 *1109:29 0
30 *1602:A1 *1109:37 0
31 *1602:B1 *1109:37 4.79124e-05
32 *1698:B1 *1109:46 0
33 *1802:B1 *1109:29 0
34 *1866:D *1109:29 0
35 *1894:D *1109:37 0.000177399
36 *1909:D *1909:RESET_B 0
37 *1925:D *1109:37 0
38 *2131:A *1897:RESET_B 0
39 *112:10 *1109:12 0
40 *206:68 *1109:46 0
41 *519:10 *1897:RESET_B 0
42 *525:14 *1109:37 0
43 *562:10 *2240:A 0.000585012
44 *562:10 *1109:50 0.000715333
45 *578:20 *1897:RESET_B 0
46 *591:8 *1897:RESET_B 0
47 *594:8 *1109:81 0
48 *669:12 *2240:A 0.000714004
49 *669:12 *1109:50 0.000714833
50 *929:27 *1109:12 0.000101407
51 *929:27 *1109:29 0.000662747
52 *929:33 *1109:12 0.000112651
53 *929:100 *1109:29 0
54 *933:10 *1897:RESET_B 0
55 *933:21 *1109:12 0
56 *964:8 *1109:29 0
57 *1101:10 *1109:37 0
58 *1101:10 *1109:46 0
59 *1101:18 *1109:37 0
60 *1101:18 *1109:81 0
61 *1101:24 *1109:29 0
*RES
1 *2241:X *1109:12 41.584 
2 *1109:12 *1897:RESET_B 43.6608 
3 *1109:12 *1109:29 33.0328 
4 *1109:29 *1109:37 5.896 
5 *1109:37 *2233:A 20 
6 *1109:37 *1109:46 23.4144 
7 *1109:46 *1109:50 22.8336 
8 *1109:50 *2243:A 20 
9 *1109:50 *1909:RESET_B 21.7512 
10 *1109:46 *2240:A 42.8336 
11 *1109:29 *1109:81 41.2056 
12 *1109:81 *1894:RESET_B 20 
*END

*D_NET *1107 0.00885032
*CONN
*I *1896:RESET_B I *D sg13g2_dfrbpq_1
*I *2241:A I *D sg13g2_buf_1
*I *2237:A I *D sg13g2_buf_1
*I *1906:RESET_B I *D sg13g2_dfrbpq_1
*I *2236:A I *D sg13g2_buf_1
*I *1861:RESET_B I *D sg13g2_dfrbpq_1
*I *1990:RESET_B I *D sg13g2_dfrbpq_1
*I *2239:X O *D sg13g2_buf_1
*CAP
1 *1896:RESET_B 2.77263e-05
2 *2241:A 0.000207452
3 *2237:A 0
4 *1906:RESET_B 0
5 *2236:A 0
6 *1861:RESET_B 0.000141914
7 *1990:RESET_B 5.07033e-05
8 *2239:X 0
9 *1107:54 0.000453722
10 *1107:50 0.000654628
11 *1107:43 0.000574792
12 *1107:39 0.00146664
13 *1107:30 0.00213307
14 *1107:10 0.000835617
15 *1107:6 0.00150359
16 *1861:RESET_B *1861:CLK 0
17 *2241:A *1897:CLK 0
18 *1107:10 *1112:60 0
19 *1107:10 *1144:65 0
20 *1107:30 *1112:75 0
21 *1107:30 *1144:65 0
22 *1107:39 *1183:18 0
23 *1107:43 *1906:CLK 0
24 *1107:43 *1145:42 0
25 *1107:50 *1906:CLK 0
26 *1378:A2 *1861:RESET_B 0
27 *1378:A2 *1990:RESET_B 0
28 *1572:A *1107:50 0
29 *1581:A *1107:39 0
30 *1657:S *1107:39 0.000288688
31 *1661:A1 *1107:30 0.000240502
32 *1661:A2 *1107:30 4.76661e-05
33 *1751:A1 *1861:RESET_B 0
34 *1751:A1 *1990:RESET_B 0
35 *1824:B *1107:10 0
36 *1867:D *2241:A 0
37 *1896:D *1107:50 0
38 *1896:D *1107:54 1.54556e-05
39 *1901:D *1107:39 0
40 *1906:D *1107:50 0
41 *202:39 *1107:30 0.00020816
42 *933:21 *2241:A 0
43 *933:21 *1107:54 0
44 *933:32 *1107:54 0
45 *945:8 *1107:39 0
46 *946:10 *1107:30 0
47 *970:12 *1107:39 0
48 *970:27 *1107:39 0
49 *1084:8 *1107:10 0
50 *1104:23 *1107:30 0
51 *1104:29 *1107:30 0
52 *1104:62 *1107:39 0
53 *1105:10 *2241:A 0
54 *1105:10 *1107:54 0
*RES
1 *2239:X *1107:6 40 
2 *1107:6 *1107:10 25.368 
3 *1107:10 *1990:RESET_B 20.4576 
4 *1107:10 *1861:RESET_B 21.1968 
5 *1107:6 *1107:30 27.172 
6 *1107:30 *2236:A 20 
7 *1107:30 *1107:39 32.76 
8 *1107:39 *1107:43 21.7512 
9 *1107:43 *1906:RESET_B 20 
10 *1107:43 *1107:50 3.4144 
11 *1107:50 *1107:54 2.2616 
12 *1107:54 *2237:A 20 
13 *1107:54 *2241:A 21.8656 
14 *1107:50 *1896:RESET_B 20.2992 
*END

*D_NET *1112 0.0217648
*CONN
*I *1870:RESET_B I *D sg13g2_dfrbpq_1
*I *1871:RESET_B I *D sg13g2_dfrbpq_1
*I *2234:A I *D sg13g2_buf_1
*I *2239:A I *D sg13g2_buf_1
*I *1297:A I *D sg13g2_buf_1
*I *1386:A I *D sg13g2_buf_1
*I *2085:A I *D sg13g2_buf_1
*I *1965:RESET_B I *D sg13g2_dfrbpq_1
*I *2244:X O *D sg13g2_buf_1
*CAP
1 *1870:RESET_B 0
2 *1871:RESET_B 6.70632e-05
3 *2234:A 0.000173271
4 *2239:A 4.46993e-05
5 *1297:A 0.000741552
6 *1386:A 4.16911e-05
7 *2085:A 0.000709939
8 *1965:RESET_B 3.03288e-05
9 *2244:X 0.000258164
10 *1112:119 0.00071187
11 *1112:94 0.000836235
12 *1112:90 0.00102763
13 *1112:75 0.0021593
14 *1112:60 0.0018095
15 *1112:49 0.00259595
16 *1112:38 0.00197834
17 *1112:25 0.001739
18 *1112:12 0.000486206
19 *2085:A *1965:CLK 0
20 *2085:A *2013:CLK 0
21 *2234:A *1163:20 0.000272844
22 *1112:60 *1144:65 0
23 *1112:75 *1144:32 0
24 *1112:75 *1144:47 0
25 *1112:75 *1144:65 0
26 *1112:75 *1163:20 0.000272843
27 *1112:90 *1144:47 0
28 *1112:90 *1146:82 0
29 *1112:90 *1163:20 0
30 *1112:90 *1164:14 0.000501463
31 *1112:119 *1870:D 0.000557815
32 *1112:119 *1870:CLK 4.77425e-05
33 *1112:119 *1146:8 0.000518978
34 *1112:119 *1146:19 0.000503121
35 *1112:119 *1146:67 5.28594e-05
36 *1112:119 *1164:14 0.000801741
37 *1254:A1 *1386:A 8.03091e-05
38 *1257:A1 *2234:A 0
39 *1257:B1 *2234:A 0
40 *1260:A *1112:75 0
41 *1377:B *1297:A 0.000274583
42 *1377:B *1112:60 0
43 *1471:S *2085:A 0
44 *1661:A1 *1112:75 0
45 *1808:A *1112:90 0
46 *1812:B1 *1297:A 0
47 *1812:A1 *1297:A 0
48 *1824:B *1112:60 0
49 *2007:D *1112:90 0
50 *2012:D *2085:A 0
51 *2018:RESET_B *1112:49 0
52 *43:10 *1112:12 0.000127744
53 *43:10 *1112:25 0.000716897
54 *43:10 *1112:38 0
55 *364:10 *1112:90 0.000306887
56 *365:8 *1112:94 0
57 *365:20 *1871:RESET_B 0.000127823
58 *365:20 *1112:119 4.77425e-05
59 *365:39 *1112:90 0
60 *367:8 *1112:90 0.000234312
61 *369:8 *1112:75 0
62 *371:8 *2239:A 8.03091e-05
63 *375:10 *1112:49 0
64 *380:10 *1297:A 0
65 *406:8 *1297:A 0
66 *468:10 *1112:49 0
67 *468:10 *1112:60 0
68 *469:10 *1112:60 0
69 *474:36 *2085:A 0
70 *474:36 *1112:38 0
71 *475:12 *1112:38 0
72 *475:43 *1112:49 0
73 *475:80 *1112:49 0
74 *654:24 *1112:119 0
75 *706:20 *1965:RESET_B 4.77425e-05
76 *706:20 *1112:12 0.000112161
77 *707:14 *1386:A 8.03091e-05
78 *913:14 *1112:49 0
79 *943:8 *1112:90 0
80 *951:8 *1112:75 0
81 *951:16 *1112:90 2.20248e-05
82 *1044:19 *1112:49 0
83 *1072:18 *1112:38 0
84 *1073:8 *1112:38 0
85 *1079:46 *1112:38 0
86 *1079:68 *1112:49 0
87 *1083:10 *1112:60 0
88 *1097:105 *2085:A 0
89 *1097:120 *2085:A 0.000565845
90 *1097:120 *1112:25 0
91 *1107:10 *1112:60 0
92 *1107:30 *1112:75 0
*RES
1 *2244:X *1112:12 42.376 
2 *1112:12 *1965:RESET_B 40.2728 
3 *1112:12 *1112:25 22.8336 
4 *1112:25 *2085:A 26.3712 
5 *1112:25 *1112:38 27.9904 
6 *1112:38 *1386:A 40.4576 
7 *1112:38 *1112:49 10.8592 
8 *1112:49 *1297:A 46.3712 
9 *1112:49 *1112:60 7.48 
10 *1112:60 *2239:A 40.4576 
11 *1112:60 *1112:75 29.0464 
12 *1112:75 *2234:A 21.5664 
13 *1112:75 *1112:90 48.9672 
14 *1112:90 *1112:94 20.5104 
15 *1112:94 *1871:RESET_B 40.7216 
16 *1112:94 *1112:119 48.2368 
17 *1112:119 *1870:RESET_B 40 
*END

*D_NET *902 0.00438364
*CONN
*I *1320:A1 I *D sg13g2_o21ai_1
*I *1334:B I *D sg13g2_nand2_1
*I *1335:A1 I *D sg13g2_o21ai_1
*I *1319:B I *D sg13g2_nand2_1
*I *1330:A1 I *D sg13g2_o21ai_1
*I *1329:B I *D sg13g2_nand2_1
*I *2088:X O *D sg13g2_buf_1
*CAP
1 *1320:A1 2.68585e-05
2 *1334:B 0.000229795
3 *1335:A1 0.000102458
4 *1319:B 0
5 *1330:A1 0
6 *1329:B 0
7 *2088:X 0.000342838
8 *902:53 0.000640078
9 *902:42 0.000393092
10 *902:34 0.000335267
11 *902:23 0.000243268
12 *902:16 8.41618e-05
13 *902:8 0.000447124
14 *1320:A1 *1320:A2 4.77425e-05
15 *1334:B *1333:A 0
16 *1335:A1 *1335:A2 8.00842e-05
17 *1335:A1 *1113:22 0
18 *902:8 *1318:A 0
19 *902:8 *911:14 0
20 *902:8 *1029:23 0.000274491
21 *902:16 *1029:23 0
22 *902:23 *1029:23 4.77537e-05
23 *902:34 *1320:A2 4.77425e-05
24 *902:34 *1029:23 1.5412e-05
25 *902:42 *1320:A2 0.00023464
26 *902:53 *1333:A 0
27 *902:53 *1113:22 0
28 *1315:B1 *902:8 1.54556e-05
29 *1319:A *902:16 0.000182023
30 *1319:A *902:23 1.54008e-05
31 *1319:A *902:34 0.000151511
32 *1319:A *902:42 0
33 *1319:A *902:53 0
34 *1329:A *902:16 1.54008e-05
35 *1329:A *902:42 4.77425e-05
36 *422:8 *902:8 0
37 *422:8 *902:16 0
38 *423:8 *902:42 0.000181192
39 *431:8 *902:16 0.000182109
40 *434:8 *1334:B 0
41 *434:8 *902:53 0
42 *901:30 *902:8 0
*RES
1 *2088:X *902:8 23.3704 
2 *902:8 *902:16 41.2056 
3 *902:16 *1329:B 20 
4 *902:8 *902:23 0.2728 
5 *902:23 *1330:A1 20 
6 *902:23 *902:34 1.98 
7 *902:34 *902:42 41.2056 
8 *902:42 *1319:B 20 
9 *902:42 *902:53 3.0888 
10 *902:53 *1335:A1 21.012 
11 *902:53 *1334:B 22.244 
12 *902:34 *1320:A1 20.2728 
*END

*D_NET *901 0.00311361
*CONN
*I *1844:A1 I *D sg13g2_o21ai_1
*I *1314:B I *D sg13g2_nand2_1
*I *1315:A1 I *D sg13g2_o21ai_1
*I *2088:A I *D sg13g2_buf_1
*I *1324:B I *D sg13g2_nand2_1
*I *1325:A1 I *D sg13g2_o21ai_1
*I *1843:B I *D sg13g2_nand2_1
*I *2087:X O *D sg13g2_buf_1
*CAP
1 *1844:A1 0.000106345
2 *1314:B 0.00017496
3 *1315:A1 0
4 *2088:A 0.00014242
5 *1324:B 5.31677e-05
6 *1325:A1 0
7 *1843:B 0
8 *2087:X 0
9 *901:46 0.00020527
10 *901:30 0.000284799
11 *901:26 0.000306506
12 *901:19 0.000389106
13 *901:12 0.000367013
14 *901:6 0.000271237
15 *1314:B *1323:A 0
16 *1314:B *1033:31 9.63175e-06
17 *1844:A1 *1844:A2 1.54008e-05
18 *2088:A *1113:28 0
19 *901:12 *1113:28 0
20 *901:19 *1030:25 1.54008e-05
21 *901:19 *1113:28 0
22 *901:26 *1030:25 0.000208747
23 *901:26 *1033:31 0
24 *901:30 *902:8 0
25 *1314:A *1314:B 0
26 *1315:B1 *1314:B 0
27 *1324:A *1324:B 0
28 *1324:A *901:26 4.78195e-05
29 *2087:A *901:12 4.78343e-05
30 *312:10 *901:12 0.00017729
31 *416:10 *1844:A1 0.00016065
32 *416:10 *901:12 0.000130012
33 *426:8 *1324:B 0
34 *426:8 *2088:A 0
35 *427:10 *901:26 0
*RES
1 *2087:X *901:6 40 
2 *901:6 *901:12 21.7072 
3 *901:12 *1843:B 20 
4 *901:12 *901:19 1.936 
5 *901:19 *1325:A1 20 
6 *901:19 *901:26 1.5664 
7 *901:26 *901:30 1.1792 
8 *901:30 *1324:B 20.4576 
9 *901:30 *2088:A 21.3816 
10 *901:26 *901:46 0.2992 
11 *901:46 *1315:A1 20 
12 *901:46 *1314:B 21.936 
13 *901:6 *1844:A1 41.1792 
*END

*D_NET *580 0.00587423
*CONN
*I *1345:A1 I *D sg13g2_o21ai_1
*I *2087:A I *D sg13g2_buf_1
*I *1310:A1 I *D sg13g2_o21ai_1
*I *1848:A1 I *D sg13g2_o21ai_1
*I *1847:B I *D sg13g2_nand2_1
*I *1309:B I *D sg13g2_nand2_1
*I *1344:B I *D sg13g2_nand2_1
*I *1575:X O *D sg13g2_buf_1
*CAP
1 *1345:A1 0.000177343
2 *2087:A 0.000279057
3 *1310:A1 0
4 *1848:A1 0
5 *1847:B 0.000396236
6 *1309:B 0
7 *1344:B 4.66676e-05
8 *1575:X 4.98828e-05
9 *580:54 0.000481379
10 *580:38 0.000696665
11 *580:34 0.000703059
12 *580:23 0.000546766
13 *580:17 0.000589712
14 *580:6 0.000162462
15 *1345:A1 *1038:25 0.000112426
16 *1345:A1 *1098:8 0
17 *1847:B *1401:A 0
18 *1847:B *1848:A2 0
19 *1847:B *1984:RESET_B 0.000274321
20 *2087:A *1844:A2 0
21 *2087:A *901:12 4.78343e-05
22 *2087:A *1113:28 0
23 *580:6 *1981:CLK 0
24 *580:6 *1984:CLK 0
25 *580:23 *1981:CLK 0.000242483
26 *580:23 *1984:CLK 4.63586e-05
27 *580:23 *1098:8 0
28 *580:34 *1981:CLK 0.000281347
29 *580:38 *1848:A2 1.54556e-05
30 *580:38 *1981:RESET_B 0
31 *580:38 *1981:CLK 0
32 *580:54 *1113:28 0
33 *1309:A *580:23 0
34 *1309:A *580:34 0
35 *1310:B1 *2087:A 0
36 *1310:B1 *580:34 0.000274512
37 *1310:B1 *580:54 0
38 *1847:A *1344:B 0
39 *1847:A *580:17 0
40 *1847:A *580:23 0
41 *1848:B1 *1847:B 0.000339147
42 *312:10 *2087:A 1.54556e-05
43 *443:10 *1344:B 8.0216e-05
44 *443:10 *580:17 1.54446e-05
*RES
1 *1575:X *580:6 20.5104 
2 *580:6 *1344:B 20.4576 
3 *580:6 *580:17 0.7568 
4 *580:17 *580:23 3.2736 
5 *580:23 *1309:B 20 
6 *580:23 *580:34 2.3232 
7 *580:34 *580:38 2.8688 
8 *580:38 *1847:B 23.9248 
9 *580:38 *1848:A1 20 
10 *580:34 *580:54 1.5664 
11 *580:54 *1310:A1 20 
12 *580:54 *2087:A 22.7896 
13 *580:17 *1345:A1 21.5488 
*END

*D_NET *579 0.00508285
*CONN
*I *1575:A I *D sg13g2_buf_1
*I *1340:A1 I *D sg13g2_o21ai_1
*I *1339:B I *D sg13g2_nand2_1
*I *1349:B I *D sg13g2_nand2_1
*I *1350:A1 I *D sg13g2_o21ai_1
*I *1839:B I *D sg13g2_nand2_1
*I *1840:A1 I *D sg13g2_o21ai_1
*I *1574:X O *D sg13g2_buf_1
*CAP
1 *1575:A 0.00052156
2 *1340:A1 0
3 *1339:B 0
4 *1349:B 3.12342e-05
5 *1350:A1 4.04615e-05
6 *1839:B 0
7 *1840:A1 0.000194383
8 *1574:X 0
9 *579:62 0.000136413
10 *579:52 0.000327004
11 *579:41 0.000221825
12 *579:39 0.000657772
13 *579:28 0.000270614
14 *579:8 0.000713575
15 *579:4 0.000613132
16 *1350:A1 *1350:A2 1.54008e-05
17 *1350:A1 *2122:A 8.0216e-05
18 *1575:A *1348:A 0
19 *1575:A *844:107 0
20 *1840:A1 *1840:A2 8.00842e-05
21 *1840:A1 *721:59 0.000112426
22 *579:8 *2122:A 0
23 *579:8 *721:59 0.000842341
24 *579:28 *1340:A2 0
25 *579:39 *1340:A2 0
26 *579:52 *1340:A2 8.02924e-05
27 *579:52 *1348:A 0
28 *579:52 *2122:A 0
29 *579:62 *1340:A2 1.54556e-05
30 *1340:B1 *579:62 0
31 *1840:B1 *1840:A1 0
32 *1840:B1 *579:8 0
33 *1848:B1 *1575:A 0
34 *438:12 *579:62 0
35 *440:8 *1575:A 0
36 *440:8 *579:62 0.000128662
37 *443:10 *1575:A 0
38 *446:8 *1575:A 0
39 *446:8 *579:52 0
40 *446:14 *1575:A 0
41 *446:14 *579:28 0
42 *446:14 *579:39 0
43 *448:12 *1575:A 0
*RES
1 *1574:X *579:4 20 
2 *579:4 *579:8 5.192 
3 *579:8 *1840:A1 22.2176 
4 *579:8 *1839:B 20 
5 *579:4 *579:28 20.7216 
6 *579:28 *1350:A1 40.4576 
7 *579:28 *579:39 1.144 
8 *579:39 *579:41 20 
9 *579:41 *1349:B 20.4576 
10 *579:41 *579:52 1.8656 
11 *579:52 *579:62 41.6896 
12 *579:62 *1339:B 20 
13 *579:52 *1340:A1 20 
14 *579:39 *1575:A 44.9544 
*END

*D_NET *900 0.00914797
*CONN
*I *1368:A1 I *D sg13g2_a21oi_1
*I *1367:A I *D sg13g2_nor2_1
*I *1791:A1 I *D sg13g2_a21oi_1
*I *1790:A I *D sg13g2_nor2_1
*I *1355:A I *D sg13g2_nor2_1
*I *1361:A I *D sg13g2_nor2_1
*I *1362:A1 I *D sg13g2_a21oi_1
*I *2086:X O *D sg13g2_buf_1
*CAP
1 *1368:A1 0.00059067
2 *1367:A 3.58171e-05
3 *1791:A1 3.77166e-05
4 *1790:A 0
5 *1355:A 0.00044662
6 *1361:A 0
7 *1362:A1 0
8 *2086:X 0.000211904
9 *900:71 0.000779796
10 *900:44 0.00057418
11 *900:38 0.000667273
12 *900:27 0.000596788
13 *900:21 0.000423017
14 *900:12 0.000551917
15 *900:8 0.000588905
16 *1355:A *1424:B 0.000307227
17 *1355:A *1790:B 1.54008e-05
18 *1368:A1 *1366:A 0
19 *1368:A1 *915:93 0.000182023
20 *900:12 *1425:A2 0
21 *900:12 *1971:RESET_B 0
22 *900:12 *920:8 0
23 *900:27 *1078:14 0.000182517
24 *900:38 *915:87 0
25 *900:38 *1078:25 0
26 *900:44 *1790:B 4.77425e-05
27 *900:44 *915:72 0
28 *900:71 *915:93 0.000500301
29 *900:71 *1078:14 0.000128742
30 *1362:B1 *900:21 0
31 *1368:A2 *1368:A1 0.000274594
32 *1368:B1 *1368:A1 0
33 *1424:A *1355:A 0.000177306
34 *1424:A *900:44 3.23417e-05
35 *1427:B1 *1368:A1 4.77425e-05
36 *1971:D *900:12 0
37 *1972:D *1355:A 0
38 *63:10 *900:38 0
39 *63:10 *900:71 0
40 *285:10 *1368:A1 0.000159511
41 *285:10 *900:27 0.000288236
42 *285:10 *900:38 0
43 *285:10 *900:71 0.000745546
44 *456:21 *900:12 1.54008e-05
45 *456:21 *900:21 8.00842e-05
46 *461:8 *1368:A1 6.48261e-05
47 *493:12 *900:38 5.31192e-05
48 *493:12 *900:44 0.000340704
49 *714:30 *900:27 0
*RES
1 *2086:X *900:8 41.9888 
2 *900:8 *900:12 23.0448 
3 *900:12 *1362:A1 20 
4 *900:12 *900:21 21.3816 
5 *900:21 *900:27 21.4168 
6 *900:27 *1361:A 20 
7 *900:27 *900:38 24.796 
8 *900:38 *900:44 21.628 
9 *900:44 *1355:A 24.224 
10 *900:44 *1790:A 20 
11 *900:38 *1791:A1 40.2728 
12 *900:21 *900:71 3.0448 
13 *900:71 *1367:A 40.2728 
14 *900:71 *1368:A1 45.7288 
*END

*D_NET *582 0.00861941
*CONN
*I *1788:A1 I *D sg13g2_a21oi_1
*I *1302:A1 I *D sg13g2_a21oi_1
*I *1301:A I *D sg13g2_nor2_1
*I *1305:A I *D sg13g2_nor2_1
*I *1306:A1 I *D sg13g2_a21oi_1
*I *1240:A1 I *D sg13g2_a21oi_1
*I *1239:A I *D sg13g2_nor2_1
*I *1577:X O *D sg13g2_buf_1
*CAP
1 *1788:A1 0.000169298
2 *1302:A1 2.91113e-05
3 *1301:A 0
4 *1305:A 4.79671e-05
5 *1306:A1 0
6 *1240:A1 0
7 *1239:A 0.000102801
8 *1577:X 0.00126073
9 *582:72 0.000101546
10 *582:64 0.000484443
11 *582:48 0.000156685
12 *582:40 0.00134289
13 *582:25 0.00105984
14 *582:10 0.00146962
15 *1239:A *1238:A 0
16 *1239:A *1239:B 1.54008e-05
17 *1305:A *1305:B 8.58762e-06
18 *1788:A1 *721:96 0
19 *582:10 *721:90 0
20 *582:10 *1113:77 0
21 *582:25 *1113:77 0
22 *582:40 *1239:B 0
23 *582:40 *612:12 0
24 *582:40 *727:20 0
25 *582:48 *727:20 4.77425e-05
26 *582:64 *727:20 0
27 *582:64 *1055:6 0
28 *1240:A2 *582:10 0
29 *1240:A2 *582:25 0
30 *1240:B1 *1239:A 4.77363e-05
31 *1240:B1 *582:25 0
32 *1299:A0 *582:25 7.92265e-05
33 *1306:B1 *582:40 0
34 *1432:A1 *582:10 0
35 *1434:A1 *582:72 0.00034112
36 *1664:A0 *582:48 0
37 *1665:A0 *582:72 7.51285e-05
38 *411:6 *582:48 4.77425e-05
39 *411:12 *582:48 0.000393736
40 *413:8 *582:48 0.00012816
41 *436:12 *582:10 0
42 *453:16 *582:25 0
43 *453:16 *582:40 0
44 *458:8 *582:72 0.000288172
45 *458:16 *582:40 0.000371113
46 *458:16 *582:64 0.000550614
*RES
1 *1577:X *582:10 48.7824 
2 *582:10 *1239:A 40.8272 
3 *582:10 *582:25 22.1824 
4 *582:25 *1240:A1 20 
5 *582:25 *582:40 46.732 
6 *582:40 *582:48 41.8392 
7 *582:48 *1306:A1 20 
8 *582:40 *1305:A 20.5324 
9 *582:40 *582:64 3.4144 
10 *582:64 *582:72 41.628 
11 *582:72 *1301:A 20 
12 *582:64 *1302:A1 20.2728 
13 *1577:X *1788:A1 41.3816 
*END

*D_NET *721 0.0297949
*CONN
*I *1577:A I *D sg13g2_buf_1
*I *1787:A I *D sg13g2_nor2_1
*I *2086:A I *D sg13g2_buf_1
*I *1356:A1 I *D sg13g2_a21oi_1
*I *1574:A I *D sg13g2_buf_1
*I *1289:B I *D sg13g2_nand4_1
*I *1292:A1 I *D sg13g2_a21oi_1
*I *1287:A I *D sg13g2_nor2_1
*I *2094:X O *D sg13g2_buf_1
*CAP
1 *1577:A 2.77263e-05
2 *1787:A 4.35766e-05
3 *2086:A 2.77485e-05
4 *1356:A1 0
5 *1574:A 0
6 *1289:B 0.000103747
7 *1292:A1 0
8 *1287:A 0.000334834
9 *2094:X 0.000109776
10 *721:110 0.000311549
11 *721:102 0.000849872
12 *721:96 0.000867947
13 *721:90 0.000868157
14 *721:82 0.00276487
15 *721:70 0.00455336
16 *721:59 0.00169682
17 *721:42 0.00213985
18 *721:29 0.000339279
19 *721:16 0.0013509
20 *721:12 0.00351899
21 *721:8 0.000297572
22 *1287:A *1046:27 0
23 *1289:B *1288:C 0
24 *1289:B *1289:C 4.7803e-05
25 *1289:B *1289:A 0.000128662
26 *1289:B *1046:40 0.000181192
27 *2086:A *1113:50 0
28 *721:8 *2094:A 0
29 *721:12 *861:12 0.000112689
30 *721:16 *873:50 0.000661398
31 *721:16 *1095:12 0
32 *721:42 *1288:C 0
33 *721:42 *1289:A 4.77425e-05
34 *721:42 *1046:40 0.000549825
35 *721:59 *1392:A 0
36 *721:59 *1396:A2 0
37 *721:59 *1986:CLK 0
38 *721:59 *2122:A 0
39 *721:59 *844:58 0
40 *721:59 *1046:40 7.51285e-05
41 *721:59 *1095:53 0
42 *721:59 *1117:14 0.000128662
43 *721:59 *1117:23 0
44 *721:70 *1674:S 0.000760592
45 *721:70 *1992:CLK 0
46 *721:70 *861:12 0.000566053
47 *721:70 *861:23 0
48 *721:70 *873:68 0
49 *721:70 *875:8 0
50 *721:70 *910:48 0.000341857
51 *721:70 *1116:16 0
52 *721:70 *1119:60 0
53 *721:70 *1128:39 0.000792817
54 *721:82 *1316:B 0
55 *721:82 *1326:B 0.000111952
56 *721:82 *1343:A 0
57 *721:82 *2256:A 0
58 *721:82 *1098:8 0
59 *721:82 *1124:62 0.000186186
60 *721:82 *1124:71 0.000364016
61 *721:82 *1128:39 0
62 *721:82 *1130:31 0
63 *721:82 *1130:46 0
64 *721:82 *1130:53 0
65 *721:82 *1130:57 0
66 *721:90 *1321:A 8.00954e-05
67 *721:90 *1322:A1 0.000128068
68 *721:90 *1331:A 5.30319e-05
69 *721:90 *2123:A 0
70 *721:90 *1130:57 4.77425e-05
71 *721:96 *2123:A 0
72 *721:96 *915:12 0.000557452
73 *721:96 *919:67 0
74 *721:102 *1430:A2 0
75 *721:102 *2123:A 0
76 *721:102 *915:12 0.000342629
77 *721:102 *1113:50 0
78 *721:110 *1354:A 0
79 *721:110 *1971:RESET_B 0
80 *721:110 *905:71 0
81 *721:110 *1113:50 0
82 *1288:A *1287:A 4.78192e-05
83 *1288:A *721:42 0
84 *1342:B1 *721:70 0
85 *1347:B1 *721:70 1.54008e-05
86 *1356:A2 *721:110 0
87 *1396:B1 *721:59 0
88 *1757:B1 *721:16 0.000287758
89 *1758:B1 *721:59 0
90 *1788:A1 *721:96 0
91 *1840:A1 *721:59 0.000112426
92 *1970:D *721:102 0
93 *1985:D *721:59 0
94 *2026:D *721:70 0
95 *2047:RESET_B *721:12 0
96 *2047:RESET_B *721:70 0
97 *2128:A *721:8 0
98 *255:10 *721:16 0.000500576
99 *256:8 *721:16 0.000641276
100 *256:27 *721:59 0
101 *313:10 *721:82 0
102 *396:8 *1287:A 0
103 *397:8 *721:16 0
104 *399:12 *721:16 0
105 *399:12 *721:59 0
106 *401:12 *721:8 0
107 *401:12 *721:16 0
108 *432:8 *721:90 0
109 *453:8 *721:110 0.000875167
110 *579:8 *721:59 0.000842341
111 *582:10 *721:90 0
112 *612:30 *721:90 0
113 *612:30 *721:96 0
114 *713:12 *721:12 0
115 *714:26 *2086:A 0
116 *714:26 *721:102 0
*RES
1 *2094:X *721:8 40.9328 
2 *721:8 *721:12 21.5664 
3 *721:12 *721:16 31.704 
4 *721:16 *1287:A 42.8424 
5 *721:16 *721:29 20 
6 *721:29 *1292:A1 20 
7 *721:29 *721:42 23.1372 
8 *721:42 *1289:B 41.1792 
9 *721:42 *721:59 34.96 
10 *721:59 *1574:A 20 
11 *721:12 *721:70 41.0848 
12 *721:70 *721:82 39.3952 
13 *721:82 *721:90 44.8752 
14 *721:90 *721:96 23.5816 
15 *721:96 *721:102 24.7696 
16 *721:102 *721:110 43.9248 
17 *721:110 *1356:A1 20 
18 *721:102 *2086:A 20.2728 
19 *721:96 *1787:A 40.4576 
20 *721:90 *1577:A 20.2992 
*END

*D_NET *516 0.0102351
*CONN
*I *1236:A1 I *D sg13g2_a21oi_1
*I *1230:A1 I *D sg13g2_a21oi_1
*I *1704:A1 I *D sg13g2_a21oi_1
*I *1198:A2 I *D sg13g2_a21oi_1
*I *1860:A1 I *D sg13g2_a21oi_1
*I *1218:A1 I *D sg13g2_a21oi_1
*I *1205:A1 I *D sg13g2_a21oi_1
*I *1227:A1 I *D sg13g2_a21oi_1
*I *1480:X O *D sg13g2_buf_1
*CAP
1 *1236:A1 0.000408136
2 *1230:A1 0
3 *1704:A1 0
4 *1198:A2 0.000373775
5 *1860:A1 0
6 *1218:A1 0
7 *1205:A1 0.000250427
8 *1227:A1 0
9 *1480:X 0.000199357
10 *516:72 0.000547695
11 *516:58 0.000655704
12 *516:50 0.000877131
13 *516:41 0.00100006
14 *516:23 0.000334808
15 *516:21 0.00132986
16 *516:8 0.000900417
17 *1198:A2 *519:36 0.000177326
18 *1198:A2 *762:8 0
19 *1198:A2 *1126:12 0
20 *1198:A2 *1126:26 0.000306205
21 *1205:A1 *1225:A 0
22 *1205:A1 *674:10 4.79017e-05
23 *1205:A1 *1103:36 0
24 *1236:A1 *1491:A2 0
25 *1236:A1 *1933:RESET_B 4.77534e-05
26 *1236:A1 *678:10 4.77425e-05
27 *1236:A1 *680:10 3.23417e-05
28 *1236:A1 *1105:86 0
29 *516:8 *1480:A 0
30 *516:8 *679:10 4.79124e-05
31 *516:8 *1126:26 0
32 *516:8 *1126:30 0
33 *516:8 *1126:47 0
34 *516:8 *1183:14 0
35 *516:21 *1928:CLK 0
36 *516:21 *679:10 3.23965e-05
37 *516:21 *1126:26 0.000597428
38 *516:21 *1183:14 0
39 *516:23 *1225:A 0
40 *516:41 *1225:A 0
41 *516:41 *1865:RESET_B 0
42 *516:41 *685:10 0
43 *516:41 *686:10 4.77425e-05
44 *516:41 *1103:66 0
45 *516:41 *1103:68 0
46 *516:41 *1142:25 0
47 *516:41 *1142:34 0
48 *516:41 *1142:40 0
49 *516:50 *1805:A 0
50 *516:50 *1865:RESET_B 0
51 *516:50 *686:10 3.24351e-05
52 *516:50 *1138:64 0
53 *516:50 *1142:23 0
54 *516:50 *1142:25 0
55 *516:58 *519:36 6.46834e-05
56 *516:58 *519:85 0
57 *516:72 *519:85 0
58 *516:72 *680:10 4.78356e-05
59 *516:72 *1138:64 0
60 *1198:A1 *1198:A2 0.000112095
61 *1205:A2 *1205:A1 0
62 *1489:A1 *516:58 0
63 *1495:A1 *516:21 0
64 *1933:D *1236:A1 0
65 *82:10 *516:21 0.000112426
66 *323:27 *1198:A2 0.000176644
67 *334:10 *516:21 0.000712844
68 *507:100 *516:58 0.000714003
*RES
1 *1480:X *516:8 21.9184 
2 *516:8 *1227:A1 20 
3 *516:8 *516:21 47.2248 
4 *516:21 *516:23 0.6424 
5 *516:23 *1205:A1 21.9536 
6 *516:23 *1218:A1 20 
7 *516:21 *516:41 4.708 
8 *516:41 *1860:A1 20 
9 *516:41 *516:50 4.0832 
10 *516:50 *516:58 43.2912 
11 *516:58 *1198:A2 23.4144 
12 *516:58 *1704:A1 20 
13 *516:50 *516:72 1.1968 
14 *516:72 *1230:A1 20 
15 *516:72 *1236:A1 23.4144 
*END

*D_NET *520 0.00610127
*CONN
*I *1200:A I *D sg13g2_nor2_1
*I *1480:A I *D sg13g2_buf_1
*I *1201:A1 I *D sg13g2_a21oi_1
*I *1221:A1 I *D sg13g2_a21oi_1
*I *1215:A1 I *D sg13g2_a21oi_1
*I *1220:A I *D sg13g2_nor2_1
*I *1223:A I *D sg13g2_nor2_1
*I *1214:A I *D sg13g2_nor2_1
*I *1484:X O *D sg13g2_buf_1
*CAP
1 *1200:A 0
2 *1480:A 0.000219192
3 *1201:A1 0
4 *1221:A1 0.000410342
5 *1215:A1 0.000186827
6 *1220:A 0.000217505
7 *1223:A 0.000141694
8 *1214:A 0.000251979
9 *1484:X 0
10 *520:73 0.000248434
11 *520:54 0.000602495
12 *520:39 0.00044419
13 *520:35 0.000212875
14 *520:8 0.000457363
15 *520:6 0.000295321
16 *520:4 0.00013255
17 *1214:A *1935:RESET_B 0
18 *1215:A1 *930:67 0
19 *1215:A1 *1126:66 0.000176537
20 *1220:A *1214:B 1.54008e-05
21 *1220:A *1126:66 0
22 *1221:A1 *1213:A 0
23 *1221:A1 *676:10 4.77425e-05
24 *1221:A1 *682:12 0
25 *1221:A1 *930:67 0
26 *1223:A *790:17 0
27 *1480:A *676:10 0.000291393
28 *1480:A *682:12 0
29 *1480:A *1126:30 0
30 *1480:A *1126:47 0
31 *520:35 *790:17 8.03692e-05
32 *520:39 *1200:B 0.000128662
33 *520:39 *1487:B1 0
34 *520:39 *790:17 0.00023464
35 *520:54 *790:17 0.000341119
36 *520:54 *930:52 0
37 *520:73 *676:10 3.23417e-05
38 *1201:B1 *520:35 0
39 *1215:A2 *1215:A1 1.54008e-05
40 *1221:A2 *1221:A1 4.77537e-05
41 *1221:B1 *1221:A1 9.5485e-05
42 *1224:A1 *520:35 0
43 *1224:B1 *1223:A 0
44 *1224:B1 *520:6 0
45 *1224:B1 *520:8 0
46 *1224:B1 *520:35 0
47 *1484:A *1214:A 0
48 *1484:A *1220:A 0.00024105
49 *1929:D *1221:A1 0
50 *506:14 *1214:A 0.000305964
51 *506:14 *1223:A 0.000226649
52 *516:8 *1480:A 0
*RES
1 *1484:X *520:4 20 
2 *520:4 *520:6 0.2992 
3 *520:6 *520:8 0.7216 
4 *520:8 *1214:A 22.1208 
5 *520:8 *1223:A 21.3816 
6 *520:6 *1220:A 22.42 
7 *520:4 *520:35 1.5752 
8 *520:35 *520:39 21.144 
9 *520:39 *1215:A1 41.5664 
10 *520:39 *520:54 21.628 
11 *520:54 *1221:A1 23.7752 
12 *520:54 *520:73 0.2728 
13 *520:73 *1201:A1 20 
14 *520:73 *1480:A 22.0504 
15 *520:35 *1200:A 20 
*END

*D_NET *518 0.00527848
*CONN
*I *1217:A I *D sg13g2_nor2_1
*I *1224:A1 I *D sg13g2_a21oi_1
*I *1703:A I *D sg13g2_nor2_1
*I *1859:A I *D sg13g2_nor2_1
*I *1197:B I *D sg13g2_nor2_1
*I *1204:A I *D sg13g2_nor2_1
*I *1226:A I *D sg13g2_nor2_1
*I *1482:X O *D sg13g2_buf_1
*CAP
1 *1217:A 4.83029e-05
2 *1224:A1 0.000682992
3 *1703:A 0.000496009
4 *1859:A 0
5 *1197:B 4.84276e-05
6 *1204:A 0
7 *1226:A 4.85571e-05
8 *1482:X 5.1211e-05
9 *518:53 0.000774515
10 *518:26 0.00108202
11 *518:24 0.000653605
12 *518:15 0.000195845
13 *518:6 0.00022281
14 *1217:A *1927:RESET_B 8.03692e-05
15 *1224:A1 *1927:RESET_B 0
16 *1224:A1 *1935:CLK 0
17 *1224:A1 *520:35 0
18 *1224:A1 *790:17 0.000121759
19 *1224:A1 *970:27 8.00842e-05
20 *1703:A *1703:B 0
21 *1703:A *1859:B 0
22 *1703:A *930:10 0
23 *1703:A *966:25 0
24 *518:26 *1859:B 0
25 *518:26 *1927:RESET_B 0
26 *518:26 *790:17 0
27 *518:26 *966:25 0
28 *518:26 *977:8 0.000177125
29 *1224:B1 *1224:A1 0
30 *81:10 *518:26 0
31 *328:10 *1224:A1 0
32 *328:10 *1226:A 8.02267e-05
33 *328:10 *518:15 0.000144691
34 *340:10 *1224:A1 0.000242203
35 *506:14 *1224:A1 0
36 *506:14 *518:6 0
37 *506:33 *1224:A1 0
38 *506:33 *1226:A 0
39 *506:33 *518:15 0
40 *506:33 *518:24 0
41 *506:33 *518:26 0
42 *506:35 *1703:A 4.7725e-05
*RES
1 *1482:X *518:6 20.5104 
2 *518:6 *1226:A 20.4576 
3 *518:6 *518:15 1.1968 
4 *518:15 *1204:A 20 
5 *518:15 *518:24 0.7568 
6 *518:24 *518:26 4.8928 
7 *518:26 *1197:B 20.5104 
8 *518:26 *1859:A 20 
9 *518:26 *1703:A 24.5232 
10 *518:24 *518:53 0.5104 
11 *518:53 *1224:A1 26.3712 
12 *518:53 *1217:A 20.7568 
*END

*D_NET *515 0.0131854
*CONN
*I *1208:S I *D sg13g2_mux2_1
*I *1672:S I *D sg13g2_mux2_1
*I *1237:S I *D sg13g2_mux2_1
*I *1684:S I *D sg13g2_mux2_1
*I *1673:S I *D sg13g2_mux2_1
*I *1711:S I *D sg13g2_mux2_1
*I *1235:A I *D sg13g2_nor2_1
*I *1233:A1 I *D sg13g2_a21oi_1
*I *1479:X O *D sg13g2_buf_1
*CAP
1 *1208:S 4.72978e-05
2 *1672:S 8.41324e-05
3 *1237:S 2.77263e-05
4 *1684:S 0
5 *1673:S 0
6 *1711:S 0
7 *1235:A 0
8 *1233:A1 0.000196046
9 *1479:X 0.000228719
10 *515:84 0.000430302
11 *515:76 0.00105264
12 *515:69 0.00051274
13 *515:61 0.00146384
14 *515:57 0.00131084
15 *515:42 0.00127317
16 *515:38 0.0013552
17 *515:27 0.000487241
18 *515:12 0.001019
19 *515:8 0.00146938
20 *1233:A1 *677:10 4.77863e-05
21 *1233:A1 *1105:96 0
22 *1237:S *1237:A1 0
23 *1672:S *1615:A 0.000235556
24 *1672:S *1672:A1 0
25 *515:8 *672:8 0
26 *515:8 *1132:36 0
27 *515:8 *1132:45 0
28 *515:12 *1930:CLK 0
29 *515:27 *1231:A 0
30 *515:27 *1235:B 1.54008e-05
31 *515:27 *671:12 0
32 *515:27 *762:8 0.000209681
33 *515:38 axi_lite_o[19] 0
34 *515:38 *1208:A1 0
35 *515:38 *1930:CLK 0
36 *515:38 *672:8 0
37 *515:38 *695:12 0
38 *515:38 *923:54 0
39 *515:38 *995:8 0
40 *515:42 *1711:A0 1.54556e-05
41 *515:42 *923:74 0
42 *515:42 *923:87 0
43 *515:42 *959:6 0
44 *515:42 *1148:67 0
45 *515:57 *1615:A 0.000181608
46 *515:57 *1615:B 1.54556e-05
47 *515:57 *1672:A1 0
48 *515:57 *1711:A0 0
49 *515:57 *1887:CLK 0.000183785
50 *515:57 *1890:CLK 0.000436022
51 *515:57 *923:87 0
52 *515:57 *991:8 0
53 *515:57 *1108:77 0
54 *515:57 *1108:90 0
55 *515:61 *1615:B 0
56 *515:61 *1108:90 0
57 *515:69 *1524:A2 4.77425e-05
58 *515:69 *1673:A1 0.000234224
59 *515:69 *2096:A 0
60 *515:69 *663:10 0
61 *515:69 *916:41 7.51285e-05
62 *515:69 *916:67 0
63 *515:69 *990:8 4.77425e-05
64 *515:69 *1148:59 0
65 *515:76 *1237:A1 0
66 *515:76 *1614:A1 0
67 *515:76 *1888:RESET_B 0
68 *515:76 *2183:A 0
69 *515:76 *992:10 0.000209681
70 *515:76 *1108:90 0
71 *515:84 *1237:A1 0
72 *515:84 *1536:A 7.52149e-05
73 *515:84 *1613:A 0
74 *515:84 *1684:A1 0.000181192
75 *515:84 *1888:RESET_B 0
76 *515:84 *660:8 0
77 *515:84 *699:8 0
78 *1233:B1 *1233:A1 0
79 *1492:A1 *1233:A1 1.54446e-05
80 *1492:A1 *515:27 0
*RES
1 *1479:X *515:8 42.4112 
2 *515:8 *515:12 23.0448 
3 *515:12 *1233:A1 21.936 
4 *515:12 *515:27 45.4032 
5 *515:27 *1235:A 20 
6 *515:8 *515:38 28.3072 
7 *515:38 *515:42 3.9248 
8 *515:42 *1711:S 20 
9 *515:42 *515:57 27.8496 
10 *515:57 *515:61 23.2296 
11 *515:61 *515:69 44.796 
12 *515:69 *1673:S 20 
13 *515:61 *515:76 5.4472 
14 *515:76 *515:84 43.9776 
15 *515:84 *1684:S 20 
16 *515:76 *1237:S 20.2992 
17 *515:57 *1672:S 40.9328 
18 *515:38 *1208:S 20.5104 
*END

*D_NET *522 0.0104149
*CONN
*I *1207:S I *D sg13g2_mux2_1
*I *1695:A I *D sg13g2_nor2_1
*I *1696:A1 I *D sg13g2_a21oi_1
*I *1685:S I *D sg13g2_mux2_1
*I *1682:S I *D sg13g2_mux2_1
*I *1713:S I *D sg13g2_mux2_1
*I *1697:A I *D sg13g2_nor2_1
*I *1698:A1 I *D sg13g2_a21oi_1
*I *1497:X O *D sg13g2_buf_1
*CAP
1 *1207:S 0.000252454
2 *1695:A 0
3 *1696:A1 0.000211699
4 *1685:S 0.000628464
5 *1682:S 0
6 *1713:S 0
7 *1697:A 0.000341552
8 *1698:A1 9.62195e-05
9 *1497:X 4.13468e-05
10 *522:55 0.00124244
11 *522:46 0.00177428
12 *522:31 0.00168052
13 *522:29 0.00039036
14 *522:27 0.000510062
15 *522:12 0.00113184
16 *522:8 0.000819356
17 *1207:S *1207:A0 0
18 *1207:S *1207:A1 0
19 *1207:S *1894:CLK 0
20 *1207:S *671:12 0.000587785
21 *1685:S *1685:A0 8.0216e-05
22 *1685:S *724:32 0
23 *1685:S *986:8 0
24 *1685:S *989:8 0
25 *1685:S *1015:8 0
26 *1685:S *1135:31 0
27 *1685:S *1135:41 0
28 *1696:A1 *1610:A1 0
29 *1696:A1 *533:12 0
30 *1696:A1 *696:12 0
31 *1696:A1 *917:49 0
32 *1697:A *1697:B 0
33 *1697:A *1910:CLK 0
34 *1697:A *917:30 0
35 *1697:A *923:14 0
36 *1697:A *985:21 0.00012816
37 *1698:A1 *1698:A2 1.54556e-05
38 *522:8 *671:12 0.000128334
39 *522:12 *923:32 0
40 *522:12 *1101:10 0
41 *522:12 *1101:18 0
42 *522:12 *1121:48 0.000241979
43 *522:12 *1132:36 0
44 *522:27 *1515:A2 0
45 *522:27 *1554:A 0
46 *522:27 *1697:B 0
47 *522:27 *1698:A2 0
48 *522:27 *923:32 0
49 *522:31 *533:12 0
50 *522:31 *917:30 0
51 *522:46 *1515:A2 0
52 *522:46 *1515:B1 0
53 *522:46 *1517:A 0.000112426
54 *522:46 *1547:A 0
55 *522:46 *1611:B 0
56 *522:46 *1713:A1 0
57 *522:46 *957:8 0
58 *522:46 *985:8 0
59 *522:46 *996:14 0
60 *522:46 *1110:102 0
61 *522:55 *1517:B 0
62 *522:55 *989:18 0
63 *522:55 *1110:102 0
64 *1698:B1 *1698:A1 0
65 *1886:D *522:46 0
66 *1917:D *522:55 0
67 *1921:D *522:46 0
68 *506:74 *1207:S 0
69 *506:74 *522:8 0
*RES
1 *1497:X *522:8 40.5104 
2 *522:8 *522:12 24.3384 
3 *522:12 *1698:A1 20.968 
4 *522:12 *522:27 4.3824 
5 *522:27 *522:29 20 
6 *522:29 *522:31 1.7776 
7 *522:31 *1697:A 42.8688 
8 *522:31 *522:46 30.0672 
9 *522:46 *1713:S 20 
10 *522:46 *522:55 5.6144 
11 *522:55 *1682:S 20 
12 *522:55 *1685:S 25.7728 
13 *522:29 *1696:A1 41.9888 
14 *522:27 *1695:A 20 
15 *522:8 *1207:S 43.0536 
*END

*D_NET *407 0.0138664
*CONN
*I *1206:S I *D sg13g2_mux2_1
*I *1209:S I *D sg13g2_mux2_1
*I *1700:S I *D sg13g2_mux2_1
*I *1683:S I *D sg13g2_mux2_1
*I *1701:S I *D sg13g2_mux2_1
*I *1686:S I *D sg13g2_mux2_1
*I *1691:S I *D sg13g2_mux2_1
*I *1298:X O *D sg13g2_buf_1
*CAP
1 *1206:S 0.000224592
2 *1209:S 6.68694e-05
3 *1700:S 0
4 *1683:S 0
5 *1701:S 0.000483936
6 *1686:S 0
7 *1691:S 3.22215e-05
8 *1298:X 6.24289e-05
9 *407:55 0.000147331
10 *407:49 0.00147117
11 *407:34 0.00151797
12 *407:26 0.00167161
13 *407:18 0.00206089
14 *407:14 0.00204622
15 *407:8 0.00123124
16 *1206:S *2259:A 0
17 *1701:S *694:14 0
18 *1701:S *1133:59 0
19 *407:8 *1298:A 0.000128248
20 *407:8 *961:20 0
21 *407:14 *1506:A2 0
22 *407:14 *1506:B1 4.78521e-05
23 *407:14 *1604:A1 0
24 *407:14 *2259:A 0
25 *407:14 *527:12 0
26 *407:14 *528:8 0
27 *407:14 *595:8 0
28 *407:14 *960:8 0
29 *407:14 *961:20 0
30 *407:14 *1121:56 0
31 *407:18 *1209:A1 0
32 *407:18 *1508:A 0.000209505
33 *407:18 *1552:A 0
34 *407:18 *1552:B 0
35 *407:18 *1700:A1 0
36 *407:18 *932:12 0
37 *407:18 *980:6 0
38 *407:18 *1127:34 0
39 *407:26 *1683:A0 0
40 *407:26 *539:12 0
41 *407:26 *694:14 0
42 *407:26 *974:23 0.000181279
43 *407:26 *980:12 0
44 *407:26 *1134:8 0
45 *407:34 *537:12 0
46 *407:34 *543:8 0.000181192
47 *407:34 *694:14 0.000857479
48 *407:34 *1148:90 0
49 *407:49 *2127:A 4.78195e-05
50 *407:49 *694:14 0.000678786
51 *407:49 *1007:10 0.000177399
52 *407:49 *1133:59 0
53 *407:49 *1148:90 0
54 *407:55 *1542:A 0
55 *407:55 *1627:A 0.000340375
56 *407:55 *1686:A1 0
57 *1893:CLK *1206:S 0
58 *206:14 *407:14 0
59 *206:23 *407:14 0
*RES
1 *1298:X *407:8 40.7216 
2 *407:8 *407:14 27.8848 
3 *407:14 *407:18 8.888 
4 *407:18 *407:26 48.3072 
5 *407:26 *407:34 45.6144 
6 *407:34 *1691:S 20.2992 
7 *407:34 *407:49 7.4272 
8 *407:49 *407:55 41.3552 
9 *407:55 *1686:S 20 
10 *407:49 *1701:S 23.4144 
11 *407:26 *1683:S 20 
12 *407:18 *1700:S 20 
13 *407:14 *1209:S 20.7216 
14 *407:8 *1206:S 41.5664 
*END

*D_NET *506 0.0201443
*CONN
*I *1484:A I *D sg13g2_buf_1
*I *1479:A I *D sg13g2_buf_1
*I *1497:A I *D sg13g2_buf_1
*I *1298:A I *D sg13g2_buf_1
*I *1232:A I *D sg13g2_nor2_1
*I *1202:S I *D sg13g2_mux2_1
*I *1229:A I *D sg13g2_nor2_1
*I *1482:A I *D sg13g2_buf_1
*I *1443:X O *D sg13g2_buf_1
*CAP
1 *1484:A 0.000253715
2 *1479:A 7.80456e-05
3 *1497:A 0.000171291
4 *1298:A 0.00053446
5 *1232:A 0
6 *1202:S 0
7 *1229:A 0
8 *1482:A 2.85265e-05
9 *1443:X 0
10 *506:74 0.00121192
11 *506:70 0.00111185
12 *506:61 0.000828194
13 *506:52 0.000837015
14 *506:44 0.00170987
15 *506:35 0.00110412
16 *506:33 0.00151564
17 *506:14 0.00178229
18 *506:8 0.00216732
19 *506:6 0.00114366
20 *1298:A *671:12 0
21 *1298:A *1121:52 0.000266318
22 *1298:A *1121:54 0.00154756
23 *1298:A *1121:56 0.000181695
24 *1479:A *1207:A1 0
25 *1479:A *671:12 0
26 *1479:A *672:8 0
27 *1484:A *1214:A 0
28 *1484:A *1220:A 0.00024105
29 *1497:A *1101:18 0.000274452
30 *1497:A *1121:48 0
31 *506:8 *1487:A2 0
32 *506:8 *1593:A 0
33 *506:8 *507:44 0
34 *506:8 *578:65 0.000501874
35 *506:8 *585:8 0
36 *506:8 *590:8 0
37 *506:8 *972:12 0
38 *506:8 *1145:17 0
39 *506:8 *1145:23 0
40 *506:8 *1145:31 0
41 *506:14 *1214:A 0.000305964
42 *506:14 *1223:A 0.000226649
43 *506:14 *1224:A1 0
44 *506:14 *1487:B1 0
45 *506:14 *1935:RESET_B 0
46 *506:14 *1935:CLK 0
47 *506:14 *518:6 0
48 *506:33 *1224:A1 0
49 *506:33 *1226:A 0
50 *506:33 *1801:A 0
51 *506:33 *1867:CLK 0
52 *506:33 *518:15 0
53 *506:33 *518:24 0
54 *506:33 *518:26 0
55 *506:33 *519:10 0
56 *506:33 *965:12 0
57 *506:33 *966:25 0.000192807
58 *506:33 *976:10 0
59 *506:33 *977:8 0
60 *506:35 *1229:B 0
61 *506:35 *1703:A 4.7725e-05
62 *506:35 *1703:B 0
63 *506:35 *1803:A 0
64 *506:35 *952:8 0
65 *506:44 *1229:B 1.54556e-05
66 *506:44 *1803:A 0
67 *506:44 *1866:CLK 0
68 *506:44 *1900:CLK 0
69 *506:52 *1202:A0 0
70 *506:52 *1499:B 0
71 *506:52 *588:8 0
72 *506:52 *673:12 0
73 *506:52 *1121:27 0
74 *506:52 *1121:33 0.00120924
75 *506:61 *1232:B 0
76 *506:61 *968:8 0
77 *506:70 *1207:A0 0
78 *506:70 *1207:A1 0.000274529
79 *506:70 *1232:B 0
80 *506:70 *962:6 0
81 *506:74 *1207:S 0
82 *506:74 *522:8 0
83 *506:74 *671:12 0
84 *506:74 *999:23 0
85 *506:74 *1121:52 0
86 *1864:D *506:44 0
87 *1930:D *506:44 0
88 *1930:D *506:61 0
89 *1930:D *506:70 0
90 *74:10 *506:14 0.000177295
91 *332:8 *1484:A 7.55443e-05
92 *407:8 *1298:A 0.000128248
*RES
1 *1443:X *506:6 40 
2 *506:6 *506:8 11.0704 
3 *506:8 *506:14 26.6968 
4 *506:14 *1482:A 20.2992 
5 *506:14 *506:33 48.6152 
6 *506:33 *506:35 4.5232 
7 *506:35 *1229:A 20 
8 *506:35 *506:44 4.8224 
9 *506:44 *506:52 48.5184 
10 *506:52 *1202:S 20 
11 *506:44 *506:61 2.6048 
12 *506:61 *1232:A 20 
13 *506:61 *506:70 24.8928 
14 *506:70 *506:74 4.5848 
15 *506:74 *1298:A 47.9024 
16 *506:74 *1497:A 41.5664 
17 *506:70 *1479:A 40.7832 
18 *506:8 *1484:A 42.1032 
*END

*D_NET *1149 0.00155074
*CONN
*I *2191:A I *D sg13g2_buf_1
*I *2282:X O *D sg13g2_dlygate4sd3_1
*CAP
1 *2191:A 6.42395e-05
2 *2282:X 0.000654807
3 *1149:8 0.000719047
4 *1149:8 *1151:8 0
5 *505:18 *2191:A 0.000112651
*RES
1 *2282:X *1149:8 47.2688 
2 *1149:8 *2191:A 40.6424 
*END

*D_NET *1150 0.000480579
*CONN
*I *2066:D I *D sg13g2_dfrbpq_1
*I *2283:X O *D sg13g2_dlygate4sd3_1
*CAP
1 *2066:D 0
2 *2283:X 0.00024029
3 *1150:10 0.00024029
4 *1150:10 *1151:8 0
5 *2084:D *1150:10 0
6 *2283:A *1150:10 0
7 *505:18 *1150:10 0
*RES
1 *2283:X *1150:10 42.3672 
2 *1150:10 *2066:D 40 
*END

*D_NET *1151 0.00135902
*CONN
*I *2192:A I *D sg13g2_buf_1
*I *2284:X O *D sg13g2_dlygate4sd3_1
*CAP
1 *2192:A 0
2 *2284:X 0.000679509
3 *1151:8 0.000679509
4 *2041:CLK *1151:8 0
5 *845:21 *1151:8 0
6 *918:48 *1151:8 0
7 *1149:8 *1151:8 0
8 *1150:10 *1151:8 0
*RES
1 *2284:X *1151:8 47.48 
2 *1151:8 *2192:A 40 
*END

*D_NET *1152 0.000677529
*CONN
*I *2073:D I *D sg13g2_dfrbpq_1
*I *2285:X O *D sg13g2_dlygate4sd3_1
*CAP
1 *2073:D 0.000338764
2 *2285:X 0.000338764
3 *1286:A *2073:D 0
4 *2065:D *2073:D 0
5 *918:6 *2073:D 0
*RES
1 *2285:X *2073:D 43.1856 
*END

*D_NET *1153 0.000498267
*CONN
*I *2190:A I *D sg13g2_buf_1
*I *2286:X O *D sg13g2_dlygate4sd3_1
*CAP
1 *2190:A 0.000249134
2 *2286:X 0.000249134
*RES
1 *2286:X *2190:A 42.3408 
*END

*D_NET *1154 0.000656761
*CONN
*I *2189:A I *D sg13g2_buf_1
*I *2287:X O *D sg13g2_dlygate4sd3_1
*CAP
1 *2189:A 0
2 *2287:X 0.00032838
3 *1154:10 0.00032838
4 *1375:A *1154:10 0
5 *2322:A *1154:10 0
6 *172:10 *1154:10 0
*RES
1 *2287:X *1154:10 43.1592 
2 *1154:10 *2189:A 40 
*END

*D_NET *1155 0.00172478
*CONN
*I *2196:A I *D sg13g2_buf_1
*I *2288:X O *D sg13g2_dlygate4sd3_1
*CAP
1 *2196:A 0.000547979
2 *2288:X 0.000169376
3 *1155:8 0.000717354
4 *2196:A *2197:A 0
5 *2196:A *1186:10 0
6 *1155:8 *1162:8 0.000290072
7 *655:10 *2196:A 0
*RES
1 *2288:X *1155:8 41.9888 
2 *1155:8 *2196:A 45.0072 
*END

*D_NET *1156 0.000674873
*CONN
*I *1659:B1 I *D sg13g2_a21oi_1
*I *2289:X O *D sg13g2_dlygate4sd3_1
*CAP
1 *1659:B1 0.000216368
2 *2289:X 0.000216368
3 *654:24 *1659:B1 0
4 *655:10 *1659:B1 0.000242137
*RES
1 *2289:X *1659:B1 42.1032 
*END

*D_NET *1157 0.000620812
*CONN
*I *1871:D I *D sg13g2_dfrbpq_1
*I *2290:X O *D sg13g2_dlygate4sd3_1
*CAP
1 *1871:D 0.000105506
2 *2290:X 0.000117096
3 *1157:8 0.000222602
4 *202:32 *1871:D 0.000175608
5 *654:24 *1871:D 0
*RES
1 *2290:X *1157:8 41.144 
2 *1157:8 *1871:D 41.012 
*END

*D_NET *1158 0.00082779
*CONN
*I *2215:A I *D sg13g2_buf_1
*I *2291:X O *D sg13g2_dlygate4sd3_1
*CAP
1 *2215:A 0
2 *2291:X 0.000292785
3 *1158:10 0.000292785
4 *1158:10 *2217:A 0.00024222
5 *1420:A *1158:10 0
*RES
1 *2291:X *1158:10 42.5256 
2 *1158:10 *2215:A 40 
*END

*D_NET *1159 0.000318915
*CONN
*I *2211:A I *D sg13g2_buf_1
*I *2292:X O *D sg13g2_dlygate4sd3_1
*CAP
1 *2211:A 0
2 *2292:X 0.000159458
3 *1159:8 0.000159458
4 *1159:8 *1176:12 0
5 *624:10 *1159:8 0
*RES
1 *2292:X *1159:8 41.5664 
2 *1159:8 *2211:A 40 
*END

*D_NET *1160 0.000329454
*CONN
*I *2206:A I *D sg13g2_buf_1
*I *2293:X O *D sg13g2_dlygate4sd3_1
*CAP
1 *2206:A 0.000164727
2 *2293:X 0.000164727
3 *2206:A *2203:A 0
*RES
1 *2293:X *2206:A 41.7776 
*END

*D_NET *1161 0.00083779
*CONN
*I *2207:A I *D sg13g2_buf_1
*I *2294:X O *D sg13g2_dlygate4sd3_1
*CAP
1 *2207:A 0.000127745
2 *2294:X 9.60533e-05
3 *1161:8 0.000223799
4 intr_gpio_o[2] *1161:8 0.00034245
5 *2294:A *2207:A 4.77425e-05
6 *627:10 *2207:A 0
7 *627:10 *1161:8 0
*RES
1 *2294:X *1161:8 41.3552 
2 *1161:8 *2207:A 41.1968 
*END

*D_NET *1162 0.00193178
*CONN
*I *2197:A I *D sg13g2_buf_1
*I *2295:X O *D sg13g2_dlygate4sd3_1
*CAP
1 *2197:A 0.000549099
2 *2295:X 0.000271756
3 *1162:8 0.000820855
4 *2196:A *2197:A 0
5 *1146:8 *2197:A 0
6 *1155:8 *1162:8 0.000290072
*RES
1 *2295:X *1162:8 43.256 
2 *1162:8 *2197:A 44.8928 
*END

*D_NET *1163 0.00356629
*CONN
*I *1661:B1 I *D sg13g2_a21oi_1
*I *2296:X O *D sg13g2_dlygate4sd3_1
*CAP
1 *1661:B1 0.000204673
2 *2296:X 0.00110891
3 *1163:20 0.00131358
4 *1258:A *1163:20 0
5 *1280:B *1661:B1 7.48842e-05
6 *1280:B *1163:20 4.77425e-05
7 *1649:A *1163:20 0
8 *1661:A1 *1163:20 0
9 *2234:A *1163:20 0.000272844
10 *202:32 *1163:20 0
11 *364:10 *1163:20 0
12 *365:39 *1163:20 0.0002079
13 *654:24 *1163:20 4.77083e-05
14 *656:10 *1163:20 1.51981e-05
15 *951:46 *1163:20 0
16 *1112:75 *1163:20 0.000272843
17 *1112:90 *1163:20 0
*RES
1 *2296:X *1163:20 49.724 
2 *1163:20 *1661:B1 41.7776 
*END

*D_NET *1164 0.00447846
*CONN
*I *1870:D I *D sg13g2_dfrbpq_1
*I *2297:X O *D sg13g2_dlygate4sd3_1
*CAP
1 *1870:D 0.000294223
2 *2297:X 0.000115744
3 *1164:14 0.00119298
4 *1164:8 0.0010145
5 *365:8 *1164:8 0
6 *365:20 *1164:14 0
7 *365:39 *1164:14 0
8 *509:21 *1164:8 0
9 *1112:90 *1164:14 0.000501463
10 *1112:119 *1870:D 0.000557815
11 *1112:119 *1164:14 0.000801741
12 *1146:19 *1870:D 0
13 *1146:67 *1870:D 0
14 *1146:67 *1164:14 0
*RES
1 *2297:X *1164:8 40.9328 
2 *1164:8 *1164:14 48.2192 
3 *1164:14 *1870:D 43.256 
*END

*D_NET *1165 0.00200708
*CONN
*I *2222:A I *D sg13g2_buf_1
*I *2298:X O *D sg13g2_dlygate4sd3_1
*CAP
1 *2222:A 0
2 *2298:X 0.000717844
3 *1165:10 0.000717844
4 *1165:10 *1184:8 0
5 *1301:B *1165:10 0
6 *1942:RESET_B *1165:10 0
7 *1968:CLK *1165:10 0
8 *40:10 *1165:10 0
9 *285:10 *1165:10 0
10 *611:10 *1165:10 0.000129078
11 *612:12 *1165:10 0
12 *817:9 *1165:10 0.000442309
13 *909:60 *1165:10 0
14 *920:88 *1165:10 0
*RES
1 *2298:X *1165:10 46.5384 
2 *1165:10 *2222:A 40 
*END

*D_NET *1166 0.00131223
*CONN
*I *2212:A I *D sg13g2_buf_1
*I *2299:X O *D sg13g2_dlygate4sd3_1
*CAP
1 *2212:A 0.000522849
2 *2299:X 0.000522849
3 *2212:A *1181:12 0.000144575
4 *620:10 *2212:A 0.000121957
5 *797:17 *2212:A 0
6 *805:9 *2212:A 0
7 *906:18 *2212:A 0
8 *906:27 *2212:A 0
*RES
1 *2299:X *2212:A 44.9104 
*END

*D_NET *1167 0.00289695
*CONN
*I *2214:A I *D sg13g2_buf_1
*I *2300:X O *D sg13g2_dlygate4sd3_1
*CAP
1 *2214:A 0.000985179
2 *2300:X 9.39124e-05
3 *1167:8 0.00107909
4 *2214:A *2220:A 0
5 *2291:A *2214:A 0.000209713
6 *2307:A *2214:A 0
7 *2311:A *2214:A 0.000529058
*RES
1 *2300:X *1167:8 40.9328 
2 *1167:8 *2214:A 49.812 
*END

*D_NET *1168 0.0028538
*CONN
*I *2226:A I *D sg13g2_buf_1
*I *2301:X O *D sg13g2_dlygate4sd3_1
*CAP
1 *2226:A 0
2 *2301:X 0.00124963
3 *1168:10 0.00124963
4 *1168:10 *2224:A 0.000209593
5 *608:10 *1168:10 0.000144942
6 *927:23 *1168:10 0
*RES
1 *2301:X *1168:10 32.4344 
2 *1168:10 *2226:A 20 
*END

*D_NET *1169 0.000251168
*CONN
*I *2203:A I *D sg13g2_buf_1
*I *2302:X O *D sg13g2_dlygate4sd3_1
*CAP
1 *2203:A 0.000125584
2 *2302:X 0.000125584
3 *2206:A *2203:A 0
*RES
1 *2302:X *2203:A 41.3552 
*END

*D_NET *1170 0.00551355
*CONN
*I *2223:A I *D sg13g2_buf_1
*I *2303:X O *D sg13g2_dlygate4sd3_1
*CAP
1 *2223:A 0.000513845
2 *2303:X 0.000268409
3 *1170:18 0.00146907
4 *1170:12 0.00122364
5 *1299:A0 *1170:12 0.000209637
6 *1299:A0 *1170:18 0
7 *1714:A *1170:18 4.77425e-05
8 *1941:RESET_B *2223:A 0
9 *1967:CLK *1170:18 0
10 *2303:A *2223:A 0.000242017
11 *2303:A *1170:12 0
12 *453:16 *1170:12 0
13 *453:16 *1170:18 0.00101877
14 *458:8 *2223:A 0
15 *458:16 *1170:18 0
16 *459:10 *1170:12 0
17 *909:60 *1170:18 0
18 *1055:23 *2223:A 0
19 *1113:109 *1170:18 0.000339229
20 *1125:10 *1170:12 0
21 *1125:20 *1170:12 0.000181192
*RES
1 *2303:X *1170:12 42.6136 
2 *1170:12 *1170:18 48.7736 
3 *1170:18 *2223:A 44.6376 
*END

*D_NET *1171 0.000751562
*CONN
*I *2219:A I *D sg13g2_buf_1
*I *2304:X O *D sg13g2_dlygate4sd3_1
*CAP
1 *2219:A 0
2 *2304:X 0.000338174
3 *1171:10 0.000338174
4 *1467:A0 *1171:10 0
5 *63:10 *1171:10 7.52149e-05
6 *915:93 *1171:10 0
7 *1077:27 *1171:10 0
*RES
1 *2304:X *1171:10 43.3704 
2 *1171:10 *2219:A 40 
*END

*D_NET *1172 9.45957e-05
*CONN
*I *2205:A I *D sg13g2_buf_1
*I *2305:X O *D sg13g2_dlygate4sd3_1
*CAP
1 *2205:A 4.72978e-05
2 *2305:X 4.72978e-05
*RES
1 *2305:X *2205:A 40.5104 
*END

*D_NET *1173 0.000521152
*CONN
*I *2204:A I *D sg13g2_buf_1
*I *2306:X O *D sg13g2_dlygate4sd3_1
*CAP
1 *2204:A 0
2 *2306:X 0.000260576
3 *1173:8 0.000260576
4 *927:55 *1173:8 0
*RES
1 *2306:X *1173:8 42.8336 
2 *1173:8 *2204:A 40 
*END

*D_NET *1174 0.000760341
*CONN
*I *2216:A I *D sg13g2_buf_1
*I *2307:X O *D sg13g2_dlygate4sd3_1
*CAP
1 *2216:A 0
2 *2307:X 0.000340128
3 *1174:10 0.000340128
4 *1174:10 *2217:A 0
5 *907:36 *1174:10 0
6 *915:64 *1174:10 8.00842e-05
*RES
1 *2307:X *1174:10 42.7368 
2 *1174:10 *2216:A 40 
*END

*D_NET *1175 0.0018944
*CONN
*I *2208:A I *D sg13g2_buf_1
*I *2308:X O *D sg13g2_dlygate4sd3_1
*CAP
1 *2208:A 0.000512949
2 *2308:X 0.000127065
3 *1175:8 0.000640014
4 *2208:A *1176:12 0
5 *2292:A *2208:A 8.02924e-05
6 *2309:A *2208:A 0
7 *625:10 *2208:A 0.000534083
8 *625:10 *1175:8 0
*RES
1 *2308:X *1175:8 41.3552 
2 *1175:8 *2208:A 44.8224 
*END

*D_NET *1176 0.000954536
*CONN
*I *2209:A I *D sg13g2_buf_1
*I *2309:X O *D sg13g2_dlygate4sd3_1
*CAP
1 *2209:A 0
2 *2309:X 0.000412937
3 *1176:12 0.000412937
4 *2208:A *1176:12 0
5 *624:10 *1176:12 0.000128662
6 *625:10 *1176:12 0
7 *906:31 *1176:12 0
8 *1159:8 *1176:12 0
*RES
1 *2309:X *1176:12 44.092 
2 *1176:12 *2209:A 40 
*END

*D_NET *1177 0.00043525
*CONN
*I *2218:A I *D sg13g2_buf_1
*I *2310:X O *D sg13g2_dlygate4sd3_1
*CAP
1 *2218:A 0
2 *2310:X 0.000217625
3 *1177:8 0.000217625
4 *353:10 *1177:8 0
*RES
1 *2310:X *1177:8 42.4112 
2 *1177:8 *2218:A 40 
*END

*D_NET *1178 0.00185708
*CONN
*I *2220:A I *D sg13g2_buf_1
*I *2311:X O *D sg13g2_dlygate4sd3_1
*CAP
1 *2220:A 0.000699543
2 *2311:X 0.000699543
3 *2214:A *2220:A 0
4 *2307:A *2220:A 0.00021568
5 *915:49 *2220:A 0.000242313
6 *915:64 *2220:A 0
*RES
1 *2311:X *2220:A 46.7848 
*END

*D_NET *1179 0.000350579
*CONN
*I *2210:A I *D sg13g2_buf_1
*I *2312:X O *D sg13g2_dlygate4sd3_1
*CAP
1 *2210:A 0
2 *2312:X 0.000175289
3 *1179:8 0.000175289
4 *620:10 *1179:8 0
5 *621:10 *1179:8 0
*RES
1 *2312:X *1179:8 41.7776 
2 *1179:8 *2210:A 40 
*END

*D_NET *1180 0.000911363
*CONN
*I *2224:A I *D sg13g2_buf_1
*I *2313:X O *D sg13g2_dlygate4sd3_1
*CAP
1 *2224:A 0.000350885
2 *2313:X 0.000350885
3 *1168:10 *2224:A 0.000209593
*RES
1 *2313:X *2224:A 43.608 
*END

*D_NET *1181 0.00112456
*CONN
*I *2213:A I *D sg13g2_buf_1
*I *2314:X O *D sg13g2_dlygate4sd3_1
*CAP
1 *2213:A 0
2 *2314:X 0.000489992
3 *1181:12 0.000489992
4 *2212:A *1181:12 0.000144575
5 *620:10 *1181:12 0
6 *906:18 *1181:12 0
*RES
1 *2314:X *1181:12 44.6728 
2 *1181:12 *2213:A 40 
*END

*D_NET *1182 0.00123851
*CONN
*I *2225:A I *D sg13g2_buf_1
*I *2315:X O *D sg13g2_dlygate4sd3_1
*CAP
1 *2225:A 0.000493097
2 *2315:X 0.000126155
3 *1182:8 0.000619253
4 *821:11 *2225:A 0
*RES
1 *2315:X *1182:8 41.3552 
2 *1182:8 *2225:A 44.5232 
*END

*D_NET *1183 0.00936572
*CONN
*I *2195:A I *D sg13g2_buf_1
*I *2316:X O *D sg13g2_dlygate4sd3_1
*CAP
1 *2195:A 0
2 *2316:X 0.00101501
3 *1183:18 0.00186597
4 *1183:14 0.00288098
5 *1200:B *1183:18 0
6 *1222:A *1183:14 3.86039e-05
7 *1223:B *1183:18 0
8 *1487:A1 *1183:18 0.000713345
9 *1581:A *1183:18 0.00188909
10 *1593:A *1183:18 0
11 *1901:D *1183:18 0
12 *1927:CLK *1183:14 4.35073e-05
13 *1928:CLK *1183:14 0
14 *81:10 *1183:14 0.000759614
15 *337:8 *1183:18 0.000159598
16 *340:10 *1183:18 0
17 *516:8 *1183:14 0
18 *516:21 *1183:14 0
19 *590:8 *1183:18 0
20 *679:10 *1183:14 0
21 *683:8 *1183:18 0
22 *790:17 *1183:14 0
23 *930:16 *1183:14 0
24 *1107:39 *1183:18 0
25 *1144:47 *1183:18 0
*RES
1 *2316:X *1183:14 49.1432 
2 *1183:14 *1183:18 39.5184 
3 *1183:18 *2195:A 20 
*END

*D_NET *1184 0.000469348
*CONN
*I *2221:A I *D sg13g2_buf_1
*I *2317:X O *D sg13g2_dlygate4sd3_1
*CAP
1 *2221:A 0
2 *2317:X 0.000234674
3 *1184:8 0.000234674
4 *1165:10 *1184:8 0
*RES
1 *2317:X *1184:8 42.4112 
2 *1184:8 *2221:A 40 
*END

*D_NET *1185 0.000750977
*CONN
*I *2199:A I *D sg13g2_buf_1
*I *2318:X O *D sg13g2_dlygate4sd3_1
*CAP
1 *2199:A 0
2 *2318:X 0.000204885
3 *1185:8 0.000204885
4 *1185:8 *1193:8 0
5 *2159:A *1185:8 0
6 *467:27 *1185:8 0.000341206
*RES
1 *2318:X *1185:8 42.4112 
2 *1185:8 *2199:A 40 
*END

*D_NET *1186 0.000634949
*CONN
*I *2194:A I *D sg13g2_buf_1
*I *2319:X O *D sg13g2_dlygate4sd3_1
*CAP
1 *2194:A 0
2 *2319:X 0.000317475
3 *1186:10 0.000317475
4 *2196:A *1186:10 0
5 *1146:19 *1186:10 0
*RES
1 *2319:X *1186:10 43.1592 
2 *1186:10 *2194:A 40 
*END

*D_NET *1187 0.00443523
*CONN
*I *2198:A I *D sg13g2_buf_1
*I *2320:X O *D sg13g2_dlygate4sd3_1
*CAP
1 *2198:A 0.000518815
2 *2320:X 0.000124854
3 *1187:16 0.00155207
4 *1187:8 0.00115811
5 *2198:A *1189:12 0
6 *1248:A *1187:16 0
7 *1371:A *2198:A 0
8 *1375:A *2198:A 1.54556e-05
9 *1375:B *2198:A 0
10 *1827:B *1187:16 0
11 *1829:B *2198:A 0.000323867
12 *1831:B *2198:A 0
13 *1832:B1 *2198:A 0
14 *2016:CLK *1187:16 0
15 *2322:A *2198:A 0
16 *16:14 *1187:16 0.000694305
17 *302:8 *1187:16 0
18 *465:12 *2198:A 4.77425e-05
19 *466:16 *1187:16 0
20 *653:20 *2198:A 0
21 *653:20 *1187:16 0
22 *688:12 *2198:A 0
23 *793:17 *1187:8 0
24 *1086:14 *1187:16 0
25 *1087:10 *2198:A 0
26 *1100:83 *1187:16 0
*RES
1 *2320:X *1187:8 40.9328 
2 *1187:8 *1187:16 48.4656 
3 *1187:16 *2198:A 44.3384 
*END

*D_NET *1188 0.00262284
*CONN
*I *2217:A I *D sg13g2_buf_1
*I *2321:X O *D sg13g2_dlygate4sd3_1
*CAP
1 *2217:A 0.000923278
2 *2321:X 0.000923278
3 *1420:A *2217:A 0
4 *1461:S *2217:A 0
5 *2307:A *2217:A 0
6 *495:10 *2217:A 0
7 *617:10 *2217:A 0.000534068
8 *915:49 *2217:A 0
9 *915:64 *2217:A 0
10 *1158:10 *2217:A 0.00024222
11 *1174:10 *2217:A 0
*RES
1 *2321:X *2217:A 48.756 
*END

*D_NET *1189 0.00250752
*CONN
*I *2200:A I *D sg13g2_buf_1
*I *2322:X O *D sg13g2_dlygate4sd3_1
*CAP
1 *2200:A 0.000138564
2 *2322:X 0.000570109
3 *1189:12 0.000708673
4 *1371:A *1189:12 0.000112558
5 *2017:RESET_B *1189:12 0.000454344
6 *2198:A *1189:12 0
7 *2322:A *1189:12 0
8 *650:12 *2200:A 0
9 *653:20 *1189:12 0
10 *1087:8 *1189:12 1.54008e-05
11 *1097:63 *1189:12 0.00050787
12 *1141:16 *2200:A 0
*RES
1 *2322:X *1189:12 46.0984 
2 *1189:12 *2200:A 41.1968 
*END

*D_NET *1190 0.000567752
*CONN
*I *2201:A I *D sg13g2_buf_1
*I *2323:X O *D sg13g2_dlygate4sd3_1
*CAP
1 *2201:A 0.000283876
2 *2323:X 0.000283876
3 *2201:A *1191:10 0
4 *2322:A *2201:A 0
5 *650:12 *2201:A 0
*RES
1 *2323:X *2201:A 42.7632 
*END

*D_NET *1191 0.000630925
*CONN
*I *2202:A I *D sg13g2_buf_1
*I *2324:X O *D sg13g2_dlygate4sd3_1
*CAP
1 *2202:A 0
2 *2324:X 0.000315463
3 *1191:10 0.000315463
4 *2201:A *1191:10 0
5 *172:10 *1191:10 0
6 *691:32 *1191:10 0
*RES
1 *2324:X *1191:10 43.1592 
2 *1191:10 *2202:A 40 
*END

*D_NET *1192 0.00100855
*CONN
*I *1380:B1 I *D sg13g2_a21oi_1
*I *2325:X O *D sg13g2_dlygate4sd3_1
*CAP
1 *1380:B1 0.000162988
2 *2325:X 0.000220132
3 *1192:8 0.00038312
4 *1380:A1 *1380:B1 0
5 *2325:A *1380:B1 0.000242313
6 *691:12 *1192:8 0
7 *691:32 *1192:8 0
*RES
1 *2325:X *1192:8 41.7776 
2 *1192:8 *1380:B1 41.3816 
*END

*D_NET *1193 0.000466648
*CONN
*I *2193:A I *D sg13g2_buf_1
*I *2326:X O *D sg13g2_dlygate4sd3_1
*CAP
1 *2193:A 0
2 *2326:X 0.000233324
3 *1193:8 0.000233324
4 *1375:B *1193:8 0
5 *1185:8 *1193:8 0
*RES
1 *2326:X *1193:8 42.4112 
2 *1193:8 *2193:A 40 
*END

*D_NET *1194 0.000933043
*CONN
*I *2228:A I *D sg13g2_buf_1
*I *2327:X O *D sg13g2_dlygate4sd3_1
*CAP
1 *2228:A 0.000149332
2 *2327:X 0.000228412
3 *1194:8 0.000377744
4 *2004:RESET_B *2228:A 0.000177555
5 *134:12 *2228:A 0
6 *193:27 *1194:8 0
7 *353:8 *1194:8 0
*RES
1 *2327:X *1194:8 41.7776 
2 *1194:8 *2228:A 41.3816 
*END

*D_NET *1195 0.000903126
*CONN
*I *2188:A I *D sg13g2_buf_1
*I *2328:X O *D sg13g2_dlygate4sd3_1
*CAP
1 *2188:A 0.00039515
2 *2328:X 0.00039515
3 *2041:D *2188:A 0.000112826
4 *845:10 *2188:A 0
*RES
1 *2328:X *2188:A 43.4584 
*END

*D_NET *731 0.000396919
*CONN
*I *2041:D I *D sg13g2_dfrbpq_1
*I *2137:L_HI O *D sg13g2_tiehi
*CAP
1 *2041:D 0.00011809
2 *2137:L_HI 0.00011809
3 *2041:D *2041:RESET_B 0
4 *2041:D *2188:A 0.000112826
5 *2041:D *845:10 4.79124e-05
*RES
1 *2137:L_HI *2041:D 41.1528 
*END

*D_NET *742 0.000202702
*CONN
*I *2047:D I *D sg13g2_dfrbpq_1
*I *2042:L_HI O *D sg13g2_tiehi
*CAP
1 *2047:D 9.36852e-05
2 *2042:L_HI 9.36852e-05
3 *2047:RESET_B *2047:D 1.53311e-05
*RES
1 *2042:L_HI *2047:D 40.968 
*END

*D_NET *753 0.00020073
*CONN
*I *2049:D I *D sg13g2_dfrbpq_1
*I *2048:L_HI O *D sg13g2_tiehi
*CAP
1 *2049:D 0.000100365
2 *2048:L_HI 0.000100365
3 *2049:D *2249:A 0
4 *2049:D *1117:78 0
*RES
1 *2048:L_HI *2049:D 40.968 
*END

*D_NET *764 0.00166622
*CONN
*I *2084:D I *D sg13g2_dfrbpq_1
*I *2050:L_HI O *D sg13g2_tiehi
*CAP
1 *2084:D 0.000627933
2 *2050:L_HI 0.000627933
3 *2084:D *918:6 6.47275e-05
4 *2084:D *918:8 0.000103309
5 *2084:D *918:12 0
6 *2084:D *918:18 0.000242313
7 *2084:D *1095:77 0
8 *2084:D *1150:10 0
*RES
1 *2050:L_HI *2084:D 45.676 
*END

*D_NET *604 0.00331829
*CONN
*I *1472:B I *D sg13g2_nand2_1
*I *1810:B I *D sg13g2_nor3_1
*I *1811:B I *D sg13g2_nand2_1
*I *2228:X O *D sg13g2_buf_1
*CAP
1 *1472:B 0.00012689
2 *1810:B 0
3 *1811:B 0.000361719
4 *2228:X 0.000525338
5 *604:25 0.00038876
6 *604:6 0.00114893
7 *1472:B *1020:8 0
8 *1811:B *1020:12 0
9 *604:6 *1472:A 0
10 *604:6 *2004:RESET_B 0.000209763
11 *604:6 *2187:A 0
12 *604:25 *1472:A 0
13 *604:25 *1639:A2 0
14 *1212:A *604:25 0.000144571
15 *1212:B *1811:B 0
16 *1212:B *604:25 4.28893e-05
17 *1271:B *1811:B 0
18 *1639:A1 *1811:B 0.000144231
19 *1645:B *1811:B 0
20 *1647:B *604:6 0
21 *1810:A *604:25 0
22 *1811:A *1811:B 0.000129517
23 *1812:A1 *1811:B 0
24 *189:12 *604:6 0
25 *293:8 *1472:B 1.54556e-05
26 *509:10 *1472:B 8.02269e-05
27 *509:10 *604:25 0
*RES
1 *2228:X *604:6 24.3384 
2 *604:6 *1811:B 23.5904 
3 *604:6 *604:25 2.6224 
4 *604:25 *1810:B 20 
5 *604:25 *1472:B 21.6368 
*END

*D_NET *824 0.0047987
*CONN
*I *1569:A2 I *D sg13g2_a221oi_1
*I *1307:A1 I *D sg13g2_mux2_1
*I *1707:A2 I *D sg13g2_a21oi_1
*I *2036:Q O *D sg13g2_dfrbpq_1
*CAP
1 *1569:A2 0.00054445
2 *1307:A1 3.10612e-05
3 *1707:A2 0.000210306
4 *2036:Q 0.000565311
5 *824:10 0.00044059
6 *824:8 0.00130898
7 *1307:A1 *1123:71 1.54008e-05
8 *1707:A2 *1564:A2 0
9 *1707:A2 *842:54 0
10 *1707:A2 *843:25 0
11 *1707:A2 *1123:55 0
12 *1707:A2 *1123:71 0.000230583
13 *824:8 *842:54 0
14 *824:8 *843:25 0
15 *824:10 *842:54 0
16 *824:10 *843:25 0
17 *824:10 *1123:71 5.18521e-05
18 *1307:A0 *1307:A1 4.77425e-05
19 *1707:A1 *1707:A2 1.54556e-05
20 *1851:A0 *1569:A2 0
21 *2036:D *1569:A2 4.77534e-05
22 *307:18 *1569:A2 0.000887828
23 *476:69 *824:8 0.00012816
24 *564:34 *1569:A2 0
25 *575:10 *1569:A2 0.000273218
*RES
1 *2036:Q *824:8 45.1568 
2 *824:8 *824:10 1.7776 
3 *824:10 *1707:A2 41.8392 
4 *824:10 *1307:A1 40.2728 
5 *824:8 *1569:A2 45.247 
*END

*D_NET *825 0.0125029
*CONN
*I *1525:A1 I *D sg13g2_a21oi_1
*I *1732:B1 I *D sg13g2_a21oi_1
*I *1326:B I *D sg13g2_nand2_1
*I *2030:Q O *D sg13g2_dfrbpq_1
*CAP
1 *1525:A1 0
2 *1732:B1 8.60984e-05
3 *1326:B 0.000810245
4 *2030:Q 3.1459e-05
5 *825:60 0.000110602
6 *825:54 0.00172829
7 *825:29 0.000734102
8 *825:21 0.00269499
9 *825:8 0.001271
10 *1326:B *1316:B 0
11 *1326:B *828:19 0
12 *1326:B *1130:22 0
13 *1326:B *1130:31 0
14 *1732:B1 *829:12 0
15 *825:8 *1099:66 0
16 *825:8 *1113:89 4.7526e-05
17 *825:21 *828:19 0
18 *825:21 *1099:12 0
19 *825:21 *1099:66 0
20 *825:29 *2022:CLK 0.000273497
21 *825:29 *826:35 0
22 *825:29 *904:20 0
23 *825:29 *1123:27 0
24 *825:29 *1123:36 0
25 *825:54 *2022:CLK 0
26 *825:54 *828:38 0
27 *825:54 *921:18 0
28 *825:54 *940:10 0
29 *825:54 *940:36 0
30 *825:54 *1099:53 0
31 *825:54 *1136:37 0.000175959
32 *1522:B1 *825:60 0
33 *1732:A1 *1732:B1 8.02595e-05
34 *1732:A1 *825:29 4.77425e-05
35 *1733:B *1732:B1 0
36 *1733:B *825:29 0.00024222
37 *2044:D *825:29 0
38 *5:8 *1326:B 0
39 *13:8 *825:21 0.000394239
40 *241:8 *825:29 7.51285e-05
41 *242:10 *1732:B1 0
42 *428:8 *1326:B 0
43 *429:8 *1326:B 0
44 *517:71 *825:60 0
45 *547:35 *825:54 0
46 *564:34 *825:54 0.00107992
47 *571:12 *825:54 9.07988e-05
48 *571:18 *825:54 0.00241686
49 *571:18 *825:60 0
50 *721:82 *1326:B 0.000111952
*RES
1 *2030:Q *825:8 40.2728 
2 *825:8 *1326:B 47.9112 
3 *825:8 *825:21 4.5232 
4 *825:21 *825:29 45.9576 
5 *825:29 *1732:B1 40.7568 
6 *825:21 *825:54 38.7176 
7 *825:54 *825:60 40.9328 
8 *825:60 *1525:A1 20 
*END

*D_NET *826 0.0111902
*CONN
*I *1855:B1 I *D sg13g2_a21oi_1
*I *1522:A1 I *D sg13g2_a21oi_1
*I *1845:B I *D sg13g2_nand2_1
*I *2031:Q O *D sg13g2_dfrbpq_1
*CAP
1 *1855:B1 0
2 *1522:A1 0.000329699
3 *1845:B 0.000784178
4 *2031:Q 8.37425e-05
5 *826:43 0.00110982
6 *826:35 0.00257354
7 *826:8 0.00266134
8 *1522:A1 *928:50 0.000565459
9 *1522:A1 *1136:37 0
10 *1845:B *2101:A 0
11 *1845:B *910:21 0
12 *1845:B *1098:10 0
13 *1845:B *1098:18 0
14 *1845:B *1124:40 0
15 *826:8 *1123:10 0
16 *826:35 *829:26 0.001011
17 *826:35 *849:10 0
18 *826:35 *910:21 0
19 *826:35 *1093:12 0
20 *826:35 *1106:78 0
21 *826:35 *1123:10 0.00050124
22 *826:35 *1123:27 0.0001556
23 *826:43 *1513:A2 0.000181192
24 *826:43 *829:26 0
25 *826:43 *837:26 0.000128663
26 *826:43 *922:8 0
27 *826:43 *928:35 0.000235055
28 *826:43 *928:50 0.00018193
29 *826:43 *1093:12 0.000340422
30 *1522:B1 *1522:A1 0
31 *1557:B2 *826:35 0
32 *1858:A2 *826:35 0
33 *177:8 *1845:B 0
34 *318:12 *826:35 0.000112684
35 *521:67 *826:43 0.00023464
36 *557:8 *826:43 0
37 *560:12 *826:43 0
38 *712:40 *826:35 0
39 *716:34 *826:8 0
40 *717:39 *826:35 0
41 *728:14 *1845:B 0
42 *825:29 *826:35 0
*RES
1 *2031:Q *826:8 40.6424 
2 *826:8 *1845:B 47.436 
3 *826:8 *826:35 36.3768 
4 *826:35 *826:43 48.5976 
5 *826:43 *1522:A1 23.2296 
6 *826:35 *1855:B1 20 
*END

*D_NET *827 0.0114629
*CONN
*I *1321:B I *D sg13g2_nand2_1
*I *1519:A1 I *D sg13g2_a21oi_1
*I *1709:A I *D sg13g2_nor3_1
*I *2032:Q O *D sg13g2_dfrbpq_1
*CAP
1 *1321:B 0
2 *1519:A1 5.33229e-05
3 *1709:A 7.87007e-05
4 *2032:Q 0
5 *827:58 0.00097162
6 *827:41 0.00124923
7 *827:31 0.00165259
8 *827:14 0.000535387
9 *827:12 0.00123762
10 *827:4 0.00220924
11 *1519:A1 *840:25 0
12 *1519:A1 *928:87 8.08542e-06
13 *1709:A *2095:A 3.84678e-05
14 *827:12 *1336:B 0
15 *827:12 *1337:A1 0
16 *827:12 *2037:CLK 0
17 *827:12 *2111:A 0
18 *827:12 *843:10 0
19 *827:12 *843:25 0
20 *827:12 *843:41 0
21 *827:12 *908:20 0
22 *827:12 *908:22 0
23 *827:12 *908:75 0
24 *827:12 *1113:89 0
25 *827:12 *1123:40 0.000394258
26 *827:12 *1123:55 0.000746289
27 *827:31 *2095:A 6.37886e-05
28 *827:31 *835:29 0
29 *827:31 *1123:55 0.000821544
30 *827:41 *1528:B1 0
31 *827:41 *835:29 0.000286789
32 *827:41 *842:54 0
33 *827:41 *921:77 0.00012816
34 *827:41 *1106:94 0
35 *827:41 *1106:114 0
36 *827:58 *843:41 0
37 *1387:A *827:41 0
38 *1708:A *827:31 0.000144768
39 *2028:D *827:12 0
40 *362:6 *1709:A 0.000144253
41 *362:6 *827:31 7.92096e-05
42 *362:12 *827:31 0
43 *362:12 *827:41 0
44 *362:35 *827:41 0
45 *425:8 *827:58 0
46 *436:12 *827:12 0
47 *547:35 *1519:A1 8.0194e-05
48 *569:25 *827:31 0.000144779
49 *718:23 *827:41 0.000394566
*RES
1 *2032:Q *827:4 20 
2 *827:4 *827:12 32.0912 
3 *827:12 *827:14 20 
4 *827:14 *1709:A 20.8272 
5 *827:14 *827:31 44.5408 
6 *827:31 *827:41 30.0144 
7 *827:41 *1519:A1 40.4576 
8 *827:4 *827:58 47.9376 
9 *827:58 *1321:B 20 
*END

*D_NET *828 0.0107489
*CONN
*I *1516:A1 I *D sg13g2_a21oi_1
*I *1717:A I *D sg13g2_nor3_1
*I *1316:B I *D sg13g2_nand2_1
*I *2033:Q O *D sg13g2_dfrbpq_1
*CAP
1 *1516:A1 0
2 *1717:A 0.00016439
3 *1316:B 0.000651119
4 *2033:Q 0
5 *828:38 0.00170711
6 *828:19 0.00241638
7 *828:6 0.001196
8 *1316:B *1130:46 0.00012816
9 *1717:A *1353:A 0
10 *1717:A *1123:36 0.00027432
11 *828:19 *2080:RESET_B 0
12 *828:19 *1099:66 0
13 *828:38 *1353:A 0.000554756
14 *828:38 *2080:RESET_B 0
15 *828:38 *840:25 0.0011228
16 *828:38 *921:18 0.000394566
17 *828:38 *1099:53 0.000558066
18 *1326:B *1316:B 0
19 *1326:B *828:19 0
20 *1717:B *1717:A 1.54008e-05
21 *2044:D *1717:A 0
22 *5:8 *1316:B 0
23 *535:12 *828:38 0
24 *564:34 *828:38 0
25 *575:10 *828:38 0.00156583
26 *715:22 *1316:B 0
27 *715:22 *828:19 0
28 *721:82 *1316:B 0
29 *825:21 *828:19 0
30 *825:54 *828:38 0
*RES
1 *2033:Q *828:6 40 
2 *828:6 *1316:B 46.6704 
3 *828:6 *828:19 5.1568 
4 *828:19 *1717:A 41.5664 
5 *828:19 *828:38 38.8848 
6 *828:38 *1516:A1 20 
*END

*D_NET *829 0.0106196
*CONN
*I *1311:B I *D sg13g2_nand2_1
*I *1734:A I *D sg13g2_nor3_1
*I *1513:A1 I *D sg13g2_a21oi_1
*I *2034:Q O *D sg13g2_dfrbpq_1
*CAP
1 *1311:B 0
2 *1734:A 0
3 *1513:A1 0.000208666
4 *2034:Q 0
5 *829:48 0.000749997
6 *829:26 0.00247895
7 *829:12 0.00263252
8 *829:4 0.00111223
9 *1513:A1 *1513:B1 0
10 *1513:A1 *1136:37 0
11 *829:12 *1123:27 0
12 *829:26 *1299:A1 2.22695e-05
13 *829:26 *836:10 0
14 *829:26 *836:42 0.000287672
15 *829:26 *837:26 0
16 *829:26 *910:21 0
17 *829:26 *922:8 0.000128247
18 *1299:A0 *829:12 0.000226578
19 *1299:A0 *829:26 0.000208008
20 *1299:A0 *829:48 0
21 *1732:A1 *829:12 0
22 *1732:B1 *829:12 0
23 *1733:B *829:12 0
24 *2125:A *829:26 0
25 *4:8 *829:48 0.000509007
26 *244:8 *829:12 0
27 *517:46 *829:26 0
28 *521:67 *829:26 0
29 *564:10 *829:26 0.000863159
30 *565:8 *829:26 0
31 *567:18 *829:26 0
32 *710:49 *829:26 0.000181279
33 *715:18 *829:48 0
34 *728:14 *829:12 0
35 *728:14 *829:48 0
36 *826:35 *829:26 0.001011
37 *826:43 *829:26 0
*RES
1 *2034:Q *829:4 20 
2 *829:4 *829:12 43.5816 
3 *829:12 *829:26 40.1432 
4 *829:26 *1513:A1 41.3816 
5 *829:12 *1734:A 20 
6 *829:4 *829:48 47.9112 
7 *829:48 *1311:B 20 
*END

*D_NET *830 0.0118239
*CONN
*I *1849:B I *D sg13g2_nand2_1
*I *1510:A1 I *D sg13g2_a21oi_1
*I *1857:A I *D sg13g2_nor3_1
*I *2035:Q O *D sg13g2_dfrbpq_1
*CAP
1 *1849:B 0
2 *1510:A1 0
3 *1857:A 0
4 *2035:Q 0
5 *830:44 0.000651335
6 *830:31 0.0010739
7 *830:18 0.00109226
8 *830:10 0.00342992
9 *830:4 0.00191509
10 *830:10 *2025:CLK 0
11 *830:10 *2082:RESET_B 0
12 *830:10 *2255:A 0.000145031
13 *830:10 *832:12 0
14 *830:10 *832:46 0
15 *830:10 *904:16 0
16 *830:10 *1092:8 0
17 *830:18 *1557:B1 0
18 *830:18 *836:42 0.00017763
19 *830:18 *940:36 1.54556e-05
20 *830:18 *940:40 0
21 *830:18 *940:42 0
22 *830:18 *940:50 0
23 *830:31 *1501:B1 0
24 *830:31 *1510:A2 0.000209637
25 *830:31 *832:46 0
26 *830:31 *1092:8 0
27 *830:44 *2025:CLK 0.000181608
28 *830:44 *2101:A 0
29 *830:44 *2113:A 0
30 *830:44 *2256:A 8.00954e-05
31 *830:44 *910:21 0
32 *830:44 *1098:10 0
33 *830:44 *1119:30 0.000661385
34 *830:44 *1119:34 0.0006618
35 *1557:B2 *830:18 0
36 *2081:D *830:10 0
37 *2268:A *830:31 0.000209637
38 *387:49 *830:31 0
39 *392:41 *830:31 0
40 *393:55 *830:31 0
41 *521:8 *830:31 0
42 *564:19 *830:18 0
43 *565:8 *830:31 0
44 *567:14 *830:31 0
45 *567:18 *830:31 0
46 *717:26 *830:10 0.000608769
47 *717:26 *830:31 0.000710319
48 *729:10 *830:18 0
*RES
1 *2035:Q *830:4 20 
2 *830:4 *830:10 31.4752 
3 *830:10 *830:18 48.4656 
4 *830:18 *1857:A 40 
5 *830:10 *830:31 30.7888 
6 *830:31 *1510:A1 20 
7 *830:4 *830:44 48.1488 
8 *830:44 *1849:B 20 
*END

*D_NET *831 0.00740975
*CONN
*I *1507:A1 I *D sg13g2_a21oi_1
*I *1705:S I *D sg13g2_mux2_1
*I *1351:B I *D sg13g2_nand2_1
*I *2024:Q O *D sg13g2_dfrbpq_1
*CAP
1 *1507:A1 0.000623596
2 *1705:S 0.000116418
3 *1351:B 0.000168577
4 *2024:Q 0
5 *831:32 0.00224381
6 *831:12 0.00114481
7 *831:4 0.00248004
8 *1351:B *1352:A1 0
9 *1351:B *1128:22 0
10 *1507:A1 *1504:A2 0.000232031
11 *1507:A1 *1507:A2 8.11419e-06
12 *1507:A1 *1510:A2 0
13 *1507:A1 *2056:CLK 0
14 *1507:A1 *832:46 0
15 *1705:S *1705:A0 0
16 *1705:S *1128:22 0
17 *831:12 *833:23 0
18 *831:12 *910:33 0
19 *831:12 *1128:10 0
20 *831:12 *1128:16 0
21 *831:32 *1730:A1 0.000181608
22 *831:32 *833:38 0
23 *831:32 *890:8 0
24 *831:32 *899:10 0.000210737
25 *831:32 *910:31 0
26 *1606:B1 *1507:A1 0
27 *1662:C *831:32 0
28 *1892:D *1507:A1 0
29 *2268:A *1507:A1 0
30 *150:8 *831:32 0
31 *214:35 *831:32 0
32 *219:8 *831:32 0
33 *385:24 *831:32 0
34 *517:8 *831:32 0
35 *525:14 *831:32 0
36 *547:35 *831:32 0
37 *716:8 *831:12 0
38 *725:8 *831:12 0
39 *725:8 *831:32 0
*RES
1 *2024:Q *831:4 20 
2 *831:4 *831:12 46.644 
3 *831:12 *1351:B 21.3112 
4 *831:12 *1705:S 21.012 
5 *831:4 *831:32 36.3504 
6 *831:32 *1507:A1 45.6496 
*END

*D_NET *832 0.00870076
*CONN
*I *1504:A1 I *D sg13g2_a21oi_1
*I *1346:B I *D sg13g2_nand2_1
*I *1674:S I *D sg13g2_mux2_1
*I *2025:Q O *D sg13g2_dfrbpq_1
*CAP
1 *1504:A1 0
2 *1346:B 7.50487e-05
3 *1674:S 0.000558641
4 *2025:Q 4.075e-05
5 *832:46 0.00229731
6 *832:12 0.00128926
7 *832:8 0.00299363
8 *1346:B *1346:A 1.54008e-05
9 *1674:S *2026:CLK 0
10 *1674:S *873:68 0
11 *1674:S *1119:60 0
12 *832:8 *2255:A 0
13 *832:12 *904:8 0
14 *832:46 *1498:A1 0
15 *832:46 *1501:B1 0
16 *832:46 *1504:A2 1.54556e-05
17 *832:46 *834:37 0
18 *832:46 *904:8 0
19 *1347:B1 *1346:B 0
20 *1507:A1 *832:46 0
21 *1662:C *832:46 0
22 *2268:A *832:46 0
23 *11:8 *1674:S 0
24 *11:8 *832:12 0
25 *387:49 *832:46 0
26 *393:42 *832:46 0.000181192
27 *448:12 *1674:S 0
28 *521:8 *832:46 7.64441e-05
29 *523:8 *832:46 0
30 *531:10 *832:46 0.000397034
31 *715:10 *1674:S 0
32 *718:84 *832:46 0
33 *721:70 *1674:S 0.000760592
34 *830:10 *832:12 0
35 *830:10 *832:46 0
36 *830:31 *832:46 0
*RES
1 *2025:Q *832:8 40.2728 
2 *832:8 *832:12 6.6968 
3 *832:12 *1674:S 45.5176 
4 *832:12 *1346:B 40.7304 
5 *832:8 *832:46 41.9472 
6 *832:46 *1504:A1 20 
*END

*D_NET *833 0.00777265
*CONN
*I *1501:A1 I *D sg13g2_a21oi_1
*I *1699:S I *D sg13g2_mux2_1
*I *1341:B I *D sg13g2_nand2_1
*I *2026:Q O *D sg13g2_dfrbpq_1
*CAP
1 *1501:A1 0
2 *1699:S 3.68829e-05
3 *1341:B 7.10438e-05
4 *2026:Q 0.000163251
5 *833:38 0.00198149
6 *833:23 0.00301098
7 *833:8 0.0012269
8 *1341:B *1991:CLK 0
9 *1341:B *863:8 0
10 *1341:B *1128:22 0.000159511
11 *1341:B *1128:24 0.000128662
12 *1699:S *1699:A0 0
13 *1699:S *2027:RESET_B 0
14 *833:8 *1128:22 0
15 *833:23 *1991:CLK 0
16 *833:23 *863:8 0
17 *833:23 *863:25 0
18 *833:23 *1128:16 0
19 *833:23 *1128:22 0.00018211
20 *833:38 *1993:CLK 0
21 *833:38 *2056:RESET_B 0
22 *833:38 *2056:CLK 0
23 *833:38 *890:8 0
24 *1694:B1 *833:38 0
25 *2260:A *833:23 0
26 *150:8 *833:38 0
27 *280:16 *833:38 0
28 *281:8 *833:38 0
29 *311:8 *833:23 0.000235055
30 *385:24 *833:38 0
31 *404:36 *833:38 0.000501045
32 *405:8 *833:23 0
33 *405:8 *833:38 0
34 *441:8 *1341:B 7.57164e-05
35 *725:8 *833:23 0
36 *725:8 *833:38 0
37 *831:12 *833:23 0
38 *831:32 *833:38 0
*RES
1 *2026:Q *833:8 41.3816 
2 *833:8 *1341:B 41.144 
3 *833:8 *833:23 8.4744 
4 *833:23 *1699:S 40.2728 
5 *833:23 *833:38 36.6232 
6 *833:38 *1501:A1 20 
*END

*D_NET *834 0.00999875
*CONN
*I *1498:A1 I *D sg13g2_a21oi_1
*I *1730:S I *D sg13g2_mux2_1
*I *1841:B I *D sg13g2_nand2_1
*I *2027:Q O *D sg13g2_dfrbpq_1
*CAP
1 *1498:A1 0.00105279
2 *1730:S 5.09034e-05
3 *1841:B 0.000464542
4 *2027:Q 0.000646721
5 *834:37 0.00201628
6 *834:12 0.00202385
7 *1841:B *938:46 0
8 *834:12 *938:54 0
9 *834:12 *938:60 0
10 *834:12 *1100:64 0.000242483
11 *834:37 *1993:CLK 0
12 *834:37 *1994:RESET_B 0.000436275
13 *834:37 *1106:15 0
14 *1662:B *834:12 0.000693823
15 *1662:C *1498:A1 0
16 *1662:C *834:37 0.000128663
17 *1662:A *834:37 0
18 *1781:S *834:12 0.000307397
19 *2027:D *1841:B 0
20 *2268:A *1498:A1 8.00842e-05
21 *310:14 *1841:B 0
22 *379:25 *1841:B 0.000181192
23 *379:25 *834:37 0.000106064
24 *393:42 *1498:A1 0
25 *405:8 *1841:B 0.00106939
26 *405:8 *834:37 0.000289113
27 *405:10 *1841:B 0.000129089
28 *521:16 *1498:A1 0
29 *718:84 *1730:S 8.00842e-05
30 *832:46 *1498:A1 0
31 *832:46 *834:37 0
*RES
1 *2027:Q *834:12 46.0192 
2 *834:12 *1841:B 45.3768 
3 *834:12 *834:37 48.2808 
4 *834:37 *1730:S 40.4576 
5 *834:37 *1498:A1 47.7264 
*END

*D_NET *835 0.00683483
*CONN
*I *1303:A1 I *D sg13g2_mux2_1
*I *1715:A2 I *D sg13g2_a21oi_1
*I *1564:A2 I *D sg13g2_a221oi_1
*I *2037:Q O *D sg13g2_dfrbpq_1
*CAP
1 *1303:A1 0.000201422
2 *1715:A2 0.000215453
3 *1564:A2 0.000897033
4 *2037:Q 0.000171066
5 *835:29 0.000781145
6 *835:6 0.00143237
7 *1564:A2 *1706:A 4.79124e-05
8 *1564:A2 *1707:B1 3.1684e-05
9 *1564:A2 *1123:55 0
10 *1715:A2 *2095:A 0
11 *835:29 *2037:CLK 0.000982628
12 *835:29 *842:33 0.000556258
13 *835:29 *1106:94 0
14 *1307:A0 *1564:A2 0
15 *1307:A0 *835:6 0
16 *1707:A1 *1564:A2 0
17 *1707:A2 *1564:A2 0
18 *1708:A *1564:A2 0
19 *1708:A *835:6 0
20 *1715:A1 *1303:A1 0
21 *1715:A1 *1715:A2 0.000122072
22 *205:10 *1564:A2 0
23 *224:6 *1564:A2 0
24 *224:14 *1564:A2 8.02598e-05
25 *362:12 *835:29 0.00102874
26 *387:74 *1564:A2 0
27 *564:19 *1564:A2 0
28 *564:34 *1564:A2 0
29 *569:25 *1564:A2 0
30 *569:33 *1564:A2 0
31 *712:22 *835:6 0
32 *827:31 *835:29 0
33 *827:41 *835:29 0.000286789
*RES
1 *2037:Q *835:6 21.3816 
2 *835:6 *1564:A2 27.4998 
3 *835:6 *835:29 46.424 
4 *835:29 *1715:A2 21.7512 
5 *835:29 *1303:A1 21.5664 
*END

*D_NET *836 0.00364634
*CONN
*I *1557:A2 I *D sg13g2_a22oi_1
*I *1732:A2 I *D sg13g2_a21oi_1
*I *1299:A1 I *D sg13g2_mux2_1
*I *2038:Q O *D sg13g2_dfrbpq_1
*CAP
1 *1557:A2 8.33261e-05
2 *1732:A2 0.000207914
3 *1299:A1 6.4351e-05
4 *2038:Q 0
5 *836:42 0.00038905
6 *836:10 0.00106295
7 *836:6 0.00109641
8 *1299:A1 *910:21 0
9 *1557:A2 *1557:B1 0
10 *1732:A2 *1299:S 0
11 *1732:A2 *904:20 0
12 *836:10 *2082:RESET_B 0
13 *836:10 *910:21 0
14 *836:10 *940:61 0
15 *836:42 *1557:B1 0
16 *836:42 *940:50 0
17 *1557:B2 *1557:A2 4.77425e-05
18 *1557:B2 *836:42 0
19 *1732:A1 *1732:A2 0
20 *564:19 *836:42 8.02595e-05
21 *565:8 *836:42 0.000126769
22 *717:26 *836:42 0
23 *829:26 *1299:A1 2.22695e-05
24 *829:26 *836:10 0
25 *829:26 *836:42 0.000287672
26 *830:18 *836:42 0.00017763
*RES
1 *2038:Q *836:6 40 
2 *836:6 *836:10 6.2744 
3 *836:10 *1299:A1 40.5104 
4 *836:10 *1732:A2 41.6808 
5 *836:6 *836:42 43.388 
6 *836:42 *1557:A2 40.6424 
*END

*D_NET *837 0.00276307
*CONN
*I *1851:A1 I *D sg13g2_mux2_1
*I *1855:A2 I *D sg13g2_a21oi_1
*I *1549:A1 I *D sg13g2_a22oi_1
*I *2039:Q O *D sg13g2_dfrbpq_1
*CAP
1 *1851:A1 3.23787e-05
2 *1855:A2 0
3 *1549:A1 0
4 *2039:Q 0.000674578
5 *837:26 3.73147e-05
6 *837:20 0.00017423
7 *837:16 0.000436592
8 *837:8 0.00100663
9 *837:16 *1090:14 0
10 *1522:B1 *837:8 0
11 *1564:B1 *837:16 0
12 *1851:A0 *1851:A1 4.78192e-05
13 *1856:B *837:20 0.000209418
14 *307:18 *1851:A1 0
15 *307:18 *837:8 0
16 *307:18 *837:16 0
17 *318:12 *837:20 1.54446e-05
18 *517:71 *837:8 0
19 *557:42 *837:8 0
20 *558:10 *837:20 0
21 *729:14 *837:16 0
22 *826:43 *837:26 0.000128663
23 *829:26 *837:26 0
*RES
1 *2039:Q *837:8 46.424 
2 *837:8 *837:16 43.0008 
3 *837:16 *837:20 21.1968 
4 *837:20 *837:26 40.5104 
5 *837:26 *1549:A1 20 
6 *837:20 *1855:A2 20 
7 *837:8 *1851:A1 40.2728 
*END

*D_NET *838 0.00157643
*CONN
*I *1544:A1 I *D sg13g2_a221oi_1
*I *1365:A I *D sg13g2_inv_1
*I *2020:Q O *D sg13g2_dfrbpq_1
*CAP
1 *1544:A1 0.000260626
2 *1365:A 0.000229831
3 *2020:Q 0
4 *838:6 0.000490456
5 *1365:A *921:27 0
6 *1544:A1 *921:37 0
7 *1998:CLK *1365:A 0.00018211
8 *1998:CLK *1544:A1 0.000106392
9 *710:43 *1365:A 0.000307019
*RES
1 *2020:Q *838:6 40 
2 *838:6 *1365:A 42.4728 
3 *838:6 *1544:A1 42.684 
*END

*D_NET *839 0.00598676
*CONN
*I *1541:A1 I *D sg13g2_a221oi_1
*I *1359:A I *D sg13g2_inv_1
*I *2021:Q O *D sg13g2_dfrbpq_1
*CAP
1 *1541:A1 0
2 *1359:A 0.000784601
3 *2021:Q 0
4 *839:29 0.00133612
5 *839:6 0.00212072
6 *1359:A *1125:38 0
7 *1359:A *1125:42 0.000341119
8 *839:29 *1541:A2 0
9 *839:29 *1836:A 0
10 *839:29 *1838:A2 0
11 *839:29 *921:27 0.000274611
12 *839:29 *1106:114 0
13 *839:29 *1125:42 0
14 *839:29 *1125:59 0
15 *1541:B1 *839:29 4.77425e-05
16 *1544:B2 *839:29 0.000242181
17 *1998:CLK *839:29 0
18 *14:10 *1359:A 0
19 *307:35 *839:29 0
20 *308:8 *839:29 0
21 *410:16 *1359:A 0
22 *455:8 *1359:A 7.51169e-05
23 *460:8 *839:29 0
24 *464:8 *839:29 0.000128247
25 *547:35 *839:29 0.000377132
26 *547:46 *839:29 0.000259183
*RES
1 *2021:Q *839:6 40 
2 *839:6 *1359:A 46.732 
3 *839:6 *839:29 32.0472 
4 *839:29 *1541:A1 20 
*END

*D_NET *840 0.0129703
*CONN
*I *1538:A1 I *D sg13g2_a221oi_1
*I *1353:A I *D sg13g2_inv_1
*I *2022:Q O *D sg13g2_dfrbpq_1
*CAP
1 *1538:A1 0
2 *1353:A 0.000474609
3 *2022:Q 0
4 *840:39 7.69027e-05
5 *840:33 0.00112689
6 *840:25 0.00319928
7 *840:6 0.0026239
8 *1353:A *2022:CLK 0
9 *1353:A *904:35 0
10 *1353:A *1123:36 0
11 *840:25 *842:54 0
12 *840:25 *843:25 0
13 *840:25 *928:87 7.27688e-05
14 *840:25 *1136:37 1.54008e-05
15 *840:25 *1136:46 0
16 *840:25 *1148:26 0.00182883
17 *840:33 *1535:A1 0
18 *840:33 *1545:B 0
19 *840:33 *912:35 0
20 *840:33 *912:54 0
21 *840:39 *924:10 0
22 *1519:A1 *840:25 0
23 *1546:A1 *840:33 0
24 *1630:A1 *840:33 7.99451e-05
25 *1630:B1 *840:33 4.76456e-05
26 *1717:A *1353:A 0
27 *1880:D *840:33 0.000240097
28 *1912:D *840:33 7.99455e-05
29 *2044:D *1353:A 0
30 *547:35 *840:25 0
31 *552:14 *840:39 0.000233902
32 *554:8 *840:33 0
33 *569:33 *840:25 0
34 *575:10 *840:25 0.00119262
35 *575:22 *840:33 0
36 *725:31 *840:25 0
37 *828:38 *1353:A 0.000554756
38 *828:38 *840:25 0.0011228
*RES
1 *2022:Q *840:6 40 
2 *840:6 *1353:A 44.3208 
3 *840:6 *840:25 42.7304 
4 *840:25 *840:33 48.5712 
5 *840:33 *840:39 40.9328 
6 *840:39 *1538:A1 20 
*END

*D_NET *841 0.00436565
*CONN
*I *1535:A1 I *D sg13g2_a221oi_1
*I *1836:A I *D sg13g2_inv_1
*I *2023:Q O *D sg13g2_dfrbpq_1
*CAP
1 *1535:A1 0.00109237
2 *1836:A 0.000583779
3 *2023:Q 9.74823e-05
4 *841:8 0.00177363
5 *1535:A1 *1541:A2 0
6 *1535:A1 *1545:A 8.0194e-05
7 *1535:A1 *1106:114 0
8 *1535:A1 *1136:84 4.78524e-05
9 *1535:A1 *1137:40 0
10 *1836:A *1106:114 0
11 *841:8 *921:27 0.000144008
12 *1538:B1 *1535:A1 1.54008e-05
13 *1546:A1 *1535:A1 0
14 *1546:B1 *1535:A1 0
15 *1630:B1 *1535:A1 0
16 *1851:A0 *1836:A 0
17 *1880:D *1535:A1 0
18 *307:18 *1836:A 1.54008e-05
19 *307:35 *1836:A 6.46834e-05
20 *547:63 *1535:A1 4.77425e-05
21 *575:14 *1535:A1 0.000403114
22 *710:43 *841:8 0
23 *839:29 *1836:A 0
24 *840:33 *1535:A1 0
*RES
1 *2023:Q *841:8 40.8272 
2 *841:8 *1836:A 44.5584 
3 *841:8 *1535:A1 49.24 
*END

*D_NET *842 0.0079394
*CONN
*I *1531:A1 I *D sg13g2_a21oi_1
*I *1707:B1 I *D sg13g2_a21oi_1
*I *1336:B I *D sg13g2_nand2_1
*I *2028:Q O *D sg13g2_dfrbpq_1
*CAP
1 *1531:A1 0
2 *1707:B1 0.000109888
3 *1336:B 0.000491367
4 *2028:Q 0
5 *842:54 0.00122156
6 *842:33 0.00223156
7 *842:6 0.00139148
8 *1336:B *2037:CLK 0
9 *1336:B *1123:40 0
10 *1336:B *1123:83 0
11 *842:33 *2037:CLK 0
12 *842:33 *1123:55 0.000713351
13 *842:54 *843:25 0
14 *842:54 *1123:55 0.000287394
15 *842:54 *1136:37 0.000209544
16 *1358:B1 *1336:B 0.000334266
17 *1387:A *842:54 0
18 *1564:A2 *1707:B1 3.1684e-05
19 *1707:A2 *842:54 0
20 *224:14 *1707:B1 7.55443e-05
21 *224:14 *842:54 0
22 *225:8 *842:33 0.000285508
23 *226:12 *1707:B1 0
24 *362:12 *842:54 0
25 *362:35 *842:54 0
26 *537:12 *842:54 0
27 *718:23 *842:54 0
28 *824:8 *842:54 0
29 *824:10 *842:54 0
30 *827:12 *1336:B 0
31 *827:41 *842:54 0
32 *835:29 *842:33 0.000556258
33 *840:25 *842:54 0
*RES
1 *2028:Q *842:6 40 
2 *842:6 *1336:B 43.685 
3 *842:6 *842:33 49.0552 
4 *842:33 *1707:B1 41.3068 
5 *842:33 *842:54 30.6392 
6 *842:54 *1531:A1 20 
*END

*D_NET *843 0.0099571
*CONN
*I *1331:B I *D sg13g2_nand2_1
*I *1528:A1 I *D sg13g2_a21oi_1
*I *1715:B1 I *D sg13g2_a21oi_1
*I *2029:Q O *D sg13g2_dfrbpq_1
*CAP
1 *1331:B 0
2 *1528:A1 0
3 *1715:B1 9.63667e-05
4 *2029:Q 0.00195995
5 *843:41 0.00112661
6 *843:25 0.00213427
7 *843:10 0.00306397
8 *1715:B1 *2095:A 0
9 *843:10 *2111:A 0
10 *843:10 *1113:89 0
11 *843:25 *1528:A2 6.46834e-05
12 *843:25 *904:35 0
13 *843:25 *928:79 0.000436648
14 *843:25 *1123:55 0
15 *843:25 *1123:71 0
16 *843:25 *1148:26 0
17 *843:41 *1969:CLK 0
18 *843:41 *908:24 0
19 *843:41 *908:30 0
20 *843:41 *914:14 0
21 *843:41 *1098:76 0
22 *1707:A2 *843:25 0
23 *1715:A1 *1715:B1 0
24 *1718:A2 *1715:B1 0.000112426
25 *6:8 *843:41 0.00034162
26 *224:14 *843:25 0
27 *226:12 *843:25 0
28 *476:23 *843:25 0
29 *569:33 *843:25 0.00044322
30 *575:14 *843:25 0
31 *715:22 *843:10 0
32 *715:33 *843:10 0
33 *718:103 *843:25 0
34 *725:31 *843:25 0
35 *725:48 *843:25 0
36 *727:20 *1715:B1 0.000177339
37 *824:8 *843:25 0
38 *824:10 *843:25 0
39 *827:12 *843:10 0
40 *827:12 *843:25 0
41 *827:12 *843:41 0
42 *827:58 *843:41 0
43 *840:25 *843:25 0
44 *842:54 *843:25 0
*RES
1 *2029:Q *843:10 47.0664 
2 *843:10 *1715:B1 41.012 
3 *843:10 *843:25 40.2664 
4 *843:25 *1528:A1 20 
5 *2029:Q *843:41 48.8616 
6 *843:41 *1331:B 40 
*END

*D_NET *844 0.0165594
*CONN
*I *2230:A I *D sg13g2_buf_1
*I *2092:A I *D sg13g2_buf_1
*I *1986:RESET_B I *D sg13g2_dfrbpq_1
*I *1985:RESET_B I *D sg13g2_dfrbpq_1
*I *1961:RESET_B I *D sg13g2_dfrbpq_1
*I *1987:RESET_B I *D sg13g2_dfrbpq_1
*I *2244:A I *D sg13g2_buf_1
*I *2040:Q O *D sg13g2_dfrbpq_1
*CAP
1 *2230:A 0
2 *2092:A 0
3 *1986:RESET_B 0
4 *1985:RESET_B 0
5 *1961:RESET_B 0.000218009
6 *1987:RESET_B 0.000121487
7 *2244:A 0.000162229
8 *2040:Q 0.00126361
9 *844:107 0.00155963
10 *844:84 0.000520953
11 *844:71 0.000695354
12 *844:67 0.00192378
13 *844:58 0.00177207
14 *844:28 0.000525621
15 *844:26 0.00205145
16 *844:8 0.00114284
17 *1961:RESET_B *1987:CLK 0
18 *1961:RESET_B *1095:77 0
19 *1987:RESET_B *1390:A1 0
20 *844:8 *2083:RESET_B 0
21 *844:8 *918:48 0
22 *844:26 *918:6 0
23 *844:26 *1095:77 0
24 *844:28 *1390:A1 0
25 *844:28 *1095:77 0.000341949
26 *844:58 *1286:A 0
27 *844:58 *1288:C 0
28 *844:58 *1289:C 0
29 *844:58 *1289:A 0
30 *844:58 *1986:CLK 1.54008e-05
31 *844:58 *2069:D 0
32 *844:58 *1036:10 0
33 *844:58 *1046:27 0.0008298
34 *844:58 *1046:40 0.000598395
35 *844:58 *1095:53 0
36 *844:58 *1095:77 0.000341949
37 *844:58 *1117:14 0
38 *844:58 *1117:23 0
39 *844:58 *1120:8 0
40 *844:67 *1986:CLK 0.000339437
41 *844:71 *1962:CLK 0
42 *844:84 *1394:A2 4.77425e-05
43 *844:84 *1040:8 0
44 *844:107 *1985:CLK 0
45 *844:107 *2070:D 1.54008e-05
46 *844:107 *870:8 0.000184493
47 *844:107 *873:60 0
48 *844:107 *875:16 8.03692e-05
49 *844:107 *937:47 0
50 *1290:B *844:58 0.000242055
51 *1339:A *844:107 0
52 *1394:A1 *844:84 0.00018416
53 *1575:A *844:107 0
54 *1771:A *844:107 0
55 *1772:S *844:107 0
56 *1985:D *844:67 0
57 *1985:D *844:84 0
58 *1986:D *844:84 0
59 *1992:D *844:107 0.000112085
60 *251:29 *844:107 0.000399531
61 *252:12 *844:107 0.000150755
62 *310:14 *844:107 0
63 *395:10 *844:58 0
64 *479:8 *844:84 0.000670937
65 *505:18 *1961:RESET_B 0
66 *505:18 *1987:RESET_B 4.79124e-05
67 *505:31 *1961:RESET_B 0
68 *704:8 *844:8 0
69 *706:20 *2244:A 0
70 *721:59 *844:58 0
*RES
1 *2040:Q *844:8 48.536 
2 *844:8 *2244:A 41.3816 
3 *2040:Q *844:26 42.6752 
4 *844:26 *844:28 2.2 
5 *844:28 *1987:RESET_B 41.2056 
6 *844:28 *1961:RESET_B 42.1208 
7 *844:26 *844:58 35.3208 
8 *844:58 *1985:RESET_B 20 
9 *844:58 *844:67 21.936 
10 *844:67 *844:71 21.7776 
11 *844:71 *1986:RESET_B 20 
12 *844:71 *844:84 45.4296 
13 *844:84 *2092:A 20 
14 *844:67 *844:107 35.356 
15 *844:107 *2230:A 20 
*END

*D_NET *782 0.00224341
*CONN
*P rst_ni I
*I *2328:A I *D sg13g2_dlygate4sd3_1
*CAP
1 rst_ni 0.0011217
2 *2328:A 0.0011217
3 *2328:A *787:9 0
*RES
1 rst_ni *2328:A 49.4248 
*END

*D_NET *846 0.00112637
*CONN
*I *2083:D I *D sg13g2_dfrbpq_1
*I *2084:Q O *D sg13g2_dfrbpq_1
*CAP
1 *2083:D 0.000563183
2 *2084:Q 0.000563183
3 *2083:D *2065:D 0
*RES
1 *2084:Q *2083:D 45.148 
*END

*D_NET *847 0.000197493
*CONN
*I *1706:A I *D sg13g2_inv_1
*I *2079:Q O *D sg13g2_dfrbpq_1
*CAP
1 *1706:A 7.47902e-05
2 *2079:Q 7.47902e-05
3 *1564:A2 *1706:A 4.79124e-05
4 *569:33 *1706:A 0
*RES
1 *2079:Q *1706:A 40.7832 
*END

*D_NET *848 0.00150155
*CONN
*I *1714:A I *D sg13g2_inv_1
*I *2080:Q O *D sg13g2_dfrbpq_1
*CAP
1 *1714:A 0.000113369
2 *2080:Q 0
3 *848:12 0.000638236
4 *848:6 0.000524867
5 *1714:A *1113:109 0
6 *1714:A *1125:16 0.000177335
7 *1714:A *1170:18 4.77425e-05
*RES
1 *2080:Q *848:6 40 
2 *848:6 *848:12 45.4472 
3 *848:12 *1714:A 41.012 
*END

*D_NET *849 0.00112379
*CONN
*I *1731:A I *D sg13g2_inv_1
*I *2081:Q O *D sg13g2_dfrbpq_1
*CAP
1 *1731:A 0
2 *2081:Q 0.000561894
3 *849:10 0.000561894
4 *849:10 *2038:RESET_B 0
5 *849:10 *2038:CLK 0
6 *849:10 *2045:CLK 0
7 *849:10 *904:20 0
8 *849:10 *910:25 0
9 *849:10 *1099:22 0
10 *241:8 *849:10 0
11 *725:16 *849:10 0
12 *826:35 *849:10 0
*RES
1 *2081:Q *849:10 44.6376 
2 *849:10 *1731:A 40 
*END

*D_NET *850 0.00038603
*CONN
*I *1854:A I *D sg13g2_inv_1
*I *2082:Q O *D sg13g2_dfrbpq_1
*CAP
1 *1854:A 0.000193015
2 *2082:Q 0.000193015
3 *1854:A *1106:78 0
4 *564:10 *1854:A 0
*RES
1 *2082:Q *1854:A 41.6808 
*END

*D_NET *851 0.0106808
*CONN
*I *2102:A I *D sg13g2_buf_1
*I *2104:A I *D sg13g2_buf_1
*I *2058:RESET_B I *D sg13g2_dfrbpq_1
*I *2052:RESET_B I *D sg13g2_dfrbpq_1
*I *2077:RESET_B I *D sg13g2_dfrbpq_1
*I *2103:A I *D sg13g2_buf_1
*I *2099:A I *D sg13g2_buf_1
*I *2049:Q O *D sg13g2_dfrbpq_1
*CAP
1 *2102:A 2.77263e-05
2 *2104:A 0
3 *2058:RESET_B 0
4 *2052:RESET_B 0
5 *2077:RESET_B 0.000735699
6 *2103:A 0
7 *2099:A 0.000138652
8 *2049:Q 0.000157268
9 *851:77 0.000654488
10 *851:69 0.00124957
11 *851:56 0.000853957
12 *851:43 0.000546258
13 *851:14 0.000476612
14 *851:12 0.00132743
15 *851:8 0.000670692
16 *2077:RESET_B *2074:RESET_B 0.000307133
17 *2077:RESET_B *2074:CLK 0
18 *2077:RESET_B *2077:CLK 0
19 *2077:RESET_B *861:23 0
20 *2077:RESET_B *871:10 0
21 *2077:RESET_B *1116:8 0
22 *2077:RESET_B *1116:34 0.00033953
23 *851:8 *2011:CLK 0
24 *851:8 *1106:27 0
25 *851:12 *2074:RESET_B 5.30319e-05
26 *851:12 *1106:27 0
27 *851:12 *1116:10 0
28 *851:14 *2074:RESET_B 0.000554162
29 *851:14 *937:12 0.000340181
30 *851:14 *1116:16 0
31 *851:43 *886:8 0
32 *851:43 *1106:27 0
33 *851:56 *2058:D 0.000240745
34 *851:56 *2058:CLK 0.00018211
35 *851:56 *1100:49 0
36 *851:56 *1106:27 0
37 *851:69 *2058:CLK 0.000501961
38 *851:69 *885:10 0
39 *851:69 *936:8 0
40 *851:69 *1100:64 0
41 *851:69 *1106:27 0
42 *851:77 *2027:RESET_B 0
43 *851:77 *2078:RESET_B 0.000501786
44 *851:77 *2078:D 0
45 *851:77 *2078:CLK 0
46 *851:77 *885:10 0
47 *2027:D *851:77 0
48 *399:12 *851:12 0
49 *399:12 *851:43 0.000821814
*RES
1 *2049:Q *851:8 41.1968 
2 *851:8 *851:12 2.2616 
3 *851:12 *851:14 4.1008 
4 *851:14 *2099:A 41.144 
5 *851:14 *2103:A 40 
6 *851:12 *2077:RESET_B 46.556 
7 *851:8 *851:43 23.256 
8 *851:43 *2052:RESET_B 20 
9 *851:43 *851:56 22.9568 
10 *851:56 *2058:RESET_B 40 
11 *851:56 *851:69 25.852 
12 *851:69 *851:77 45.6144 
13 *851:77 *2104:A 20 
14 *851:69 *2102:A 20.2992 
*END

*D_NET *852 0.00075625
*CONN
*I *2075:D I *D sg13g2_dfrbpq_1
*I *1739:Y O *D sg13g2_a21oi_1
*CAP
1 *2075:D 0.00035424
2 *1739:Y 0.00035424
3 *2075:D *1739:A2 0
4 *2075:D *856:49 4.77702e-05
5 *2027:D *2075:D 0
6 *238:19 *2075:D 0
7 *245:31 *2075:D 0
*RES
1 *1739:Y *2075:D 43.08 
*END

*D_NET *853 0.000812994
*CONN
*I *2076:D I *D sg13g2_dfrbpq_1
*I *1738:Y O *D sg13g2_a21oi_1
*CAP
1 *2076:D 0.000149029
2 *1738:Y 0.000113852
3 *853:10 0.000262882
4 *2076:D *856:49 0.000176602
5 *2076:D *1115:44 1.54008e-05
6 *1721:B *853:10 4.7813e-05
7 *1738:A2 *2076:D 0
8 *1738:A2 *853:10 4.74145e-05
*RES
1 *1738:Y *853:10 40.9944 
2 *853:10 *2076:D 41.1968 
*END

*D_NET *854 0.00147427
*CONN
*I *2077:D I *D sg13g2_dfrbpq_1
*I *1729:Y O *D sg13g2_a21oi_1
*CAP
1 *2077:D 0
2 *1729:Y 0.000729433
3 *854:10 0.000729433
4 *854:10 *1724:B 0
5 *854:10 *1728:A1 1.54008e-05
6 *854:10 *870:8 0
7 *854:10 *871:10 0
8 *1728:B1 *854:10 0
9 *236:27 *854:10 0
10 *239:23 *854:10 0
11 *269:8 *854:10 0
*RES
1 *1729:Y *854:10 46.9608 
2 *854:10 *2077:D 40 
*END

*D_NET *855 0.000349088
*CONN
*I *2078:D I *D sg13g2_dfrbpq_1
*I *1726:Y O *D sg13g2_a21oi_1
*CAP
1 *2078:D 0.000174544
2 *1726:Y 0.000174544
3 *2078:D *2078:RESET_B 0
4 *236:12 *2078:D 0
5 *851:77 *2078:D 0
*RES
1 *1726:Y *2078:D 41.7864 
*END

*D_NET *856 0.00497798
*CONN
*I *1737:A I *D sg13g2_xnor2_1
*I *1739:A2 I *D sg13g2_a21oi_1
*I *1767:A1 I *D sg13g2_o21ai_1
*I *1719:A I *D sg13g2_inv_1
*I *2075:Q O *D sg13g2_dfrbpq_1
*CAP
1 *1737:A 0
2 *1739:A2 0.000142653
3 *1767:A1 0
4 *1719:A 0.000270702
5 *2075:Q 0.000676859
6 *856:49 0.000373334
7 *856:30 0.000515987
8 *856:14 0.000630888
9 *856:8 0.00103704
10 *1719:A *1705:A0 0
11 *856:8 *1699:A1 0
12 *856:8 *857:8 0
13 *856:14 *1724:B 0
14 *856:49 *1737:B 4.77425e-05
15 *856:49 *1991:CLK 0.000234224
16 *856:49 *857:8 0.000340288
17 *856:49 *1115:31 0.000106064
18 *1721:A *1719:A 2.47016e-05
19 *1721:B *856:49 4.77425e-05
20 *1738:A1 *1739:A2 0.000209681
21 *1738:A1 *856:49 0
22 *1738:A2 *856:49 8.02379e-05
23 *1767:B1 *856:14 0
24 *2027:D *856:49 0
25 *2075:D *1739:A2 0
26 *2075:D *856:49 4.77702e-05
27 *2076:D *856:49 0.000176602
28 *234:10 *1719:A 0
29 *237:6 *856:14 0
30 *245:31 *1739:A2 1.54556e-05
31 *310:14 *856:49 0
*RES
1 *2075:Q *856:8 45.7904 
2 *856:8 *856:14 22.8688 
3 *856:14 *1719:A 22.2352 
4 *856:14 *1767:A1 20 
5 *856:8 *856:30 20 
6 *856:30 *1739:A2 21.1968 
7 *856:30 *856:49 44.048 
8 *856:49 *1737:A 20 
*END

*D_NET *857 0.00279161
*CONN
*I *1737:B I *D sg13g2_xnor2_1
*I *1720:A I *D sg13g2_inv_1
*I *2076:Q O *D sg13g2_dfrbpq_1
*CAP
1 *1737:B 4.39693e-05
2 *1720:A 0.000170343
3 *2076:Q 0.000761455
4 *857:10 0.000214312
5 *857:8 0.000761455
6 *857:8 *1699:A1 0
7 *857:8 *1993:CLK 0
8 *857:8 *1115:31 0
9 *1721:B *1720:A 0
10 *233:12 *1720:A 0.000112651
11 *234:10 *1720:A 0.000274594
12 *234:10 *1737:B 6.48039e-05
13 *856:8 *857:8 0
14 *856:49 *1737:B 4.77425e-05
15 *856:49 *857:8 0.000340288
*RES
1 *2076:Q *857:8 46.6352 
2 *857:8 *857:10 20 
3 *857:10 *1720:A 21.5664 
4 *857:10 *1737:B 20.4576 
*END

*D_NET *858 0.000733686
*CONN
*I *1728:A1 I *D sg13g2_o21ai_1
*I *1722:B I *D sg13g2_nand2_1
*I *2077:Q O *D sg13g2_dfrbpq_1
*CAP
1 *1728:A1 4.20276e-05
2 *1722:B 0.000161239
3 *2077:Q 4.32204e-05
4 *858:6 0.000246487
5 *1722:B *1724:B 0
6 *1728:A1 *1724:B 0
7 *1722:A *1722:B 0.000144942
8 *1722:A *1728:A1 8.03692e-05
9 *854:10 *1728:A1 1.54008e-05
*RES
1 *2077:Q *858:6 20.5104 
2 *858:6 *1722:B 21.496 
3 *858:6 *1728:A1 20.4576 
*END

*D_NET *859 0.0038741
*CONN
*I *1723:A I *D sg13g2_inv_1
*I *1768:C I *D sg13g2_nand3b_1
*I *1736:B I *D sg13g2_nand2_1
*I *2078:Q O *D sg13g2_dfrbpq_1
*CAP
1 *1723:A 2.56263e-05
2 *1768:C 0.000210061
3 *1736:B 0
4 *2078:Q 0.000740026
5 *859:18 0.000541913
6 *859:8 0.0010975
7 *859:8 *885:10 0
8 *859:8 *885:23 0
9 *859:8 *1100:64 0
10 *859:18 *1724:B 0
11 *859:18 *2248:A 0
12 *859:18 *1100:64 0
13 *1722:A *859:18 8.02269e-05
14 *1726:A1 *859:8 0.000289003
15 *1726:A1 *859:18 0.000159839
16 *1726:B1 *859:18 0
17 *1768:B *1768:C 1.54008e-05
18 *1768:A_N *1768:C 4.77425e-05
19 *235:8 *859:18 7.52158e-05
20 *236:12 *859:8 0
21 *239:8 *859:18 0
22 *240:8 *1768:C 0.0002913
23 *240:8 *859:18 0.000155244
24 *245:8 *1768:C 0.000144992
*RES
1 *2078:Q *859:8 47.0576 
2 *859:8 *859:18 23.2824 
3 *859:18 *1736:B 20 
4 *859:18 *1768:C 21.936 
5 *859:8 *1723:A 40.2728 
*END

*D_NET *860 0.00210307
*CONN
*I *1724:B I *D sg13g2_xnor2_1
*I *2074:Q O *D sg13g2_dfrbpq_1
*CAP
1 *1724:B 0.00104383
2 *2074:Q 0.00104383
3 *1724:B *1769:A0 1.54008e-05
4 *1724:B *2011:CLK 0
5 *1724:B *2058:D 0
6 *1724:B *1100:49 0
7 *1722:B *1724:B 0
8 *1728:A1 *1724:B 0
9 *1769:S *1724:B 0
10 *237:6 *1724:B 0
11 *240:16 *1724:B 0
12 *707:14 *1724:B 0
13 *854:10 *1724:B 0
14 *856:14 *1724:B 0
15 *859:18 *1724:B 0
*RES
1 *2074:Q *1724:B 49.4248 
*END

*D_NET *861 0.00889547
*CONN
*I *1705:A0 I *D sg13g2_mux2_1
*I *1724:A I *D sg13g2_xnor2_1
*I *1769:A0 I *D sg13g2_mux2_1
*I *2074:D I *D sg13g2_dfrbpq_1
*I *2072:Q O *D sg13g2_dfrbpq_1
*CAP
1 *1705:A0 0.000408448
2 *1724:A 0
3 *1769:A0 0.000243511
4 *2074:D 0
5 *2072:Q 0.000972009
6 *861:38 0.000475648
7 *861:23 0.0016929
8 *861:12 0.00235419
9 *1705:A0 *1769:A1 0
10 *1705:A0 *863:25 0
11 *861:12 *2049:CLK 0.000274528
12 *861:12 *2094:A 0.000145157
13 *861:12 *1106:27 0
14 *861:12 *1116:34 0
15 *861:23 *1116:34 0
16 *1705:S *1705:A0 0
17 *1719:A *1705:A0 0
18 *1721:A *1705:A0 0
19 *1724:B *1769:A0 1.54008e-05
20 *1769:S *1769:A0 0
21 *2011:RESET_B *861:12 0
22 *2077:RESET_B *861:23 0
23 *310:14 *1705:A0 0.000184492
24 *310:14 *861:23 0.00121213
25 *310:14 *861:38 0.000238309
26 *474:51 *861:12 0
27 *713:12 *861:12 0
28 *721:12 *861:12 0.000112689
29 *721:70 *861:12 0.000566053
30 *721:70 *861:23 0
*RES
1 *2072:Q *861:12 28.932 
2 *861:12 *2074:D 20 
3 *861:12 *861:23 32.9536 
4 *861:23 *1769:A0 42.3232 
5 *861:23 *861:38 0.9328 
6 *861:38 *1724:A 40 
7 *861:38 *1705:A0 44.136 
*END

*D_NET *862 0.000221244
*CONN
*I *2072:D I *D sg13g2_dfrbpq_1
*I *2073:Q O *D sg13g2_dfrbpq_1
*CAP
1 *2072:D 0.000102922
2 *2073:Q 0.000102922
3 *2072:D *2072:RESET_B 0
4 *2072:D *2083:CLK 1.54008e-05
5 *2072:D *1120:73 0
*RES
1 *2073:Q *2072:D 40.968 
*END

*D_NET *863 0.00102543
*CONN
*I *1705:A1 I *D sg13g2_mux2_1
*I *1769:A1 I *D sg13g2_mux2_1
*I *1991:Q O *D sg13g2_dfrbpq_1
*CAP
1 *1705:A1 0
2 *1769:A1 2.9535e-05
3 *1991:Q 0.000191781
4 *863:25 0.000291398
5 *863:10 0.000320933
6 *863:8 0.000191781
7 *863:8 *1991:CLK 0
8 *863:25 *1991:CLK 0
9 *1341:B *863:8 0
10 *1705:A0 *1769:A1 0
11 *1705:A0 *863:25 0
12 *833:23 *863:8 0
13 *833:23 *863:25 0
*RES
1 *1991:Q *863:8 41.5664 
2 *863:8 *863:10 20 
3 *863:10 *1769:A1 20.2728 
4 *863:10 *863:25 42.3672 
5 *863:25 *1705:A1 20 
*END

*D_NET *864 0.00152702
*CONN
*I *2068:D I *D sg13g2_dfrbpq_1
*I *1758:Y O *D sg13g2_a21oi_1
*CAP
1 *2068:D 0.000185087
2 *1758:Y 0.000487825
3 *864:8 0.000672913
4 *2068:D *1288:C 0
5 *864:8 *1047:26 0.000181192
6 *864:8 *1095:53 0
*RES
1 *1758:Y *864:8 44.9456 
2 *864:8 *2068:D 41.3816 
*END

*D_NET *865 0.000526053
*CONN
*I *2069:D I *D sg13g2_dfrbpq_1
*I *1757:Y O *D sg13g2_a21oi_1
*CAP
1 *2069:D 0.000263026
2 *1757:Y 0.000263026
3 *2069:D *1095:37 0
4 *2069:D *1095:53 0
5 *1757:B1 *2069:D 0
6 *844:58 *2069:D 0
*RES
1 *1757:Y *2069:D 42.4728 
*END

*D_NET *866 0.000957336
*CONN
*I *2070:D I *D sg13g2_dfrbpq_1
*I *1754:Y O *D sg13g2_a21oi_1
*CAP
1 *2070:D 0.000319421
2 *1754:Y 0.000319421
3 *1750:A2 *2070:D 7.99455e-05
4 *1752:A1 *2070:D 1.54556e-05
5 *1753:A *2070:D 0
6 *1754:B1 *2070:D 8.02269e-05
7 *1772:S *2070:D 0
8 *252:12 *2070:D 4.77425e-05
9 *252:16 *2070:D 7.97219e-05
10 *844:107 *2070:D 1.54008e-05
*RES
1 *1754:Y *2070:D 43.08 
*END

*D_NET *867 0.000436634
*CONN
*I *2071:D I *D sg13g2_dfrbpq_1
*I *1750:Y O *D sg13g2_a21oi_1
*CAP
1 *2071:D 0.000218317
2 *1750:Y 0.000218317
3 *259:10 *2071:D 0
*RES
1 *1750:Y *2071:D 41.8744 
*END

*D_NET *868 0.00221993
*CONN
*I *1742:A I *D sg13g2_inv_1
*I *1756:B I *D sg13g2_xnor2_1
*I *1758:A2 I *D sg13g2_a21oi_1
*I *2068:Q O *D sg13g2_dfrbpq_1
*CAP
1 *1742:A 6.72482e-05
2 *1756:B 0.000115735
3 *1758:A2 0
4 *2068:Q 0.000192577
5 *868:19 0.00039093
6 *868:8 0.000400524
7 *1742:A *2069:CLK 4.77425e-05
8 *1742:A *869:23 4.77425e-05
9 *1742:A *1117:14 0.00012816
10 *1756:B *1756:A 4.77425e-05
11 *1756:B *1117:14 0.000234224
12 *868:8 *869:38 0
13 *868:19 *869:23 0.000306739
14 *1757:A1 *1756:B 4.78356e-05
15 *1758:A1 *868:8 1.54556e-05
16 *1758:A1 *868:19 0.000177273
17 *260:8 *1756:B 0
*RES
1 *2068:Q *868:8 21.6808 
2 *868:8 *1758:A2 20 
3 *868:8 *868:19 22.0504 
4 *868:19 *1756:B 41.2056 
5 *868:19 *1742:A 40.7832 
*END

*D_NET *869 0.00365928
*CONN
*I *1770:A1 I *D sg13g2_a22oi_1
*I *1741:A I *D sg13g2_inv_1
*I *1756:A I *D sg13g2_xnor2_1
*I *2069:Q O *D sg13g2_dfrbpq_1
*CAP
1 *1770:A1 0
2 *1741:A 0
3 *1756:A 0.000241107
4 *2069:Q 0.000305001
5 *869:38 0.000344399
6 *869:23 0.00069603
7 *869:8 0.000897739
8 *869:8 *1117:8 0
9 *869:8 *1117:100 0
10 *869:23 *2069:CLK 0
11 *869:38 *1755:B 1.54008e-05
12 *869:38 *871:25 3.23417e-05
13 *1742:A *869:23 4.77425e-05
14 *1743:A *869:38 0.000209796
15 *1756:B *1756:A 4.77425e-05
16 *1757:A1 *1756:A 0
17 *1757:A2 *1756:A 0.000144816
18 *249:8 *869:23 0
19 *249:8 *869:38 0
20 *249:14 *869:38 0.000128576
21 *256:27 *1756:A 0.000241847
22 *256:27 *869:23 0
23 *256:35 *869:38 0
24 *260:8 *1756:A 0
25 *399:12 *1756:A 0
26 *399:12 *869:8 0
27 *868:8 *869:38 0
28 *868:19 *869:23 0.000306739
*RES
1 *2069:Q *869:8 43.0448 
2 *869:8 *1756:A 42.3144 
3 *869:8 *869:23 22.86 
4 *869:23 *1741:A 20 
5 *869:23 *869:38 43.168 
6 *869:38 *1770:A1 20 
*END

*D_NET *870 0.00191331
*CONN
*I *1740:A I *D sg13g2_inv_1
*I *2070:Q O *D sg13g2_dfrbpq_1
*CAP
1 *1740:A 5.83524e-05
2 *2070:Q 0.000623858
3 *870:8 0.00068221
4 *1771:A *870:8 0
5 *1772:S *1740:A 0
6 *247:8 *870:8 0.000183
7 *252:12 *870:8 0.000181396
8 *310:14 *870:8 0
9 *844:107 *870:8 0.000184493
10 *854:10 *870:8 0
*RES
1 *2070:Q *870:8 46.424 
2 *870:8 *1740:A 40.4576 
*END

*D_NET *871 0.00340931
*CONN
*I *1770:B1 I *D sg13g2_a22oi_1
*I *1755:B I *D sg13g2_nand2_1
*I *1747:A I *D sg13g2_inv_1
*I *2071:Q O *D sg13g2_dfrbpq_1
*CAP
1 *1770:B1 0
2 *1755:B 0.00028241
3 *1747:A 0
4 *2071:Q 0.000750225
5 *871:25 0.000512148
6 *871:10 0.000979963
7 *871:10 *2077:CLK 0
8 *1755:A *1755:B 0
9 *1771:C *1755:B 4.78521e-05
10 *1771:C *871:25 8.00842e-05
11 *2077:RESET_B *871:10 0
12 *249:8 *1755:B 8.03692e-05
13 *249:14 *871:25 0.00018128
14 *252:26 *871:25 0.000447241
15 *252:28 *1755:B 0
16 *253:8 *871:25 0
17 *854:10 *871:10 0
18 *869:38 *1755:B 1.54008e-05
19 *869:38 *871:25 3.23417e-05
*RES
1 *2071:Q *871:10 46.9608 
2 *871:10 *1747:A 40 
3 *871:10 *871:25 22.9304 
4 *871:25 *1755:B 22.5608 
5 *871:25 *1770:B1 20 
*END

*D_NET *872 0.00141752
*CONN
*I *1748:B I *D sg13g2_xnor2_1
*I *2067:Q O *D sg13g2_dfrbpq_1
*CAP
1 *1748:B 0.000161355
2 *2067:Q 0.000379469
3 *872:8 0.000540824
4 *1748:B *873:33 0.000240551
5 *1748:B *873:50 1.54008e-05
6 *1748:B *1117:78 0
7 *2128:A *872:8 0
8 *255:10 *1748:B 7.99179e-05
9 *401:12 *872:8 0
*RES
1 *2067:Q *872:8 43.256 
2 *872:8 *1748:B 41.3816 
*END

*D_NET *873 0.011759
*CONN
*I *1772:A1 I *D sg13g2_mux2_1
*I *1674:A0 I *D sg13g2_mux2_1
*I *1748:A I *D sg13g2_xnor2_1
*I *2067:D I *D sg13g2_dfrbpq_1
*I *2065:Q O *D sg13g2_dfrbpq_1
*CAP
1 *1772:A1 0
2 *1674:A0 0
3 *1748:A 0
4 *2067:D 0
5 *2065:Q 0.000157209
6 *873:68 0.000439569
7 *873:60 0.000554402
8 *873:56 0.00159222
9 *873:50 0.00188729
10 *873:33 0.00067066
11 *873:22 0.0002612
12 *873:8 0.000679164
13 *873:8 *2072:RESET_B 0
14 *873:8 *2072:CLK 0
15 *873:22 *2072:RESET_B 0
16 *873:22 *2121:A 0
17 *873:22 *925:12 0
18 *873:22 *1095:33 0.000129078
19 *873:22 *1100:20 0.000234758
20 *873:33 *2072:RESET_B 6.97393e-05
21 *873:33 *1095:16 0
22 *873:33 *1117:78 0
23 *873:50 *1095:12 0.000128439
24 *873:50 *1095:16 0
25 *873:56 *2070:CLK 0.00120482
26 *873:56 *2249:A 0.000304677
27 *873:56 *937:38 0
28 *873:56 *937:62 0
29 *873:60 *875:16 4.75265e-05
30 *873:68 *1674:A1 0.000161763
31 *873:68 *875:8 4.77425e-05
32 *873:68 *875:16 0.00130548
33 *873:68 *937:62 0.000501719
34 *1674:S *873:68 0
35 *1748:B *873:33 0.000240551
36 *1748:B *873:50 1.54008e-05
37 *1992:D *873:60 4.75723e-05
38 *2047:RESET_B *873:50 0.000240669
39 *2047:RESET_B *873:56 0
40 *147:8 *873:68 0
41 *706:28 *873:50 0.000175986
42 *721:16 *873:50 0.000661398
43 *721:70 *873:68 0
44 *844:107 *873:60 0
*RES
1 *2065:Q *873:8 21.3112 
2 *873:8 *873:22 42.9216 
3 *873:22 *2067:D 20 
4 *873:8 *873:33 2.508 
5 *873:33 *1748:A 20 
6 *873:33 *873:50 44.7608 
7 *873:50 *873:56 33.4024 
8 *873:56 *873:60 21.012 
9 *873:60 *873:68 46.5384 
10 *873:68 *1674:A0 20 
11 *873:60 *1772:A1 20 
*END

*D_NET *874 0.00198693
*CONN
*I *2065:D I *D sg13g2_dfrbpq_1
*I *2066:Q O *D sg13g2_dfrbpq_1
*CAP
1 *2065:D 0.000993463
2 *2066:Q 0.000993463
3 *2065:D *1286:A 0
4 *2065:D *2073:D 0
5 *2065:D *2121:A 0
6 *2065:D *1095:71 0
7 *2083:D *2065:D 0
8 *2084:RESET_B *2065:D 0
*RES
1 *2066:Q *2065:D 49.1432 
*END

*D_NET *875 0.00323019
*CONN
*I *1674:A1 I *D sg13g2_mux2_1
*I *1772:A0 I *D sg13g2_mux2_1
*I *1992:Q O *D sg13g2_dfrbpq_1
*CAP
1 *1674:A1 0.000105494
2 *1772:A0 0
3 *1992:Q 0.00022492
4 *875:16 0.000463244
5 *875:8 0.000793658
6 *875:16 *1342:A1 0
7 *440:8 *875:16 0
8 *441:8 *875:16 0
9 *721:70 *875:8 0
10 *844:107 *875:16 8.03692e-05
11 *873:60 *875:16 4.75265e-05
12 *873:68 *1674:A1 0.000161763
13 *873:68 *875:8 4.77425e-05
14 *873:68 *875:16 0.00130548
*RES
1 *1992:Q *875:8 22.0504 
2 *875:8 *875:16 46.0368 
3 *875:16 *1772:A0 20 
4 *875:8 *1674:A1 21.012 
*END

*D_NET *876 0.000161144
*CONN
*I *2061:D I *D sg13g2_dfrbpq_1
*I *1853:Y O *D sg13g2_nor2_1
*CAP
1 *2061:D 0
2 *1853:Y 8.0572e-05
3 *876:8 8.0572e-05
4 *876:8 *883:12 0
5 *392:10 *876:8 0
*RES
1 *1853:Y *876:8 40.7216 
2 *876:8 *2061:D 40 
*END

*D_NET *877 0.000350833
*CONN
*I *2062:D I *D sg13g2_dfrbpq_1
*I *1852:Y O *D sg13g2_nor2_1
*CAP
1 *2062:D 5.95841e-05
2 *1852:Y 0.000115832
3 *877:8 0.000175416
4 *2062:D *2061:CLK 0
5 *2062:D *2062:RESET_B 0
6 *877:8 *936:70 0
7 *877:8 *1147:91 0
8 *507:59 *877:8 0
*RES
1 *1852:Y *877:8 41.144 
2 *877:8 *2062:D 40.4576 
*END

*D_NET *878 0.00226601
*CONN
*I *2063:D I *D sg13g2_dfrbpq_1
*I *1780:A I *D sg13g2_nand3_1
*I *1774:Y O *D sg13g2_a21oi_1
*CAP
1 *2063:D 0.000159598
2 *1780:A 0.000364318
3 *1774:Y 0.000407717
4 *878:10 0.000931632
5 *1780:A *1147:77 0
6 *2063:D *2063:RESET_B 0
7 *878:10 *2063:RESET_B 0
8 *1774:A1 *878:10 4.79124e-05
9 *1774:B1 *878:10 8.01938e-05
10 *264:8 *878:10 0
11 *267:38 *878:10 0
12 *385:24 *878:10 0
13 *387:36 *2063:D 0.000274644
14 *392:16 *1780:A 0
*RES
1 *1774:Y *878:10 43.2912 
2 *878:10 *1780:A 42.684 
3 *878:10 *2063:D 41.5664 
*END

*D_NET *879 0.00219475
*CONN
*I *1780:B I *D sg13g2_nand3_1
*I *2064:D I *D sg13g2_dfrbpq_1
*I *1766:Y O *D sg13g2_a21oi_1
*CAP
1 *1780:B 0
2 *2064:D 0.000479038
3 *1766:Y 0.000187095
4 *879:10 0.000666133
5 *2064:D *897:8 0
6 *2064:D *936:21 0
7 *2064:D *936:34 0
8 *2064:D *1147:21 0.000714417
9 *1662:B *2064:D 0
10 *1766:A1 *879:10 1.00105e-05
11 *1766:A2 *879:10 0
12 *1853:A *879:10 4.78356e-05
13 *267:8 *879:10 0
14 *267:14 *879:10 1.54008e-05
15 *267:38 *879:10 7.48178e-05
16 *277:10 *2064:D 0
17 *277:10 *879:10 0
18 *278:8 *2064:D 0
19 *278:8 *879:10 0
*RES
1 *1766:Y *879:10 41.8392 
2 *879:10 *2064:D 45.06 
3 *879:10 *1780:B 40 
*END

*D_NET *880 0.000553007
*CONN
*I *1760:B I *D sg13g2_nand2_1
*I *1775:A I *D sg13g2_inv_1
*I *2061:Q O *D sg13g2_dfrbpq_1
*CAP
1 *1760:B 4.18709e-05
2 *1775:A 0.000116309
3 *2061:Q 0.000118323
4 *880:6 0.000276504
5 *1760:B *936:85 0
6 *880:6 *936:85 0
7 *273:24 *1775:A 0
8 *273:24 *880:6 0
*RES
1 *2061:Q *880:6 21.012 
2 *880:6 *1775:A 21.1792 
3 *880:6 *1760:B 20.4576 
*END

*D_NET *881 0.00261022
*CONN
*I *1760:A I *D sg13g2_nand2_1
*I *1777:A_N I *D sg13g2_nand2b_1
*I *2062:Q O *D sg13g2_dfrbpq_1
*CAP
1 *1760:A 3.30993e-05
2 *1777:A_N 0.000255357
3 *2062:Q 0.000710858
4 *881:10 0.000999313
5 *1760:A *936:85 4.78195e-05
6 *1777:A_N *1106:43 0
7 *881:10 *1444:A 0
8 *881:10 *1104:97 0
9 *881:10 *1106:43 0
10 *1761:B *1777:A_N 1.54008e-05
11 *1778:B2 *1777:A_N 0
12 *262:8 *1777:A_N 0.00050063
13 *273:24 *1777:A_N 4.77425e-05
14 *507:8 *881:10 0
*RES
1 *2062:Q *881:10 46.116 
2 *881:10 *1777:A_N 42.4728 
3 *881:10 *1760:A 40.2728 
*END

*D_NET *882 0.000418901
*CONN
*I *1759:A I *D sg13g2_inv_1
*I *2063:Q O *D sg13g2_dfrbpq_1
*CAP
1 *1759:A 0.00020945
2 *2063:Q 0.00020945
3 *1759:A *2054:D 0
4 *261:8 *1759:A 0
*RES
1 *2063:Q *1759:A 41.9184 
*END

*D_NET *883 0.0028729
*CONN
*I *1763:A I *D sg13g2_inv_1
*I *1778:B1 I *D sg13g2_a22oi_1
*I *1776:A2 I *D sg13g2_a21oi_1
*I *2064:Q O *D sg13g2_dfrbpq_1
*CAP
1 *1763:A 3.01433e-05
2 *1778:B1 0.000192715
3 *1776:A2 0.000174021
4 *2064:Q 5.35192e-05
5 *883:12 0.000911626
6 *883:6 0.000628553
7 *1763:A *936:44 0
8 *883:12 *936:44 0
9 *883:12 *936:70 0
10 *883:12 *1106:43 0
11 *1766:A2 *883:6 0
12 *1773:A1 *1778:B1 0
13 *1776:A1 *1776:A2 1.54556e-05
14 *1852:A *1776:A2 0.000240405
15 *1852:A *1778:B1 0.000177142
16 *1852:B *1778:B1 0.000182322
17 *1853:A *1763:A 0
18 *1853:A *883:6 0
19 *1853:A *883:12 0
20 *1853:B *883:12 0
21 *273:24 *1776:A2 0
22 *273:24 *1778:B1 0.000106064
23 *273:24 *883:12 0.000128576
24 *276:25 *1778:B1 3.23636e-05
25 *385:24 *883:12 0
26 *392:10 *883:12 0
27 *876:8 *883:12 0
*RES
1 *2064:Q *883:6 20.5104 
2 *883:6 *883:12 24.2416 
3 *883:12 *1776:A2 41.3816 
4 *883:12 *1778:B1 42.0944 
5 *883:6 *1763:A 20.2728 
*END

*D_NET *884 0.000421044
*CONN
*I *1764:B I *D sg13g2_xnor2_1
*I *2060:Q O *D sg13g2_dfrbpq_1
*CAP
1 *1764:B 0.000202816
2 *2060:Q 0.000202816
3 *1764:B *1764:A 1.54118e-05
4 *1764:B *897:8 0
5 *1764:B *1106:21 0
*RES
1 *2060:Q *1764:B 41.6808 
*END

*D_NET *885 0.00711039
*CONN
*I *2060:D I *D sg13g2_dfrbpq_1
*I *1764:A I *D sg13g2_xnor2_1
*I *1781:A0 I *D sg13g2_mux2_1
*I *1699:A0 I *D sg13g2_mux2_1
*I *2058:Q O *D sg13g2_dfrbpq_1
*CAP
1 *2060:D 0.000127885
2 *1764:A 8.04425e-05
3 *1781:A0 0.000555751
4 *1699:A0 0.000978814
5 *2058:Q 0
6 *885:23 0.00110841
7 *885:10 0.00200741
8 *885:4 0.000684266
9 *1699:A0 *1699:A1 0
10 *1699:A0 *2027:RESET_B 0
11 *1699:A0 *2027:CLK 0
12 *1699:A0 *2078:CLK 0
13 *1699:A0 *1115:18 0.000274507
14 *1699:A0 *1115:27 0.000323855
15 *1764:A *897:8 4.77534e-05
16 *1781:A0 *2053:RESET_B 0
17 *1781:A0 *897:8 0.000566552
18 *1781:A0 *897:23 0.000161944
19 *2060:D *936:6 0
20 *2060:D *936:8 0.000177399
21 *885:10 *936:8 0
22 *885:23 *1147:21 0
23 *1699:S *1699:A0 0
24 *1764:B *1764:A 1.54118e-05
25 *1781:S *1781:A0 0
26 *278:8 *885:23 0
27 *404:36 *1699:A0 0
28 *716:8 *1699:A0 0
29 *851:69 *885:10 0
30 *851:77 *885:10 0
31 *859:8 *885:10 0
32 *859:8 *885:23 0
*RES
1 *2058:Q *885:4 20 
2 *885:4 *885:10 24.3736 
3 *885:10 *1699:A0 48.3336 
4 *885:10 *885:23 4.1008 
5 *885:23 *1781:A0 44.708 
6 *885:23 *1764:A 40.7832 
7 *885:4 *2060:D 21.7336 
*END

*D_NET *886 0.00131147
*CONN
*I *2058:D I *D sg13g2_dfrbpq_1
*I *2059:Q O *D sg13g2_dfrbpq_1
*CAP
1 *2058:D 0.000154297
2 *2059:Q 0.000381067
3 *886:8 0.000535364
4 *2058:D *2011:CLK 0
5 *886:8 *1106:27 0
6 *1724:B *2058:D 0
7 *851:43 *886:8 0
8 *851:56 *2058:D 0.000240745
*RES
1 *2059:Q *886:8 42.8336 
2 *886:8 *2058:D 41.3816 
*END

*D_NET *887 0.00408783
*CONN
*I *1781:A1 I *D sg13g2_mux2_1
*I *1699:A1 I *D sg13g2_mux2_1
*I *1993:Q O *D sg13g2_dfrbpq_1
*CAP
1 *1781:A1 0
2 *1699:A1 0.000872683
3 *1993:Q 0.000451
4 *887:12 0.00132368
5 *1699:A1 *1115:18 1.54556e-05
6 *1699:A1 *1115:27 0.00033931
7 *887:12 *1993:CLK 0
8 *887:12 *897:27 0.000177295
9 *887:12 *938:54 0
10 *887:12 *938:60 0.000130055
11 *887:12 *938:71 0.000778344
12 *1699:A0 *1699:A1 0
13 *149:12 *887:12 0
14 *281:8 *887:12 0
15 *387:36 *887:12 0
16 *404:36 *1699:A1 0
17 *856:8 *1699:A1 0
18 *857:8 *1699:A1 0
*RES
1 *1993:Q *887:12 45.3592 
2 *887:12 *1699:A1 47.1192 
3 *887:12 *1781:A1 40 
*END

*D_NET *888 0.000701316
*CONN
*I *2054:D I *D sg13g2_dfrbpq_1
*I *1681:Y O *D sg13g2_a21oi_1
*CAP
1 *2054:D 0.000350658
2 *1681:Y 0.000350658
3 *2054:D *2055:RESET_B 0
4 *2054:D *2055:D 0
5 *1759:A *2054:D 0
*RES
1 *1681:Y *2054:D 43.3968 
*END

*D_NET *889 0.000277558
*CONN
*I *2055:D I *D sg13g2_dfrbpq_1
*I *1690:Y O *D sg13g2_a21oi_1
*CAP
1 *2055:D 0.000138779
2 *1690:Y 0.000138779
3 *2055:D *2055:RESET_B 0
4 *2054:D *2055:D 0
*RES
1 *1690:Y *2055:D 41.3816 
*END

*D_NET *890 0.00136553
*CONN
*I *2056:D I *D sg13g2_dfrbpq_1
*I *1785:A I *D sg13g2_nand3_1
*I *1694:Y O *D sg13g2_a21oi_1
*CAP
1 *2056:D 0.000273695
2 *1785:A 0.000168218
3 *1694:Y 0.000240851
4 *890:10 0.000441913
5 *890:8 0.000240851
6 *1785:A *1785:B 0
7 *1785:A *2056:RESET_B 0
8 *2056:D *2056:RESET_B 0
9 *1785:C *1785:A 0
10 *214:22 *1785:A 0
11 *219:8 *890:8 0
12 *280:16 *890:8 0
13 *385:24 *1785:A 0
14 *385:24 *2056:D 0
15 *517:16 *2056:D 0
16 *831:32 *890:8 0
17 *833:38 *890:8 0
*RES
1 *1694:Y *890:8 41.9888 
2 *890:8 *890:10 20 
3 *890:10 *1785:A 21.3816 
4 *890:10 *2056:D 22.42 
*END

*D_NET *891 0.00174787
*CONN
*I *1785:B I *D sg13g2_nand3_1
*I *2057:D I *D sg13g2_dfrbpq_1
*I *1783:Y O *D sg13g2_a21oi_1
*CAP
1 *1785:B 0.000105718
2 *2057:D 0.00032212
3 *1783:Y 6.7042e-05
4 *891:8 0.00049488
5 *1785:B *2056:RESET_B 0
6 *1785:C *1785:B 1.54556e-05
7 *1785:A *1785:B 0
8 *214:22 *891:8 0
9 *280:16 *891:8 0
10 *281:8 *2057:D 0.000500629
11 *385:24 *1785:B 0
12 *387:36 *2057:D 0
13 *392:24 *2057:D 0.000242023
*RES
1 *1783:Y *891:8 40.7216 
2 *891:8 *2057:D 43.5816 
3 *891:8 *1785:B 41.0296 
*END

*D_NET *892 0.00450597
*CONN
*I *1676:B I *D sg13g2_nand2_1
*I *1688:A_N I *D sg13g2_nand2b_1
*I *1784:A2 I *D sg13g2_o21ai_1
*I *1681:A2 I *D sg13g2_a21oi_1
*I *2054:Q O *D sg13g2_dfrbpq_1
*CAP
1 *1676:B 4.13729e-05
2 *1688:A_N 3.99338e-05
3 *1784:A2 4.72558e-05
4 *1681:A2 0.000195812
5 *2054:Q 0.000630799
6 *892:14 0.000333442
7 *892:12 0.000216271
8 *892:10 0.000758135
9 *1676:B *1139:26 4.77425e-05
10 *1681:A2 *1139:30 0.000237767
11 *892:10 *1500:A2 0
12 *892:10 *1926:CLK 0.0005381
13 *892:10 *893:10 0.000400572
14 *892:10 *1139:17 0
15 *892:10 *1139:26 0
16 *892:10 *1139:30 7.48842e-05
17 *892:12 *1139:30 0.000287017
18 *892:14 *1139:30 0.000287056
19 *1681:A1 *1681:A2 0.000209637
20 *1681:A1 *1784:A2 0
21 *1689:B *1688:A_N 8.00842e-05
22 *1690:A1 *1681:A2 0
23 *1690:A1 *1784:A2 8.00842e-05
*RES
1 *2054:Q *892:10 46.5648 
2 *892:10 *892:12 1.144 
3 *892:12 *892:14 1.144 
4 *892:14 *1681:A2 42.1296 
5 *892:14 *1784:A2 40.4576 
6 *892:12 *1688:A_N 40.4576 
7 *892:10 *1676:B 40.4576 
*END

*D_NET *893 0.00156941
*CONN
*I *1687:A I *D sg13g2_inv_1
*I *1676:A I *D sg13g2_nand2_1
*I *2055:Q O *D sg13g2_dfrbpq_1
*CAP
1 *1687:A 0
2 *1676:A 4.8862e-05
3 *2055:Q 0.000454406
4 *893:14 0.000130015
5 *893:10 0.000535559
6 *893:10 *1500:A2 0
7 *1926:D *893:10 0
8 *523:16 *893:10 0
9 *892:10 *893:10 0.000400572
*RES
1 *2055:Q *893:10 44.2944 
2 *893:10 *893:14 20.6424 
3 *893:14 *1676:A 20.5104 
4 *893:14 *1687:A 20 
*END

*D_NET *894 0.000461538
*CONN
*I *1675:A I *D sg13g2_inv_1
*I *2056:Q O *D sg13g2_dfrbpq_1
*CAP
1 *1675:A 0.000230769
2 *2056:Q 0.000230769
*RES
1 *2056:Q *1675:A 42.1912 
*END

*D_NET *895 0.00211506
*CONN
*I *1692:A I *D sg13g2_inv_1
*I *1678:B I *D sg13g2_nand2_1
*I *2057:Q O *D sg13g2_dfrbpq_1
*CAP
1 *1692:A 0
2 *1678:B 0
3 *2057:Q 0.00025439
4 *895:27 0.000266194
5 *895:8 0.000520584
6 *895:8 *2056:CLK 0.000339398
7 *895:27 *2056:CLK 9.67489e-05
8 *1681:A1 *895:8 0.000306963
9 *1693:A2 *895:8 0
10 *1694:A1 *895:27 2.21754e-05
11 *210:14 *895:8 0
12 *211:36 *895:27 0
13 *214:14 *895:8 0
14 *214:14 *895:27 1.54008e-05
15 *214:35 *895:27 6.42754e-05
16 *218:8 *895:27 4.77425e-05
17 *280:16 *895:27 0.000181192
*RES
1 *2057:Q *895:8 22.6048 
2 *895:8 *1678:B 20 
3 *895:8 *895:27 42.6048 
4 *895:27 *1692:A 20 
*END

*D_NET *896 0.000994909
*CONN
*I *1679:B I *D sg13g2_xnor2_1
*I *2053:Q O *D sg13g2_dfrbpq_1
*CAP
1 *1679:B 8.10276e-05
2 *2053:Q 0.000247989
3 *896:10 0.000329016
4 *1679:B *897:23 0.000112689
5 *1679:B *1106:15 0
6 *896:10 *938:71 0
7 *213:10 *896:10 0
8 *387:36 *1679:B 0.000144562
9 *392:24 *896:10 7.96248e-05
*RES
1 *2053:Q *896:10 41.8128 
2 *896:10 *1679:B 40.8272 
*END

*D_NET *897 0.00625032
*CONN
*I *1679:A I *D sg13g2_xnor2_1
*I *1786:A0 I *D sg13g2_mux2_1
*I *1730:A0 I *D sg13g2_mux2_1
*I *2053:D I *D sg13g2_dfrbpq_1
*I *2051:Q O *D sg13g2_dfrbpq_1
*CAP
1 *1679:A 0
2 *1786:A0 5.39239e-05
3 *1730:A0 0.000382196
4 *2053:D 0
5 *2051:Q 0.000945926
6 *897:27 0.000904663
7 *897:23 0.00103249
8 *897:8 0.00150988
9 *1730:A0 *1730:A1 0.000274769
10 *1730:A0 *1786:A1 0
11 *1730:A0 *1106:15 0
12 *1786:A0 *1786:A1 8.02379e-05
13 *897:8 *2053:RESET_B 0
14 *897:8 *1100:64 0
15 *897:8 *1106:15 0
16 *897:8 *1106:21 0
17 *897:23 *2053:RESET_B 0
18 *897:23 *1106:15 0
19 *897:27 *1106:15 0
20 *1285:A *897:8 0
21 *1555:B *1730:A0 0
22 *1662:B *897:8 0
23 *1679:B *897:23 0.000112689
24 *1764:A *897:8 4.77534e-05
25 *1764:B *897:8 0
26 *1781:A0 *897:8 0.000566552
27 *1781:A0 *897:23 0.000161944
28 *1781:S *897:8 0
29 *1786:S *897:27 0
30 *2064:D *897:8 0
31 *387:36 *897:27 0
32 *718:84 *1730:A0 0
33 *887:12 *897:27 0.000177295
*RES
1 *2051:Q *897:8 28.3336 
2 *897:8 *2053:D 20 
3 *897:8 *897:23 45.544 
4 *897:23 *897:27 4.0832 
5 *897:27 *1730:A0 23.5552 
6 *897:27 *1786:A0 20.7568 
7 *897:23 *1679:A 20 
*END

*D_NET *898 0.00019813
*CONN
*I *2051:D I *D sg13g2_dfrbpq_1
*I *2052:Q O *D sg13g2_dfrbpq_1
*CAP
1 *2051:D 9.90649e-05
2 *2052:Q 9.90649e-05
3 *2051:D *1147:35 0
*RES
1 *2052:Q *2051:D 40.9944 
*END

*D_NET *899 0.00228314
*CONN
*I *1786:A1 I *D sg13g2_mux2_1
*I *1730:A1 I *D sg13g2_mux2_1
*I *1994:Q O *D sg13g2_dfrbpq_1
*CAP
1 *1786:A1 0.000170746
2 *1730:A1 0.000240862
3 *1994:Q 0.000115091
4 *899:10 0.000526699
5 *1555:B *1730:A1 0
6 *1555:B *1786:A1 0.000176405
7 *1662:C *899:10 0
8 *1730:A0 *1730:A1 0.000274769
9 *1730:A0 *1786:A1 0
10 *1786:A0 *1786:A1 8.02379e-05
11 *387:36 *1786:A1 0.00030598
12 *517:8 *899:10 0
13 *831:32 *1730:A1 0.000181608
14 *831:32 *899:10 0.000210737
*RES
1 *1994:Q *899:10 41.2056 
2 *899:10 *1730:A1 42.288 
3 *899:10 *1786:A1 41.7512 
*END

*D_NET *904 0.011403
*CONN
*I *2081:RESET_B I *D sg13g2_dfrbpq_1
*I *2082:RESET_B I *D sg13g2_dfrbpq_1
*I *2079:RESET_B I *D sg13g2_dfrbpq_1
*I *2095:A I *D sg13g2_buf_1
*I *2080:RESET_B I *D sg13g2_dfrbpq_1
*I *2047:Q O *D sg13g2_dfrbpq_1
*CAP
1 *2081:RESET_B 0
2 *2082:RESET_B 0.00045645
3 *2079:RESET_B 0.00013185
4 *2095:A 0.000558165
5 *2080:RESET_B 0.000905658
6 *2047:Q 0.000448973
7 *904:35 0.000854725
8 *904:22 0.00107037
9 *904:20 0.00131965
10 *904:16 0.00225659
11 *904:12 0.000812151
12 *904:8 0.000780638
13 *2082:RESET_B *940:61 0
14 *904:8 *910:33 0
15 *904:8 *910:37 0
16 *904:12 *2081:CLK 0
17 *904:12 *2255:A 0
18 *904:20 *2038:RESET_B 6.48152e-05
19 *904:20 *910:25 0.000274622
20 *904:20 *1099:14 0.000192947
21 *904:20 *1099:22 0.000274769
22 *904:20 *1099:53 0.000420527
23 *1353:A *904:35 0
24 *1709:A *2095:A 3.84678e-05
25 *1715:A2 *2095:A 0
26 *1715:B1 *2095:A 0
27 *1718:A2 *2095:A 0
28 *1732:A1 *904:20 0
29 *1732:A2 *904:20 0
30 *2038:D *904:20 0
31 *2044:D *904:20 0
32 *2081:D *904:12 0
33 *362:6 *2095:A 0
34 *362:63 *2095:A 0
35 *448:12 *904:8 0
36 *715:18 *2080:RESET_B 0
37 *715:22 *2080:RESET_B 0
38 *716:19 *904:16 0
39 *716:19 *904:20 0.000242281
40 *717:26 *2082:RESET_B 0.000235556
41 *825:29 *904:20 0
42 *827:31 *2095:A 6.37886e-05
43 *828:19 *2080:RESET_B 0
44 *828:38 *2080:RESET_B 0
45 *830:10 *2082:RESET_B 0
46 *830:10 *904:16 0
47 *832:12 *904:8 0
48 *832:46 *904:8 0
49 *836:10 *2082:RESET_B 0
50 *843:25 *904:35 0
51 *849:10 *904:20 0
*RES
1 *2047:Q *904:8 44.312 
2 *904:8 *904:12 22.86 
3 *904:12 *904:16 23.8896 
4 *904:16 *904:20 31.5456 
5 *904:20 *904:22 20 
6 *904:22 *2080:RESET_B 47.0928 
7 *904:22 *904:35 1.5664 
8 *904:35 *2095:A 45.3064 
9 *904:35 *2079:RESET_B 41.1792 
10 *904:16 *2082:RESET_B 44.1008 
11 *904:12 *2081:RESET_B 20 
*END

*D_NET *943 0.00289064
*CONN
*I *1255:A I *D sg13g2_inv_1
*I *1870:Q O *D sg13g2_dfrbpq_1
*CAP
1 *1255:A 0
2 *1870:Q 0.00108693
3 *943:14 0.000253528
4 *943:8 0.00134046
5 *943:8 *1256:A 0.000209725
6 *943:8 *1808:A 0
7 *943:8 *2007:RESET_B 0
8 *943:8 *1112:90 0
9 *943:8 *1146:67 0
10 *943:8 *1146:82 0
11 *943:14 *1808:A 0
12 *943:14 *1102:8 0
13 *2007:D *943:8 0
14 *2278:A *943:8 0
15 *509:21 *943:14 0
*RES
1 *1870:Q *943:8 30.1816 
2 *943:8 *943:14 42.6224 
3 *943:14 *1255:A 20 
*END

*D_NET *944 0.000706639
*CONN
*I *1256:A I *D sg13g2_inv_1
*I *1871:Q O *D sg13g2_dfrbpq_1
*CAP
1 *1256:A 0.000131397
2 *1871:Q 0.00011706
3 *944:8 0.000248457
4 *2278:A *1256:A 0
5 *365:8 *944:8 0
6 *943:8 *1256:A 0.000209725
*RES
1 *1871:Q *944:8 41.144 
2 *944:8 *1256:A 41.1968 
*END

*D_NET *945 0.0027519
*CONN
*I *1657:A1 I *D sg13g2_mux2_1
*I *1280:B I *D sg13g2_nor2_1
*I *1872:Q O *D sg13g2_dfrbpq_1
*CAP
1 *1657:A1 0.000181833
2 *1280:B 0.000154269
3 *1872:Q 0.000545908
4 *945:8 0.00088201
5 *1280:B *1661:B1 7.48842e-05
6 *1280:B *951:46 0
7 *1280:B *1104:62 0
8 *1280:B *1163:20 4.77425e-05
9 *1657:A1 *1901:RESET_B 0
10 *1657:A1 *1104:62 0.00017724
11 *945:8 *1104:68 0.000399906
12 *945:8 *1107:39 0
13 *1649:A *1657:A1 0.000272774
14 *197:46 *1280:B 0
15 *656:10 *1657:A1 1.53311e-05
*RES
1 *1872:Q *945:8 46.2128 
2 *945:8 *1280:B 41.2056 
3 *945:8 *1657:A1 41.8392 
*END

*D_NET *946 0.00346775
*CONN
*I *1793:A1 I *D sg13g2_mux2_1
*I *1274:A2 I *D sg13g2_o21ai_1
*I *1869:Q O *D sg13g2_dfrbpq_1
*CAP
1 *1793:A1 0
2 *1274:A2 0.000536808
3 *1869:Q 0.000346541
4 *946:10 0.000883348
5 *1274:A2 *1274:A1 1.54556e-05
6 *1274:A2 *1869:CLK 0
7 *1274:A2 *1104:23 7.51285e-05
8 *1274:A2 *1104:29 0.000288587
9 *946:10 *1104:12 0
10 *946:10 *1104:23 0.000479363
11 *946:10 *1107:30 0
12 *946:10 *1144:26 0
13 *1793:S *1274:A2 0.000235141
14 *1793:S *946:10 0.000607373
15 *1794:A *1274:A2 0
16 *2297:A *946:10 0
17 *153:10 *1274:A2 0
18 *383:10 *1274:A2 0
19 *510:18 *1274:A2 0
20 *657:14 *1274:A2 0
*RES
1 *1869:Q *946:10 43.9776 
2 *946:10 *1274:A2 44.9544 
3 *946:10 *1793:A1 40 
*END

*D_NET *947 0.000155911
*CONN
*I *1258:A I *D sg13g2_inv_1
*I *1873:Q O *D sg13g2_dfrbpq_1
*CAP
1 *1258:A 7.79557e-05
2 *1873:Q 7.79557e-05
3 *1258:A *1163:20 0
4 *507:27 *1258:A 0
*RES
1 *1873:Q *1258:A 40.7832 
*END

*D_NET *948 0.00021489
*CONN
*I *1259:A I *D sg13g2_inv_1
*I *1874:Q O *D sg13g2_dfrbpq_1
*CAP
1 *1259:A 0.000107445
2 *1874:Q 0.000107445
3 *1652:B1 *1259:A 0
4 *197:29 *1259:A 0
5 *368:8 *1259:A 0
*RES
1 *1874:Q *1259:A 40.968 
*END

*D_NET *949 0.000914587
*CONN
*I *1279:A I *D sg13g2_inv_1
*I *1875:Q O *D sg13g2_dfrbpq_1
*CAP
1 *1279:A 0
2 *1875:Q 0.000457294
3 *949:10 0.000457294
4 *1588:A1 *949:10 0
5 *507:25 *949:10 0
*RES
1 *1875:Q *949:10 44.2152 
2 *949:10 *1279:A 40 
*END

*D_NET *950 0.000318889
*CONN
*I *1272:A I *D sg13g2_inv_1
*I *1868:Q O *D sg13g2_dfrbpq_1
*CAP
1 *1272:A 0.000159445
2 *1868:Q 0.000159445
3 *1650:B1 *1272:A 0
*RES
1 *1868:Q *1272:A 41.1968 
*END

*D_NET *951 0.00678492
*CONN
*I *1281:A1 I *D sg13g2_a21oi_1
*I *1273:B I *D sg13g2_nand2_1
*I *1274:A1 I *D sg13g2_o21ai_1
*I *1280:A I *D sg13g2_nor2_1
*I *1257:B1 I *D sg13g2_a21oi_1
*I *1260:A I *D sg13g2_inv_1
*I *2003:Q O *D sg13g2_dfrbpq_1
*CAP
1 *1281:A1 0.000136978
2 *1273:B 8.11281e-05
3 *1274:A1 0.000315916
4 *1280:A 0
5 *1257:B1 0.00023109
6 *1260:A 0.000384885
7 *2003:Q 4.29593e-05
8 *951:59 0.000716366
9 *951:55 0.000759592
10 *951:46 0.000739176
11 *951:16 0.000934272
12 *951:10 0.00075418
13 *951:8 4.29593e-05
14 *1257:B1 *1873:CLK 1.54008e-05
15 *1257:B1 *2234:A 0
16 *1260:A *1112:75 0
17 *1260:A *1144:32 0.000499812
18 *951:8 *1112:75 0
19 *951:16 *1112:90 2.20248e-05
20 *951:16 *1144:32 7.48842e-05
21 *951:16 *1144:47 0.000157786
22 *951:46 *1104:62 0
23 *951:46 *1163:20 0
24 *951:55 *1144:26 0
25 *1257:A1 *1257:B1 7.98201e-05
26 *1273:A *1273:B 0
27 *1274:A2 *1274:A1 1.54556e-05
28 *1280:B *951:46 0
29 *1281:A2 *1281:A1 7.99037e-05
30 *1281:B1 *1281:A1 0.000240776
31 *1281:B1 *951:55 0
32 *1649:B *951:55 0
33 *1650:B1 *1281:A1 0
34 *1650:B1 *951:55 0
35 *1657:S *951:8 0
36 *1661:A1 *1257:B1 0
37 *1661:A1 *951:46 0
38 *1661:A2 *951:55 0
39 *1795:A2 *1273:B 0.000112558
40 *197:46 *951:59 0
41 *197:62 *1273:B 1.54008e-05
42 *367:8 *1260:A 0
43 *367:18 *1260:A 0
44 *369:8 *1260:A 7.55443e-05
45 *382:8 *1274:A1 0
46 *383:10 *1274:A1 0
47 *389:10 *951:55 0.000143231
48 *510:18 *1274:A1 0.000112826
49 *510:59 *1274:A1 0
50 *510:59 *951:59 0
*RES
1 *2003:Q *951:8 40.2992 
2 *951:8 *951:10 20 
3 *951:10 *951:16 23.2384 
4 *951:16 *1260:A 43.8896 
5 *951:16 *1257:B1 41.8656 
6 *951:10 *951:46 43.8544 
7 *951:46 *1280:A 20 
8 *951:46 *951:55 2.8424 
9 *951:55 *951:59 22.8336 
10 *951:59 *1274:A1 42.6312 
11 *951:59 *1273:B 40.6424 
12 *951:55 *1281:A1 21.3816 
*END

*D_NET *952 0.0011324
*CONN
*I *1703:B I *D sg13g2_nor2_1
*I *1803:A I *D sg13g2_inv_1
*I *1866:Q O *D sg13g2_dfrbpq_1
*CAP
1 *1703:B 0.000115075
2 *1803:A 0.000421117
3 *1866:Q 3.00104e-05
4 *952:8 0.000566202
5 *1703:B *1864:CLK 0
6 *1703:B *1126:8 0
7 *1803:A *1229:B 0
8 *1803:A *1866:CLK 0
9 *1803:A *1126:8 0
10 *1703:A *1703:B 0
11 *161:8 *1703:B 0
12 *506:35 *1703:B 0
13 *506:35 *1803:A 0
14 *506:35 *952:8 0
15 *506:44 *1803:A 0
*RES
1 *1866:Q *952:8 40.2728 
2 *952:8 *1803:A 43.8632 
3 *952:8 *1703:B 41.2056 
*END

*D_NET *953 0.00220292
*CONN
*I *1682:A0 I *D sg13g2_mux2_1
*I *1619:A I *D sg13g2_nor2_1
*I *1885:Q O *D sg13g2_dfrbpq_1
*CAP
1 *1682:A0 0.000251037
2 *1619:A 0.000810383
3 *1885:Q 0
4 *953:6 0.00106142
5 *1619:A *1619:B 0
6 *1619:A *1885:RESET_B 0
7 *1619:A *989:18 0
8 *1619:A *1110:23 0
9 *1619:A *1110:86 0
10 *1619:A *1134:30 0
11 *1619:A *1135:16 0
12 *1682:A0 *989:18 8.00842e-05
13 *1682:A0 *1110:86 0
14 *1530:A1 *1619:A 0
15 *1885:D *1619:A 0
16 *543:8 *1619:A 0
17 *661:12 *1619:A 0
18 *724:51 *1619:A 0
*RES
1 *1885:Q *953:6 40 
2 *953:6 *1619:A 46.6704 
3 *953:6 *1682:A0 42.024 
*END

*D_NET *954 0.00282287
*CONN
*I *1673:A0 I *D sg13g2_mux2_1
*I *1617:A I *D sg13g2_nor2_1
*I *1886:Q O *D sg13g2_dfrbpq_1
*CAP
1 *1673:A0 0.000417075
2 *1617:A 0
3 *1886:Q 0.00016504
4 *954:16 0.000244413
5 *954:8 0.000826528
6 *1673:A0 *1148:67 0
7 *954:8 *1148:67 0
8 *954:16 *1131:23 0
9 *1524:A2 *1673:A0 0.000597923
10 *1887:D *954:8 0
11 *2180:A *1673:A0 0
12 *539:12 *954:8 0
13 *539:18 *954:16 0.00012816
14 *540:8 *954:16 0
15 *723:12 *954:16 0.000395897
16 *723:25 *954:16 4.78356e-05
*RES
1 *1886:Q *954:8 21.3112 
2 *954:8 *954:16 42.8952 
3 *954:16 *1617:A 20 
4 *954:8 *1673:A0 23.8984 
*END

*D_NET *955 0.00157282
*CONN
*I *1672:A0 I *D sg13g2_mux2_1
*I *1615:A I *D sg13g2_nor2_1
*I *1887:Q O *D sg13g2_dfrbpq_1
*CAP
1 *1672:A0 3.0198e-05
2 *1615:A 0.000266271
3 *1887:Q 0.000217029
4 *955:10 0.000513498
5 *1615:A *1523:A 0
6 *1615:A *1615:B 0.000128662
7 *1615:A *1672:A1 0
8 *1615:A *2096:A 0
9 *955:10 *1672:A1 0
10 *1672:S *1615:A 0.000235556
11 *515:57 *1615:A 0.000181608
12 *601:8 *1615:A 0
*RES
1 *1887:Q *955:10 42.1032 
2 *955:10 *1615:A 43.1064 
3 *955:10 *1672:A0 40.2728 
*END

*D_NET *956 0.00220658
*CONN
*I *1613:A I *D sg13g2_nor2_1
*I *1237:A0 I *D sg13g2_mux2_1
*I *1888:Q O *D sg13g2_dfrbpq_1
*CAP
1 *1613:A 0.000216681
2 *1237:A0 0
3 *1888:Q 0.000798357
4 *956:10 0.00101504
5 *1613:A *1613:B 0.000128663
6 *1613:A *1888:RESET_B 4.78359e-05
7 axi_lite_o[10] *956:10 0
8 *2181:A *956:10 0
9 *2186:A *956:10 0
10 *515:84 *1613:A 0
11 *660:8 *1613:A 0
12 *660:8 *956:10 0
13 *773:12 *1613:A 0
14 *773:12 *956:10 0
15 *774:8 *956:10 0
*RES
1 *1888:Q *956:10 47.3568 
2 *956:10 *1237:A0 40 
3 *956:10 *1613:A 42.3232 
*END

*D_NET *957 0.0016344
*CONN
*I *1611:A I *D sg13g2_nor2_1
*I *1713:A0 I *D sg13g2_mux2_1
*I *1889:Q O *D sg13g2_dfrbpq_1
*CAP
1 *1611:A 5.61824e-05
2 *1713:A0 0
3 *1889:Q 0.000397961
4 *957:16 0.000285451
5 *957:8 0.000739594
6 *1611:A *1148:52 0
7 *957:8 *1611:B 0
8 *957:8 *1148:52 0
9 *957:16 *1611:B 0
10 *957:16 *1713:A1 8.00842e-05
11 *957:16 *1148:59 0
12 *522:46 *957:8 0
13 *536:10 *957:16 0
14 *599:10 *957:16 7.51285e-05
*RES
1 *1889:Q *957:8 23.608 
2 *957:8 *957:16 42.2352 
3 *957:16 *1713:A0 20 
4 *957:8 *1611:A 20.4576 
*END

*D_NET *958 0.002121
*CONN
*I *1711:A0 I *D sg13g2_mux2_1
*I *1609:A I *D sg13g2_nor2_1
*I *1890:Q O *D sg13g2_dfrbpq_1
*CAP
1 *1711:A0 0.000160679
2 *1609:A 0.000537441
3 *1890:Q 0.000200983
4 *958:8 0.000899102
5 *1609:A *1711:A1 0
6 *1609:A *1108:34 0
7 *1609:A *1108:49 0.000130162
8 *1609:A *1148:67 0
9 *1711:A0 *1711:A1 0.000177178
10 *515:42 *1711:A0 1.54556e-05
11 *515:57 *1711:A0 0
*RES
1 *1890:Q *958:8 42.2 
2 *958:8 *1609:A 44.2152 
3 *958:8 *1711:A0 41.3816 
*END

*D_NET *959 0.00199635
*CONN
*I *1208:A0 I *D sg13g2_mux2_1
*I *1607:A I *D sg13g2_nor2_1
*I *1891:Q O *D sg13g2_dfrbpq_1
*CAP
1 *1208:A0 0
2 *1607:A 0
3 *1891:Q 0.000153711
4 *959:14 0.000844462
5 *959:6 0.000998173
6 *959:14 *1208:A1 0
7 *959:14 *1511:A 0
8 *959:14 *1132:49 0
9 *1930:CLK *959:14 0
10 *2178:A *959:6 0
11 *515:42 *959:6 0
12 *696:12 *959:14 0
13 *923:54 *959:14 0
14 *923:74 *959:14 0
*RES
1 *1891:Q *959:6 21.3816 
2 *959:6 *959:14 47.0928 
3 *959:14 *1607:A 20 
4 *959:6 *1208:A0 20 
*END

*D_NET *960 0.00177596
*CONN
*I *1209:A0 I *D sg13g2_mux2_1
*I *1605:A I *D sg13g2_nor2_1
*I *1892:Q O *D sg13g2_dfrbpq_1
*CAP
1 *1209:A0 0.000101058
2 *1605:A 0.000491493
3 *1892:Q 0.000177871
4 *960:8 0.000770421
5 *1209:A0 *1209:A1 8.00842e-05
6 *1605:A *1606:A2 0
7 *1605:A *1923:RESET_B 8.00705e-05
8 *1605:A *1127:10 0
9 *1605:A *1127:12 0
10 *960:8 *1127:6 0
11 *407:14 *960:8 0
12 *567:18 *1605:A 0
13 *596:8 *1605:A 7.49652e-05
*RES
1 *1892:Q *960:8 41.5664 
2 *960:8 *1605:A 43.9248 
3 *960:8 *1209:A0 40.968 
*END

*D_NET *961 0.00157428
*CONN
*I *1206:A0 I *D sg13g2_mux2_1
*I *1603:A I *D sg13g2_nor2_1
*I *1893:Q O *D sg13g2_dfrbpq_1
*CAP
1 *1206:A0 2.46122e-05
2 *1603:A 0
3 *1893:Q 0.000262309
4 *961:20 0.000198168
5 *961:12 0.000331986
6 *961:8 0.000371515
7 *1206:A0 *1206:A1 0
8 *961:8 *2264:A 0
9 *961:20 *1101:43 0
10 *961:20 *1129:22 0
11 *961:20 *1129:28 0.00012816
12 *1893:CLK *1206:A0 3.24516e-05
13 *1893:CLK *961:12 0.000177273
14 *407:8 *961:20 0
15 *407:14 *961:20 0
16 *523:16 *961:20 4.78028e-05
17 *671:12 *961:8 0
*RES
1 *1893:Q *961:8 42.2 
2 *961:8 *961:12 21.012 
3 *961:12 *961:20 42.0504 
4 *961:20 *1603:A 20 
5 *961:12 *1206:A0 20.2728 
*END

*D_NET *962 0.00118772
*CONN
*I *1207:A0 I *D sg13g2_mux2_1
*I *1601:A I *D sg13g2_nor2_1
*I *1894:Q O *D sg13g2_dfrbpq_1
*CAP
1 *1207:A0 5.79338e-05
2 *1601:A 0
3 *1894:Q 0.000112481
4 *962:14 0.000375588
5 *962:6 0.000546003
6 *1207:A0 *1207:A1 1.54556e-05
7 *962:14 *1121:48 8.02595e-05
8 *962:14 *1132:25 0
9 *1207:S *1207:A0 0
10 *506:70 *1207:A0 0
11 *506:70 *962:6 0
12 *671:12 *962:14 0
*RES
1 *1894:Q *962:6 20.8272 
2 *962:6 *962:14 43.5024 
3 *962:14 *1601:A 20 
4 *962:6 *1207:A0 20.4576 
*END

*D_NET *963 0.00103817
*CONN
*I *1701:A0 I *D sg13g2_mux2_1
*I *1636:A I *D sg13g2_nor2_1
*I *1876:Q O *D sg13g2_dfrbpq_1
*CAP
1 *1701:A0 0
2 *1636:A 0
3 *1876:Q 0.000140341
4 *963:12 0.00022837
5 *963:6 0.000368711
6 *963:6 *1701:A1 1.54008e-05
7 *963:12 *1570:A 0
8 axi_lite_o[7] *963:6 0
9 *187:8 *963:12 7.56308e-05
10 *694:14 *963:6 0.000209713
*RES
1 *1876:Q *963:6 21.1968 
2 *963:6 *963:12 41.7776 
3 *963:12 *1636:A 20 
4 *963:6 *1701:A0 20 
*END

*D_NET *964 0.00186616
*CONN
*I *1202:A0 I *D sg13g2_mux2_1
*I *1599:A I *D sg13g2_nor2_1
*I *1895:Q O *D sg13g2_dfrbpq_1
*CAP
1 *1202:A0 4.72735e-05
2 *1599:A 0
3 *1895:Q 0.000146516
4 *964:20 0.000436015
5 *964:8 0.000629805
6 *1202:A0 *1109:29 0
7 *964:8 *1109:29 0
8 *964:8 *1121:27 0
9 *964:20 *1121:33 0.000345533
10 *1902:D *964:8 0
11 *506:52 *1202:A0 0
12 *524:10 *964:20 0.000130676
13 *593:8 *964:20 0.000130344
*RES
1 *1895:Q *964:8 21.3112 
2 *964:8 *964:20 44.4704 
3 *964:20 *1599:A 20 
4 *964:8 *1202:A0 20.4576 
*END

*D_NET *965 0.00138091
*CONN
*I *1597:A I *D sg13g2_inv_1
*I *1204:B I *D sg13g2_nor2_1
*I *1896:Q O *D sg13g2_dfrbpq_1
*CAP
1 *1597:A 0
2 *1204:B 0
3 *1896:Q 0
4 *965:25 0.000374483
5 *965:12 0.00031597
6 *965:4 0.000690454
7 *965:12 *1217:B 0
8 *965:12 *1142:44 0
9 *965:25 *1572:A 0
10 *965:25 *1896:CLK 0
11 *965:25 *1142:44 0
12 *506:33 *965:12 0
13 *592:8 *965:25 0
*RES
1 *1896:Q *965:4 20 
2 *965:4 *965:12 42.948 
3 *965:12 *1204:B 20 
4 *965:4 *965:25 43.3704 
5 *965:25 *1597:A 20 
*END

*D_NET *966 0.00185246
*CONN
*I *1197:A I *D sg13g2_nor2_1
*I *1595:A I *D sg13g2_inv_1
*I *1897:Q O *D sg13g2_dfrbpq_1
*CAP
1 *1197:A 0
2 *1595:A 2.98025e-05
3 *1897:Q 0.000100776
4 *966:25 0.000423549
5 *966:6 0.000554128
6 *1595:A *1105:23 4.78359e-05
7 *966:6 *1105:23 0.000161944
8 *966:25 *1801:A 0
9 *1703:A *966:25 0
10 *289:8 *966:25 0.000341621
11 *506:33 *966:25 0.000192807
12 *518:26 *966:25 0
13 *519:10 *966:25 0
*RES
1 *1897:Q *966:6 21.012 
2 *966:6 *1595:A 20.2728 
3 *966:6 *966:25 44.6794 
4 *966:25 *1197:A 20 
*END

*D_NET *967 0.0029347
*CONN
*I *1200:B I *D sg13g2_nor2_1
*I *1593:A I *D sg13g2_inv_1
*I *1898:Q O *D sg13g2_dfrbpq_1
*CAP
1 *1200:B 0.000466222
2 *1593:A 0.000599057
3 *1898:Q 3.70275e-05
4 *967:8 0.00110231
5 *1200:B *1487:A2 0
6 *1200:B *1183:18 0
7 *1593:A *1145:31 0.000341949
8 *1593:A *1183:18 0
9 *967:8 *1487:A2 0
10 *967:8 *1935:RESET_B 0
11 *1487:B1 *1200:B 0.00018261
12 *1898:D *1593:A 0
13 *506:8 *1593:A 0
14 *520:39 *1200:B 0.000128662
15 *590:8 *1593:A 7.6873e-05
16 *683:8 *1200:B 0
17 *933:70 *1593:A 0
*RES
1 *1898:Q *967:8 40.2728 
2 *967:8 *1593:A 46.3756 
3 *967:8 *1200:B 44.3736 
*END

*D_NET *968 0.00119849
*CONN
*I *1232:B I *D sg13g2_nor2_1
*I *1591:A I *D sg13g2_inv_1
*I *1899:Q O *D sg13g2_dfrbpq_1
*CAP
1 *1232:B 0.000294677
2 *1591:A 0.000206031
3 *1899:Q 9.85377e-05
4 *968:8 0.000599246
5 *1591:A *1121:48 0
6 *1591:A *1140:22 0
7 *1930:D *1232:B 0
8 *506:61 *1232:B 0
9 *506:61 *968:8 0
10 *506:70 *1232:B 0
*RES
1 *1899:Q *968:8 40.8272 
2 *968:8 *1591:A 41.8128 
3 *968:8 *1232:B 42.552 
*END

*D_NET *969 0.00165025
*CONN
*I *1235:B I *D sg13g2_nor2_1
*I *1589:A I *D sg13g2_inv_1
*I *1900:Q O *D sg13g2_dfrbpq_1
*CAP
1 *1235:B 0.00062967
2 *1589:A 8.16502e-05
3 *1900:Q 6.60623e-05
4 *969:8 0.000777383
5 *1492:B1 *1235:B 0
6 *1930:D *1589:A 8.00842e-05
7 *1931:D *1235:B 0
8 *515:27 *1235:B 1.54008e-05
9 *588:8 *969:8 0
10 *762:8 *1235:B 0
*RES
1 *1900:Q *969:8 40.5104 
2 *969:8 *1589:A 40.6424 
3 *969:8 *1235:B 44.9368 
*END

*D_NET *970 0.00333085
*CONN
*I *1226:B I *D sg13g2_nor2_1
*I *1587:A I *D sg13g2_inv_1
*I *1901:Q O *D sg13g2_dfrbpq_1
*CAP
1 *1226:B 0
2 *1587:A 0
3 *1901:Q 0.000482892
4 *970:27 0.00110245
5 *970:12 0.00158534
6 *970:12 *1107:39 0
7 *970:27 *1217:B 0
8 *970:27 *1572:A 0
9 *970:27 *1935:CLK 0
10 *970:27 *1107:39 0
11 *1224:A1 *970:27 8.00842e-05
12 *108:10 *970:12 0
13 *328:10 *970:27 8.00842e-05
*RES
1 *1901:Q *970:12 44.488 
2 *970:12 *1587:A 40 
3 *970:12 *970:27 30.5072 
4 *970:27 *1226:B 20 
*END

*D_NET *971 0.0022003
*CONN
*I *1229:B I *D sg13g2_nor2_1
*I *1585:A I *D sg13g2_inv_1
*I *1902:Q O *D sg13g2_dfrbpq_1
*CAP
1 *1229:B 0.000369325
2 *1585:A 0.000337986
3 *1902:Q 0.000186308
4 *971:8 0.000893619
5 *1585:A *1105:34 0
6 *971:8 *1866:CLK 0.000307019
7 *971:8 *2258:A 0
8 *1802:B1 *1585:A 0
9 *1803:A *1229:B 0
10 *1864:D *1229:B 1.54556e-05
11 *159:10 *1585:A 0
12 *290:8 *1229:B 0
13 *290:8 *1585:A 0
14 *506:35 *1229:B 0
15 *506:44 *1229:B 1.54556e-05
16 *586:8 *1585:A 7.51285e-05
*RES
1 *1902:Q *971:8 41.7512 
2 *971:8 *1585:A 42.6928 
3 *971:8 *1229:B 43.08 
*END

*D_NET *972 0.00314658
*CONN
*I *1220:B I *D sg13g2_nor2_1
*I *1583:A I *D sg13g2_inv_1
*I *1903:Q O *D sg13g2_dfrbpq_1
*CAP
1 *1220:B 0
2 *1583:A 0
3 *1903:Q 0
4 *972:27 0.00058879
5 *972:12 0.000758763
6 *972:4 0.00134755
7 *972:12 *1145:23 0
8 *972:27 *1214:B 0
9 *972:27 *975:12 0.000451476
10 *972:27 *1102:36 0
11 *972:27 *1145:15 0
12 *972:27 *1145:17 0
13 *1580:A1 *972:12 0
14 *1903:D *972:12 0
15 *336:8 *972:27 0
16 *506:8 *972:12 0
17 *507:44 *972:12 0
18 *507:44 *972:27 0
19 *578:65 *972:12 0
20 *585:8 *972:12 0
*RES
1 *1903:Q *972:4 20 
2 *972:4 *972:12 46.116 
3 *972:12 *1583:A 20 
4 *972:4 *972:27 45.7816 
5 *972:27 *1220:B 20 
*END

*D_NET *973 0.00426869
*CONN
*I *1223:B I *D sg13g2_nor2_1
*I *1581:A I *D sg13g2_inv_1
*I *1904:Q O *D sg13g2_dfrbpq_1
*CAP
1 *1223:B 0.000357405
2 *1581:A 0.000502157
3 *1904:Q 3.46921e-05
4 *973:8 0.000894255
5 *1223:B *1183:18 0
6 *1581:A *1107:39 0
7 *1581:A *1183:18 0.00188909
8 *1224:B1 *1223:B 1.54008e-05
9 *1487:A1 *1223:B 0.000393077
10 *1901:D *1581:A 0.00018261
11 *74:10 *1223:B 0
*RES
1 *1904:Q *973:8 40.2728 
2 *973:8 *1581:A 47.48 
3 *973:8 *1223:B 43.5904 
*END

*D_NET *974 0.00121094
*CONN
*I *1634:A I *D sg13g2_nor2_1
*I *1700:A0 I *D sg13g2_mux2_1
*I *1877:Q O *D sg13g2_dfrbpq_1
*CAP
1 *1634:A 0
2 *1700:A0 3.63385e-05
3 *1877:Q 0.000164939
4 *974:23 0.000241519
5 *974:8 0.000442797
6 *1700:A0 *1700:A1 1.54008e-05
7 *974:23 *980:12 0
8 *974:23 *1127:38 0.000128663
9 *974:23 *1137:12 0
10 *407:26 *974:23 0.000181279
11 *541:14 *974:23 0
12 *694:14 *974:8 0
*RES
1 *1877:Q *974:8 21.3112 
2 *974:8 *1700:A0 20.2728 
3 *974:8 *974:23 42.684 
4 *974:23 *1634:A 20 
*END

*D_NET *975 0.00147297
*CONN
*I *1214:B I *D sg13g2_nor2_1
*I *1579:A I *D sg13g2_inv_1
*I *1905:Q O *D sg13g2_dfrbpq_1
*CAP
1 *1214:B 0.000158581
2 *1579:A 0
3 *1905:Q 0
4 *975:12 0.000344465
5 *975:4 0.000503045
6 *1214:B *1935:RESET_B 0
7 *975:12 *1935:RESET_B 0
8 *975:12 *1145:17 0
9 *1220:A *1214:B 1.54008e-05
10 *972:27 *1214:B 0
11 *972:27 *975:12 0.000451476
*RES
1 *1905:Q *975:4 20 
2 *975:4 *975:12 43.1592 
3 *975:12 *1579:A 20 
4 *975:4 *1214:B 21.5752 
*END

*D_NET *976 0.00208673
*CONN
*I *1217:B I *D sg13g2_nor2_1
*I *1572:A I *D sg13g2_inv_1
*I *1906:Q O *D sg13g2_dfrbpq_1
*CAP
1 *1217:B 0.00042446
2 *1572:A 0.000207768
3 *1906:Q 0.000175535
4 *976:10 0.000807763
5 *1217:B *1927:RESET_B 0.000155388
6 *1572:A *1107:50 0
7 *506:33 *976:10 0
8 *592:8 *1572:A 0.000235556
9 *790:17 *1217:B 8.02598e-05
10 *965:12 *1217:B 0
11 *965:25 *1572:A 0
12 *970:27 *1217:B 0
13 *970:27 *1572:A 0
*RES
1 *1906:Q *976:10 41.5488 
2 *976:10 *1572:A 42.2352 
3 *976:10 *1217:B 43.7136 
*END

*D_NET *977 0.00165296
*CONN
*I *1859:B I *D sg13g2_nor2_1
*I *1801:A I *D sg13g2_inv_1
*I *1867:Q O *D sg13g2_dfrbpq_1
*CAP
1 *1859:B 0.00012318
2 *1801:A 0.000386011
3 *1867:Q 0.000111319
4 *977:8 0.000620509
5 *1801:A *1105:23 0
6 *1703:A *1859:B 0
7 *289:8 *1801:A 0
8 *324:12 *1801:A 7.52149e-05
9 *324:12 *1859:B 0.000159598
10 *506:33 *1801:A 0
11 *506:33 *977:8 0
12 *518:26 *1859:B 0
13 *518:26 *977:8 0.000177125
14 *930:10 *1859:B 0
15 *966:25 *1801:A 0
*RES
1 *1867:Q *977:8 41.012 
2 *977:8 *1801:A 43.5024 
3 *977:8 *1859:B 41.1792 
*END

*D_NET *978 0.000893692
*CONN
*I *1702:A I *D sg13g2_inv_1
*I *1864:Q O *D sg13g2_dfrbpq_1
*CAP
1 *1702:A 0.000139589
2 *1864:Q 9.11585e-05
3 *978:8 0.000230747
4 *978:8 *1105:73 0.00028743
5 *1491:A1 *978:8 0
6 *222:10 *1702:A 0.000144767
7 *519:51 *1702:A 0
8 *762:8 *1702:A 0
*RES
1 *1864:Q *978:8 41.144 
2 *978:8 *1702:A 41.1968 
*END

*D_NET *979 0.00219283
*CONN
*I *1701:A1 I *D sg13g2_mux2_1
*I *1570:A I *D sg13g2_nor2_1
*I *1907:Q O *D sg13g2_dfrbpq_1
*CAP
1 *1701:A1 0.000139681
2 *1570:A 0.000633876
3 *1907:Q 0.000108989
4 *979:8 0.000882546
5 *979:8 *1133:72 0
6 axi_lite_o[7] *1701:A1 8.02595e-05
7 *1876:D *1570:A 7.99451e-05
8 *187:8 *1570:A 0
9 *576:8 *1570:A 7.49652e-05
10 *694:14 *979:8 0.000177164
11 *712:14 *1570:A 0
12 *963:6 *1701:A1 1.54008e-05
13 *963:12 *1570:A 0
*RES
1 *1907:Q *979:8 41.012 
2 *979:8 *1570:A 45.192 
3 *979:8 *1701:A1 41.1792 
*END

*D_NET *980 0.00225495
*CONN
*I *1700:A1 I *D sg13g2_mux2_1
*I *1565:A I *D sg13g2_nor2_1
*I *1908:Q O *D sg13g2_dfrbpq_1
*CAP
1 *1700:A1 0.000209658
2 *1565:A 0
3 *1908:Q 0.000149991
4 *980:12 0.00024511
5 *980:6 0.000604759
6 *980:12 *1127:38 0
7 *1552:B *1700:A1 0
8 *1552:B *980:6 0
9 *1700:A0 *1700:A1 1.54008e-05
10 *186:8 *980:12 0
11 *407:18 *1700:A1 0
12 *407:18 *980:6 0
13 *407:26 *980:12 0
14 *539:12 *980:12 0.000874159
15 *572:8 *980:12 7.55794e-05
16 *694:14 *1700:A1 8.02924e-05
17 *974:23 *980:12 0
*RES
1 *1908:Q *980:6 21.1968 
2 *980:6 *980:12 43.4672 
3 *980:12 *1565:A 20 
4 *980:6 *1700:A1 21.936 
*END

*D_NET *981 0.00042499
*CONN
*I *1554:A I *D sg13g2_inv_1
*I *1909:Q O *D sg13g2_dfrbpq_1
*CAP
1 *1554:A 0.000212495
2 *1909:Q 0.000212495
3 *1554:A *1697:B 0
4 *1698:B1 *1554:A 0
5 *522:27 *1554:A 0
*RES
1 *1909:Q *1554:A 41.892 
*END

*D_NET *982 0.000157074
*CONN
*I *1547:A I *D sg13g2_inv_1
*I *1910:Q O *D sg13g2_dfrbpq_1
*CAP
1 *1547:A 7.85369e-05
2 *1910:Q 7.85369e-05
3 *1921:D *1547:A 0
4 *522:46 *1547:A 0
*RES
1 *1910:Q *1547:A 40.7832 
*END

*D_NET *983 0.00238029
*CONN
*I *1691:A1 I *D sg13g2_mux2_1
*I *1545:A I *D sg13g2_nor2_1
*I *1911:Q O *D sg13g2_dfrbpq_1
*CAP
1 *1691:A1 0.000215268
2 *1545:A 0.000824946
3 *1911:Q 4.57769e-05
4 *983:8 0.00108599
5 *1545:A *1545:B 0
6 *1545:A *1629:A 0
7 *1691:A1 *1691:A0 4.77425e-05
8 *1535:A1 *1545:A 8.0194e-05
9 *1911:CLK *1545:A 0
10 *1915:RESET_B *1545:A 0
11 *575:14 *1545:A 8.03692e-05
12 *661:12 *1691:A1 0
13 *694:14 *1691:A1 0
14 *724:51 *1545:A 0
15 *724:51 *983:8 0
*RES
1 *1911:Q *983:8 40.5104 
2 *983:8 *1545:A 47.304 
3 *983:8 *1691:A1 41.7512 
*END

*D_NET *984 0.00170092
*CONN
*I *1686:A1 I *D sg13g2_mux2_1
*I *1542:A I *D sg13g2_nor2_1
*I *1912:Q O *D sg13g2_dfrbpq_1
*CAP
1 *1686:A1 0.00025746
2 *1542:A 0.000592999
3 *1912:Q 0
4 *984:6 0.000850459
5 *1542:A *1627:A 0
6 *1542:A *1137:91 0
7 *1686:A1 *1627:A 0
8 *1686:A1 *1014:10 0
9 *1628:A1 *1542:A 0
10 *183:8 *1542:A 0
11 *407:55 *1542:A 0
12 *407:55 *1686:A1 0
13 *912:54 *1542:A 0
*RES
1 *1912:Q *984:6 40 
2 *984:6 *1542:A 45.0864 
3 *984:6 *1686:A1 42.0504 
*END

*D_NET *985 0.00219839
*CONN
*I *1633:A1 I *D sg13g2_mux2_1
*I *1697:B I *D sg13g2_nor2_1
*I *1878:Q O *D sg13g2_dfrbpq_1
*CAP
1 *1633:A1 0
2 *1697:B 0.000279863
3 *1878:Q 0.000157733
4 *985:21 0.000597518
5 *985:8 0.00103511
6 *1554:A *1697:B 0
7 *1697:A *1697:B 0
8 *1697:A *985:21 0.00012816
9 *1910:CLK *985:8 0
10 *522:27 *1697:B 0
11 *522:46 *985:8 0
12 *533:12 *985:21 0
13 *669:12 *985:21 0
14 *917:30 *985:21 0
*RES
1 *1878:Q *985:8 21.3112 
2 *985:8 *1697:B 22.1208 
3 *985:8 *985:21 45.7904 
4 *985:21 *1633:A1 20 
*END

*D_NET *986 0.00165911
*CONN
*I *1685:A1 I *D sg13g2_mux2_1
*I *1539:A I *D sg13g2_nor2_1
*I *1913:Q O *D sg13g2_dfrbpq_1
*CAP
1 *1685:A1 0
2 *1539:A 0
3 *1913:Q 0.000191206
4 *986:14 0.000494805
5 *986:8 0.000686011
6 *986:8 *1685:A0 8.0216e-05
7 *986:8 *1135:41 0
8 *986:14 *1134:71 0
9 *986:14 *1135:87 0.000130344
10 *1537:B1 *986:8 0
11 *1685:S *986:8 0
12 *551:8 *986:14 7.65281e-05
*RES
1 *1913:Q *986:8 21.6808 
2 *986:8 *986:14 43.4672 
3 *986:14 *1539:A 20 
4 *986:8 *1685:A1 20 
*END

*D_NET *987 0.00356256
*CONN
*I *1684:A1 I *D sg13g2_mux2_1
*I *1536:A I *D sg13g2_nor2_1
*I *1914:Q O *D sg13g2_dfrbpq_1
*CAP
1 *1684:A1 3.9452e-05
2 *1536:A 0.00064171
3 *1914:Q 0.000199528
4 *987:8 0.00088069
5 *1536:A *1623:B 0.000287672
6 *1536:A *1016:20 0.000129163
7 *1536:A *1134:71 0.000393082
8 *1536:A *1134:82 0.00012816
9 *1684:A1 *1016:20 0.000106392
10 *987:8 *1016:10 0
11 *181:8 *1536:A 0.000500307
12 *515:84 *1536:A 7.52149e-05
13 *515:84 *1684:A1 0.000181192
14 *699:8 *1536:A 0
*RES
1 *1914:Q *987:8 41.5664 
2 *987:8 *1536:A 47.2072 
3 *987:8 *1684:A1 40.7216 
*END

*D_NET *988 0.00415018
*CONN
*I *1683:A1 I *D sg13g2_mux2_1
*I *1532:A I *D sg13g2_nor2_1
*I *1915:Q O *D sg13g2_dfrbpq_1
*CAP
1 *1683:A1 0
2 *1532:A 0
3 *1915:Q 0.000166824
4 *988:18 0.000764239
5 *988:8 0.000931063
6 *988:18 *1621:A 0
7 *988:18 *1683:A0 0.000145031
8 *988:18 *1017:8 0
9 *1533:B1 *988:18 0
10 *537:12 *988:18 0.00172523
11 *661:12 *988:8 0.000209725
12 *661:12 *988:18 0
13 *694:14 *988:8 0
14 *928:79 *988:18 0.000208077
*RES
1 *1915:Q *988:8 21.7072 
2 *988:8 *988:18 48.8704 
3 *988:18 *1532:A 20 
4 *988:8 *1683:A1 20 
*END

*D_NET *989 0.00154033
*CONN
*I *1682:A1 I *D sg13g2_mux2_1
*I *1529:A I *D sg13g2_nor2_1
*I *1916:Q O *D sg13g2_dfrbpq_1
*CAP
1 *1682:A1 0
2 *1529:A 0
3 *1916:Q 0.00018023
4 *989:18 0.000549894
5 *989:8 0.000730125
6 *989:8 *1135:31 0
7 *989:18 *1110:86 0
8 *989:18 *1135:16 0
9 *989:18 *1135:25 0
10 *1619:A *989:18 0
11 *1682:A0 *989:18 8.00842e-05
12 *1685:S *989:8 0
13 *522:55 *989:18 0
*RES
1 *1916:Q *989:8 21.6808 
2 *989:8 *989:18 44.2768 
3 *989:18 *1529:A 20 
4 *989:8 *1682:A1 20 
*END

*D_NET *990 0.00192757
*CONN
*I *1673:A1 I *D sg13g2_mux2_1
*I *1526:A I *D sg13g2_nor2_1
*I *1917:Q O *D sg13g2_dfrbpq_1
*CAP
1 *1673:A1 0.000135304
2 *1526:A 0.000354916
3 *1917:Q 0.000179136
4 *990:8 0.000669357
5 *1526:A *1148:59 0
6 *1673:A1 *1148:59 0
7 *1521:A1 *990:8 0
8 *1521:A2 *990:8 0
9 *515:69 *1673:A1 0.000234224
10 *515:69 *990:8 4.77425e-05
11 *723:70 *990:8 0.000306893
12 *916:8 *1526:A 0
13 *916:32 *1526:A 0
14 *916:41 *1526:A 0
*RES
1 *1917:Q *990:8 41.7512 
2 *990:8 *1526:A 42.8688 
3 *990:8 *1673:A1 41.4168 
*END

*D_NET *991 0.00211231
*CONN
*I *1672:A1 I *D sg13g2_mux2_1
*I *1523:A I *D sg13g2_nor2_1
*I *1918:Q O *D sg13g2_dfrbpq_1
*CAP
1 *1672:A1 0.000262242
2 *1523:A 0.000257383
3 *1918:Q 0.000325602
4 *991:8 0.000845228
5 *1523:A *1108:90 0
6 *1523:A *1148:67 8.02379e-05
7 *1523:B *1523:A 0
8 *1615:A *1523:A 0
9 *1615:A *1672:A1 0
10 *1672:S *1672:A1 0
11 *1887:CLK *991:8 0
12 *1890:CLK *991:8 0
13 *515:57 *1672:A1 0
14 *515:57 *991:8 0
15 *601:8 *1523:A 0.000341621
16 *723:47 *1523:A 0
17 *955:10 *1672:A1 0
*RES
1 *1918:Q *991:8 42.4904 
2 *991:8 *1523:A 42.6576 
3 *991:8 *1672:A1 42.2616 
*END

*D_NET *992 0.00160278
*CONN
*I *1237:A1 I *D sg13g2_mux2_1
*I *1520:A I *D sg13g2_nor2_1
*I *1919:Q O *D sg13g2_dfrbpq_1
*CAP
1 *1237:A1 0.000253068
2 *1520:A 0
3 *1919:Q 0.000658734
4 *992:10 0.000405666
5 *992:10 *1888:RESET_B 0
6 *992:10 *1919:RESET_B 0
7 *1237:S *1237:A1 0
8 *2181:A *1237:A1 0
9 *515:76 *1237:A1 0
10 *515:76 *992:10 0.000209681
11 *515:84 *1237:A1 0
12 *538:8 *992:10 7.56299e-05
13 *662:12 *992:10 0
14 *663:10 *992:10 0
15 *774:8 *1237:A1 0
16 *777:10 *992:10 0
17 *778:8 *1237:A1 0
*RES
1 *1919:Q *992:10 44.0304 
2 *992:10 *1520:A 40 
3 *1919:Q *1237:A1 42.3144 
*END

*D_NET *993 0.00116126
*CONN
*I *1713:A1 I *D sg13g2_mux2_1
*I *1517:A I *D sg13g2_nor2_1
*I *1920:Q O *D sg13g2_dfrbpq_1
*CAP
1 *1713:A1 0.000215923
2 *1517:A 6.72056e-05
3 *1920:Q 8.05164e-05
4 *993:10 0.000283128
5 *993:8 8.05164e-05
6 *993:8 *1611:B 0
7 *1517:B *1713:A1 0.000241456
8 *522:46 *1517:A 0.000112426
9 *522:46 *1713:A1 0
10 *536:10 *993:8 0
11 *957:16 *1713:A1 8.00842e-05
*RES
1 *1920:Q *993:8 40.5104 
2 *993:8 *993:10 20 
3 *993:10 *1517:A 20.6424 
4 *993:10 *1713:A1 22.1032 
*END

*D_NET *994 0.00253717
*CONN
*I *1711:A1 I *D sg13g2_mux2_1
*I *1514:A I *D sg13g2_nor2_1
*I *1921:Q O *D sg13g2_dfrbpq_1
*CAP
1 *1711:A1 0.000597249
2 *1514:A 0.000457267
3 *1921:Q 4.59545e-05
4 *994:8 0.00110047
5 *1514:A *1921:RESET_B 0
6 *1711:A1 *1108:49 0
7 *1711:A1 *1132:55 0
8 *994:8 *1108:34 7.95255e-05
9 *1514:B *1514:A 0
10 *1609:A *1711:A1 0
11 *1610:A1 *1514:A 0
12 *1696:A2 *1514:A 0
13 *1711:A0 *1711:A1 0.000177178
14 *1890:D *994:8 7.95255e-05
15 *2179:A *1711:A1 0
16 *534:8 *1514:A 0
17 *598:8 *1711:A1 0
*RES
1 *1921:Q *994:8 40.4576 
2 *994:8 *1514:A 44.0568 
3 *994:8 *1711:A1 44.9016 
*END

*D_NET *995 0.00302157
*CONN
*I *1208:A1 I *D sg13g2_mux2_1
*I *1511:A I *D sg13g2_nor2_1
*I *1922:Q O *D sg13g2_dfrbpq_1
*CAP
1 *1208:A1 0.000269073
2 *1511:A 0.000870716
3 *1922:Q 5.65114e-05
4 *995:8 0.0011963
5 *1511:A *1108:8 0
6 *87:10 *1511:A 0.000341119
7 *515:38 *1208:A1 0
8 *515:38 *995:8 0
9 *669:12 *1511:A 0
10 *695:12 *1511:A 0
11 *744:12 *1208:A1 0
12 *771:8 *1208:A1 0
13 *917:59 *1511:A 0.000287846
14 *959:14 *1208:A1 0
15 *959:14 *1511:A 0
*RES
1 *1922:Q *995:8 40.4576 
2 *995:8 *1511:A 47.7528 
3 *995:8 *1208:A1 42.4992 
*END

*D_NET *996 0.00461444
*CONN
*I *1632:A1 I *D sg13g2_mux2_1
*I *1695:B I *D sg13g2_nor2_1
*I *1879:Q O *D sg13g2_dfrbpq_1
*CAP
1 *1632:A1 0
2 *1695:B 0
3 *1879:Q 0
4 *996:33 0.000611611
5 *996:20 8.86408e-05
6 *996:14 0.000812513
7 *996:4 0.00133548
8 *1515:A2 *996:20 0.000144838
9 *1553:A1 *996:14 0
10 *1696:A2 *996:14 0
11 *1696:A2 *996:20 0
12 *1910:CLK *996:14 0
13 *206:75 *996:14 0
14 *522:46 *996:14 0
15 *533:12 *996:14 0
16 *534:8 *996:14 0
17 *539:12 *996:33 0.00162136
18 *931:12 *996:33 0
19 *932:12 *996:33 0
*RES
1 *1879:Q *996:4 20 
2 *996:4 *996:14 46.7056 
3 *996:14 *996:20 40.8272 
4 *996:20 *1695:B 20 
5 *996:4 *996:33 47.436 
6 *996:33 *1632:A1 20 
*END

*D_NET *997 0.00141193
*CONN
*I *1209:A1 I *D sg13g2_mux2_1
*I *1508:A I *D sg13g2_nor2_1
*I *1923:Q O *D sg13g2_dfrbpq_1
*CAP
1 *1209:A1 0.000356851
2 *1508:A 0.000204319
3 *1923:Q 0
4 *997:4 0.00056117
5 *1209:A1 *1631:A 0
6 *1209:A0 *1209:A1 8.00842e-05
7 *407:18 *1209:A1 0
8 *407:18 *1508:A 0.000209505
9 *932:12 *1209:A1 0
*RES
1 *1923:Q *997:4 20 
2 *997:4 *1508:A 22.3408 
3 *997:4 *1209:A1 23.344 
*END

*D_NET *998 0.00192256
*CONN
*I *1206:A1 I *D sg13g2_mux2_1
*I *1505:A I *D sg13g2_nor2_1
*I *1924:Q O *D sg13g2_dfrbpq_1
*CAP
1 *1206:A1 0.000540807
2 *1505:A 0.000137575
3 *1924:Q 9.3125e-05
4 *998:8 0.000771507
5 *1206:A1 *2133:A 8.00842e-05
6 *1206:A1 *1121:56 0
7 *1505:A *1506:A2 0
8 *1505:A *1121:56 0
9 *998:8 *2259:A 0.000144119
10 *1206:A0 *1206:A1 0
11 *1893:CLK *1206:A1 0
12 *523:16 *1505:A 8.01283e-05
13 *523:16 *998:8 0
14 *525:14 *1206:A1 0
15 *525:14 *1505:A 0
16 *528:8 *1505:A 7.52158e-05
*RES
1 *1924:Q *998:8 40.8272 
2 *998:8 *1505:A 41.1792 
3 *998:8 *1206:A1 44.3824 
*END

*D_NET *999 0.00204729
*CONN
*I *1502:A I *D sg13g2_nor2_1
*I *1207:A1 I *D sg13g2_mux2_1
*I *1925:Q O *D sg13g2_dfrbpq_1
*CAP
1 *1502:A 0
2 *1207:A1 0.000242988
3 *1925:Q 0.000129442
4 *999:23 0.000468616
5 *999:8 0.000841046
6 *999:23 *1101:18 0
7 *999:23 *1132:36 0
8 *1207:A0 *1207:A1 1.54556e-05
9 *1207:S *1207:A1 0
10 *1479:A *1207:A1 0
11 *1512:B1 *999:8 0
12 *506:70 *1207:A1 0.000274529
13 *506:74 *999:23 0
14 *526:8 *999:23 7.52158e-05
*RES
1 *1925:Q *999:8 21.1264 
2 *999:8 *1207:A1 22.3056 
3 *999:8 *999:23 44.3472 
4 *999:23 *1502:A 20 
*END

*D_NET *1000 0.000776788
*CONN
*I *1202:A1 I *D sg13g2_mux2_1
*I *1499:A I *D sg13g2_nor2_1
*I *1926:Q O *D sg13g2_dfrbpq_1
*CAP
1 *1202:A1 0.000219466
2 *1499:A 0.000168928
3 *1926:Q 0
4 *1000:4 0.000388394
5 *1202:A1 *1109:29 0
6 *1499:A *1599:B 0
*RES
1 *1926:Q *1000:4 20 
2 *1000:4 *1499:A 21.7072 
3 *1000:4 *1202:A1 22.5784 
*END

*D_NET *1001 0.000959726
*CONN
*I *1203:A I *D sg13g2_inv_1
*I *1927:Q O *D sg13g2_dfrbpq_1
*CAP
1 *1203:A 0.000169631
2 *1927:Q 0.000100526
3 *1001:8 0.000270157
4 *1203:A *1126:26 0.000177394
5 *1203:A *1138:12 0.000242017
*RES
1 *1927:Q *1001:8 40.7216 
2 *1001:8 *1203:A 41.6808 
*END

*D_NET *1002 0.00328676
*CONN
*I *1196:A I *D sg13g2_inv_1
*I *1928:Q O *D sg13g2_dfrbpq_1
*CAP
1 *1196:A 0.000976894
2 *1928:Q 0.000129823
3 *1002:10 0.00110672
4 *1196:A *1865:RESET_B 0
5 *1196:A *1103:68 0
6 *1196:A *1126:26 0
7 *1196:A *1138:12 0.000339042
8 *1002:10 *1103:36 4.72458e-05
9 *1806:B1 *1196:A 8.00842e-05
10 *1865:D *1196:A 0
11 *1932:D *1002:10 4.72458e-05
12 *1937:D *1196:A 0.000274611
13 *339:8 *1002:10 0.000237686
14 *339:12 *1196:A 4.74163e-05
15 *930:33 *1196:A 0
*RES
1 *1928:Q *1002:10 41.4168 
2 *1002:10 *1196:A 48.3776 
*END

*D_NET *1003 0.0010316
*CONN
*I *1199:A I *D sg13g2_inv_1
*I *1929:Q O *D sg13g2_dfrbpq_1
*CAP
1 *1199:A 0.00036296
2 *1929:Q 0.00036296
3 *1199:A *1219:A 0.000112826
4 *325:12 *1199:A 0.000192855
*RES
1 *1929:Q *1199:A 43.2472 
*END

*D_NET *1004 0.000404386
*CONN
*I *1231:A I *D sg13g2_inv_1
*I *1930:Q O *D sg13g2_dfrbpq_1
*CAP
1 *1231:A 0.000202193
2 *1930:Q 0.000202193
3 *515:27 *1231:A 0
4 *768:8 *1231:A 0
*RES
1 *1930:Q *1231:A 41.892 
*END

*D_NET *1005 0.00110838
*CONN
*I *1234:A I *D sg13g2_inv_1
*I *1931:Q O *D sg13g2_dfrbpq_1
*CAP
1 *1234:A 0
2 *1931:Q 0.00055419
3 *1005:10 0.00055419
*RES
1 *1931:Q *1005:10 45.4296 
2 *1005:10 *1234:A 40 
*END

*D_NET *1006 0.00176766
*CONN
*I *1225:A I *D sg13g2_inv_1
*I *1932:Q O *D sg13g2_dfrbpq_1
*CAP
1 *1225:A 0.000356041
2 *1932:Q 0.000439069
3 *1006:8 0.00079511
4 *1225:A *1216:A 0
5 *1006:8 *1012:8 0
6 *1006:8 *1142:40 0
7 axi_lite_o[23] *1006:8 0
8 *1205:A1 *1225:A 0
9 *1205:A2 *1225:A 0.000177438
10 *516:23 *1225:A 0
11 *516:41 *1225:A 0
12 *685:10 *1006:8 0
13 *766:8 *1225:A 0
*RES
1 *1932:Q *1006:8 43.4672 
2 *1006:8 *1225:A 42.86 
*END

*D_NET *1007 0.00181009
*CONN
*I *1691:A0 I *D sg13g2_mux2_1
*I *1629:A I *D sg13g2_nor2_1
*I *1880:Q O *D sg13g2_dfrbpq_1
*CAP
1 *1691:A0 0.000118047
2 *1629:A 0.000335205
3 *1880:Q 0.000170493
4 *1007:10 0.000623745
5 *1629:A *1133:15 7.98619e-05
6 *1629:A *1133:28 0
7 *1007:10 *1148:90 0.000177399
8 *1545:A *1629:A 0
9 *1691:A1 *1691:A0 4.77425e-05
10 *407:49 *1007:10 0.000177399
11 *661:12 *1691:A0 0
12 *694:14 *1691:A0 8.0194e-05
*RES
1 *1880:Q *1007:10 41.8392 
2 *1007:10 *1629:A 43.2912 
3 *1007:10 *1691:A0 41.1792 
*END

*D_NET *1008 0.00060183
*CONN
*I *1228:A I *D sg13g2_inv_1
*I *1933:Q O *D sg13g2_dfrbpq_1
*CAP
1 *1228:A 0.000156399
2 *1933:Q 0.000144516
3 *1008:8 0.000300915
4 *341:8 *1008:8 0
5 *761:12 *1008:8 0
*RES
1 *1933:Q *1008:8 41.5664 
2 *1008:8 *1228:A 41.3816 
*END

*D_NET *1009 0.000979305
*CONN
*I *1219:A I *D sg13g2_inv_1
*I *1934:Q O *D sg13g2_dfrbpq_1
*CAP
1 *1219:A 0.000425539
2 *1934:Q 0.000425539
3 *1219:A *1934:CLK 0
4 *1199:A *1219:A 0.000112826
5 *335:12 *1219:A 1.54008e-05
*RES
1 *1934:Q *1219:A 44.224 
*END

*D_NET *1010 0.000591641
*CONN
*I *1222:A I *D sg13g2_inv_1
*I *1935:Q O *D sg13g2_dfrbpq_1
*CAP
1 *1222:A 0.000236389
2 *1935:Q 0.000236389
3 *1222:A *1183:14 3.86039e-05
4 *790:17 *1222:A 8.02598e-05
*RES
1 *1935:Q *1222:A 42.0064 
*END

*D_NET *1011 0.000578804
*CONN
*I *1213:A I *D sg13g2_inv_1
*I *1936:Q O *D sg13g2_dfrbpq_1
*CAP
1 *1213:A 0.000200782
2 *1936:Q 0.000200782
3 *1213:A *1103:27 0
4 *1213:A *1145:15 0
5 *1221:A1 *1213:A 0
6 *1221:A2 *1213:A 0
7 *1486:B1 *1213:A 0
8 *2277:A *1213:A 0.00017724
9 *73:10 *1213:A 0
*RES
1 *1936:Q *1213:A 42.0064 
*END

*D_NET *1012 0.000935068
*CONN
*I *1216:A I *D sg13g2_inv_1
*I *1937:Q O *D sg13g2_dfrbpq_1
*CAP
1 *1216:A 0.000352591
2 *1937:Q 0.000114943
3 *1012:8 0.000467534
4 *1216:A *1142:34 0
5 *1216:A *1142:40 0
6 axi_lite_o[24] *1012:8 0
7 *1225:A *1216:A 0
8 *2162:A *1216:A 0
9 *1006:8 *1012:8 0
*RES
1 *1937:Q *1012:8 41.144 
2 *1012:8 *1216:A 43.0448 
*END

*D_NET *1013 0.00120985
*CONN
*I *1805:A I *D sg13g2_inv_1
*I *1865:Q O *D sg13g2_dfrbpq_1
*CAP
1 *1805:A 0.00016924
2 *1865:Q 0.000290104
3 *1013:8 0.000459344
4 *1805:A *1142:25 0
5 axi_lite_o[26] *1013:8 0
6 axi_lite_o[29] *1013:8 0.000291165
7 *516:50 *1805:A 0
8 *686:10 *1013:8 0
*RES
1 *1865:Q *1013:8 43.0448 
2 *1013:8 *1805:A 41.1968 
*END

*D_NET *1014 0.00323228
*CONN
*I *1627:A I *D sg13g2_nor2_1
*I *1686:A0 I *D sg13g2_mux2_1
*I *1881:Q O *D sg13g2_dfrbpq_1
*CAP
1 *1627:A 0.000540573
2 *1686:A0 0
3 *1881:Q 0.00090538
4 *1014:10 0.00144595
5 *1627:A *1133:59 0
6 axi_lite_o[11] *1014:10 0
7 *1542:A *1627:A 0
8 *1686:A1 *1627:A 0
9 *1686:A1 *1014:10 0
10 *1881:D *1627:A 0
11 *407:55 *1627:A 0.000340375
12 *661:12 *1014:10 0
13 *698:8 *1014:10 0
14 *740:8 *1014:10 0
*RES
1 *1881:Q *1014:10 48.5712 
2 *1014:10 *1686:A0 40 
3 *1014:10 *1627:A 44.8576 
*END

*D_NET *1015 0.00307859
*CONN
*I *1685:A0 I *D sg13g2_mux2_1
*I *1625:A I *D sg13g2_nor2_1
*I *1882:Q O *D sg13g2_dfrbpq_1
*CAP
1 *1685:A0 0.000158666
2 *1625:A 0.000822854
3 *1882:Q 0.000196331
4 *1015:8 0.00117785
5 *1625:A *1134:43 0
6 *1625:A *1134:71 0
7 *1625:A *1135:87 0.000562459
8 *1685:A0 *1134:71 0
9 *1626:B1 *1625:A 0
10 *1685:S *1685:A0 8.0216e-05
11 *1685:S *1015:8 0
12 *661:12 *1625:A 0
13 *724:23 *1015:8 0
14 *986:8 *1685:A0 8.0216e-05
*RES
1 *1882:Q *1015:8 41.5664 
2 *1015:8 *1625:A 47.5152 
3 *1015:8 *1685:A0 41.3904 
*END

*D_NET *1016 0.0027142
*CONN
*I *1684:A0 I *D sg13g2_mux2_1
*I *1623:A I *D sg13g2_nor2_1
*I *1883:Q O *D sg13g2_dfrbpq_1
*CAP
1 *1684:A0 0
2 *1623:A 0
3 *1883:Q 0.000421384
4 *1016:20 0.000632452
5 *1016:10 0.00105384
6 *1016:20 *1623:B 0.000128663
7 *1016:20 *2263:A 0
8 *1016:20 *1131:73 0
9 *1536:A *1016:20 0.000129163
10 *1684:A1 *1016:20 0.000106392
11 *1888:D *1016:10 0
12 *2149:A *1016:10 0.000242313
13 *987:8 *1016:10 0
*RES
1 *1883:Q *1016:10 23.6432 
2 *1016:10 *1016:20 45.6496 
3 *1016:20 *1623:A 20 
4 *1016:10 *1684:A0 20 
*END

*D_NET *1017 0.00190527
*CONN
*I *1683:A0 I *D sg13g2_mux2_1
*I *1621:A I *D sg13g2_nor2_1
*I *1884:Q O *D sg13g2_dfrbpq_1
*CAP
1 *1683:A0 0.000252469
2 *1621:A 0.000469262
3 *1884:Q 4.57769e-05
4 *1017:8 0.000767508
5 *1621:A *1621:B 8.03585e-05
6 *1621:A *1127:64 0
7 *1621:A *1148:8 0
8 *1621:A *1148:14 0
9 *1621:A *1148:48 0
10 *1017:8 *1148:48 0
11 *180:10 *1621:A 0.000144866
12 *407:26 *1683:A0 0
13 *537:12 *1017:8 0
14 *988:18 *1621:A 0
15 *988:18 *1683:A0 0.000145031
16 *988:18 *1017:8 0
*RES
1 *1884:Q *1017:8 40.5104 
2 *1017:8 *1621:A 44.4528 
3 *1017:8 *1683:A0 42.3056 
*END

*D_NET *1018 0.00218794
*CONN
*I *1443:A I *D sg13g2_buf_1
*I *1808:A I *D sg13g2_xnor2_1
*I *2007:Q O *D sg13g2_dfrbpq_1
*CAP
1 *1443:A 0.00032374
2 *1808:A 0.000458465
3 *2007:Q 0.000311763
4 *1018:8 0.00109397
5 *1808:A *1102:23 0
6 *1808:A *1112:90 0
7 *1808:A *1146:82 0
8 *1018:8 *1102:23 0
9 *1018:8 *1146:90 0
10 *2007:D *1808:A 0
11 *2278:A *1443:A 0
12 *507:27 *1443:A 0
13 *943:8 *1808:A 0
14 *943:14 *1808:A 0
*RES
1 *2007:Q *1018:8 42.6224 
2 *1018:8 *1808:A 44.3472 
3 *1018:8 *1443:A 42.86 
*END

*D_NET *1019 0.00094308
*CONN
*I *1210:A I *D sg13g2_inv_2
*I *2008:Q O *D sg13g2_dfrbpq_1
*CAP
1 *1210:A 0.00015181
2 *2008:Q 0.000198488
3 *1019:8 0.000350298
4 *1651:A *1210:A 0
5 *1652:B1 *1210:A 0
6 *197:10 *1019:8 0
7 *509:21 *1019:8 0
8 *657:14 *1210:A 0.000242483
*RES
1 *2008:Q *1019:8 41.7776 
2 *1019:8 *1210:A 41.3816 
*END

*D_NET *1020 0.00337857
*CONN
*I *1812:B1 I *D sg13g2_o21ai_1
*I *1211:A I *D sg13g2_inv_1
*I *1246:A2 I *D sg13g2_a22oi_1
*I *1639:A2 I *D sg13g2_a21oi_1
*I *2009:Q O *D sg13g2_dfrbpq_1
*CAP
1 *1812:B1 0.000349177
2 *1211:A 0
3 *1246:A2 0
4 *1639:A2 4.70218e-05
5 *2009:Q 0.00071072
6 *1020:27 0.00036893
7 *1020:12 0.000577483
8 *1020:8 0.000523075
9 *1812:B1 *1297:A 0
10 *1812:B1 *1751:A0 0
11 *1812:B1 *1751:S 0
12 *1020:8 *1751:S 0
13 *1212:B *1639:A2 0
14 *1212:B *1020:12 0
15 *1246:A1 *1020:27 0
16 *1271:B *1020:27 0
17 *1472:B *1020:8 0
18 *1639:A1 *1639:A2 8.02267e-05
19 *1639:A1 *1020:12 6.40047e-05
20 *1639:B1 *1020:27 0
21 *1646:C *1020:27 8.00842e-05
22 *1810:A *1020:8 0
23 *1810:A *1020:12 0
24 *1811:A *1020:12 0.000144617
25 *1811:B *1020:12 0
26 *1812:A1 *1020:8 0
27 *1813:B *1020:8 0.000242209
28 *1814:A2 *1812:B1 1.54008e-05
29 *163:10 *1020:8 0.000144822
30 *293:8 *1020:8 0
31 *354:19 *1020:27 1.54008e-05
32 *510:43 *1812:B1 1.54008e-05
33 *604:25 *1639:A2 0
*RES
1 *2009:Q *1020:8 23.5552 
2 *1020:8 *1020:12 1.496 
3 *1020:12 *1639:A2 20.4576 
4 *1020:12 *1020:27 42.6576 
5 *1020:27 *1246:A2 20 
6 *1020:8 *1211:A 20 
7 *2009:Q *1812:B1 43.3528 
*END

*D_NET *1021 0.00121141
*CONN
*I *1573:A I *D sg13g2_nor2_1
*I *1476:A I *D sg13g2_inv_1
*I *2010:Q O *D sg13g2_dfrbpq_1
*CAP
1 *1573:A 0
2 *1476:A 0.000101387
3 *2010:Q 0.000302987
4 *1021:10 0.000404374
5 *512:8 *1476:A 7.52158e-05
6 *513:16 *1476:A 0.00018261
7 *513:16 *1021:10 0
8 *514:10 *1476:A 0
9 *514:10 *1021:10 0
10 *578:8 *1021:10 0
11 *578:20 *1021:10 0.000144833
12 *933:10 *1021:10 0
*RES
1 *2010:Q *1021:10 42.552 
2 *1021:10 *1476:A 41.2672 
3 *1021:10 *1573:A 40 
*END

*D_NET *1022 0.000569685
*CONN
*I *1244:A I *D sg13g2_inv_2
*I *2004:Q O *D sg13g2_dfrbpq_1
*CAP
1 *1244:A 0.000284843
2 *2004:Q 0.000284843
3 *749:8 *1244:A 0
*RES
1 *2004:Q *1244:A 42.7368 
*END

*D_NET *1023 0.00336185
*CONN
*I *1245:A I *D sg13g2_inv_1
*I *1798:B I *D sg13g2_nand3_1
*I *1799:A1 I *D sg13g2_o21ai_1
*I *1643:A2 I *D sg13g2_a21oi_2
*I *1712:B I *D sg13g2_nand2_1
*I *2005:Q O *D sg13g2_dfrbpq_1
*CAP
1 *1245:A 3.9423e-05
2 *1798:B 0
3 *1799:A1 2.81382e-05
4 *1643:A2 8.18746e-05
5 *1712:B 0
6 *2005:Q 3.34444e-05
7 *1023:32 0.000157783
8 *1023:24 0.000350614
9 *1023:22 0.00025621
10 *1023:14 0.000356377
11 *1023:8 0.000312129
12 *1245:A *1097:69 0.000107631
13 *1023:14 *1097:69 0.00018387
14 *1638:A *1023:14 0.000209637
15 *1712:A *1023:32 0
16 *1799:B1 *1799:A1 0
17 *1799:B1 *1023:24 0
18 *1799:A2 *1023:22 0.000288058
19 *2159:A *1023:32 0
20 *188:8 *1643:A2 0
21 *188:8 *1023:8 4.77425e-05
22 *188:8 *1023:14 0
23 *193:12 *1023:14 8.01612e-05
24 *193:12 *1023:22 4.77425e-05
25 *193:12 *1023:24 0
26 *194:20 *1023:14 0.000321618
27 *194:20 *1023:22 1.54008e-05
28 *288:8 *1023:22 0.000235975
29 *615:20 *1643:A2 0
30 *615:20 *1799:A1 3.21954e-05
31 *615:20 *1023:24 0.000175825
32 *615:20 *1023:32 0
*RES
1 *2005:Q *1023:8 40.2728 
2 *1023:8 *1023:14 22.6576 
3 *1023:14 *1023:22 41.628 
4 *1023:22 *1023:24 1.012 
5 *1023:24 *1023:32 41.3904 
6 *1023:32 *1712:B 20 
7 *1023:24 *1643:A2 20.7568 
8 *1023:22 *1799:A1 20.2728 
9 *1023:14 *1798:B 20 
10 *1023:8 *1245:A 40.5104 
*END

*D_NET *1024 0.00113704
*CONN
*I *1648:B I *D sg13g2_nand2_1
*I *1655:A I *D sg13g2_inv_1
*I *2006:Q O *D sg13g2_dfrbpq_1
*CAP
1 *1648:B 9.423e-05
2 *1655:A 0.000173766
3 *2006:Q 8.96622e-05
4 *1024:8 0.000357658
5 *1655:A *1146:45 0.000209648
6 *657:14 *1648:B 0.000212079
*RES
1 *2006:Q *1024:8 40.9328 
2 *1024:8 *1655:A 41.9184 
3 *1024:8 *1648:B 41.2408 
*END

*D_NET *1025 0.000148387
*CONN
*I *1286:A I *D sg13g2_inv_1
*I *1961:Q O *D sg13g2_dfrbpq_1
*CAP
1 *1286:A 7.41935e-05
2 *1961:Q 7.41935e-05
3 *1286:A *2073:D 0
4 *2065:D *1286:A 0
5 *844:58 *1286:A 0
*RES
1 *1961:Q *1286:A 40.7832 
*END

*D_NET *1026 0.00308265
*CONN
*I *1355:B I *D sg13g2_nor2_1
*I *1462:A1 I *D sg13g2_mux2_1
*I *1947:Q O *D sg13g2_dfrbpq_1
*CAP
1 *1355:B 9.94336e-05
2 *1462:A1 0.000702357
3 *1947:Q 2.93651e-05
4 *1026:8 0.000831156
5 *1355:B *1113:50 0.000235055
6 *1462:A1 *1113:50 0.000234726
7 *1356:A2 *1355:B 0
8 *1356:A2 *1462:A1 0
9 *1356:B1 *1026:8 0
10 *1422:A *1462:A1 0.000396398
11 *1423:A1 *1462:A1 0
12 *61:8 *1462:A1 0
13 *495:10 *1462:A1 0
14 *907:21 *1026:8 0
15 *907:25 *1462:A1 0
16 *907:29 *1462:A1 0.000554164
*RES
1 *1947:Q *1026:8 40.2728 
2 *1026:8 *1462:A1 47.6912 
3 *1026:8 *1355:B 41.2056 
*END

*D_NET *1027 0.00286901
*CONN
*I *1461:A1 I *D sg13g2_mux2_1
*I *1790:B I *D sg13g2_nor2_1
*I *1948:Q O *D sg13g2_dfrbpq_1
*CAP
1 *1461:A1 0
2 *1790:B 0.000408822
3 *1948:Q 6.16766e-05
4 *1027:27 0.000932437
5 *1027:6 0.00140294
6 *1355:A *1790:B 1.54008e-05
7 *1424:A *1790:B 0
8 *1461:S *1027:27 0
9 *1463:A0 *1790:B 0
10 *1463:A0 *1027:27 0
11 *1791:B1 *1790:B 0
12 *34:8 *1027:27 0
13 *493:25 *1027:27 0
14 *616:8 *1027:27 0
15 *900:44 *1790:B 4.77425e-05
16 *915:72 *1790:B 0
17 *915:72 *1027:27 0
18 *915:87 *1790:B 0
*RES
1 *1948:Q *1027:6 20.4576 
2 *1027:6 *1790:B 23.3616 
3 *1027:6 *1027:27 47.0664 
4 *1027:27 *1461:A1 20 
*END

*D_NET *1028 0.00445876
*CONN
*I *1335:A2 I *D sg13g2_o21ai_1
*I *1460:A1 I *D sg13g2_mux2_1
*I *1949:Q O *D sg13g2_dfrbpq_1
*CAP
1 *1335:A2 0.000596329
2 *1460:A1 0.000634583
3 *1949:Q 0
4 *1028:6 0.00123091
5 *1335:B1 *1335:A2 1.54008e-05
6 *1335:A1 *1335:A2 8.00842e-05
7 *1975:RESET_B *1335:A2 0
8 *1975:CLK *1335:A2 0.00103477
9 *1975:CLK *1460:A1 0.000129163
10 *434:14 *1335:A2 0
11 *477:24 *1460:A1 0
12 *619:21 *1460:A1 0
13 *720:12 *1335:A2 0
14 *720:12 *1460:A1 0
15 *720:49 *1460:A1 0.000555822
16 *919:54 *1335:A2 0.000181694
*RES
1 *1949:Q *1028:6 40 
2 *1028:6 *1460:A1 46.6968 
3 *1028:6 *1335:A2 46.8816 
*END

*D_NET *1029 0.00733867
*CONN
*I *1330:A2 I *D sg13g2_o21ai_1
*I *1459:A1 I *D sg13g2_mux2_1
*I *1950:Q O *D sg13g2_dfrbpq_1
*CAP
1 *1330:A2 0
2 *1459:A1 0.000331225
3 *1950:Q 0
4 *1029:23 0.00128474
5 *1029:6 0.00161597
6 *1029:23 *1114:10 0
7 *1029:23 *1114:32 0
8 *1319:A *1029:23 0
9 *1330:B1 *1029:23 8.02269e-05
10 *1408:A *1459:A1 0.00117485
11 *1408:A *1029:23 0.000342449
12 *1409:A1 *1029:23 0
13 *1415:A *1459:A1 0.00162191
14 *1415:A *1029:23 0.000106894
15 *431:8 *1029:23 0
16 *623:10 *1459:A1 0.000442741
17 *902:8 *1029:23 0.000274491
18 *902:16 *1029:23 0
19 *902:23 *1029:23 4.77537e-05
20 *902:34 *1029:23 1.5412e-05
21 *906:18 *1459:A1 0
22 *911:14 *1029:23 0
23 *911:97 *1029:23 0
*RES
1 *1950:Q *1029:6 40 
2 *1029:6 *1459:A1 46.6968 
3 *1029:6 *1029:23 32.6104 
4 *1029:23 *1330:A2 20 
*END

*D_NET *1030 0.00633645
*CONN
*I *1325:A2 I *D sg13g2_o21ai_1
*I *1458:A1 I *D sg13g2_mux2_1
*I *1951:Q O *D sg13g2_dfrbpq_1
*CAP
1 *1325:A2 0
2 *1458:A1 0.000708799
3 *1951:Q 0.000193438
4 *1030:25 0.00123258
5 *1030:8 0.00213482
6 *1458:A1 *1455:A1 0
7 *1030:8 *1954:CLK 0
8 *1030:25 *1455:A1 0
9 *1030:25 *1033:31 9.5976e-06
10 *1324:A *1030:25 0.000212871
11 *1406:A *1030:8 0
12 *1413:A *1458:A1 0
13 *1413:A *1030:25 0
14 *1414:A1 *1030:25 0.0016202
15 *1455:S *1458:A1 0
16 *486:8 *1030:25 0
17 *901:19 *1030:25 1.54008e-05
18 *901:26 *1030:25 0.000208747
19 *903:38 *1458:A1 0
20 *941:47 *1030:8 0
*RES
1 *1951:Q *1030:8 41.7512 
2 *1030:8 *1458:A1 45.2184 
3 *1030:8 *1030:25 32.2672 
4 *1030:25 *1325:A2 20 
*END

*D_NET *1031 0.00520538
*CONN
*I *1844:A2 I *D sg13g2_o21ai_1
*I *1457:A1 I *D sg13g2_mux2_1
*I *1952:Q O *D sg13g2_dfrbpq_1
*CAP
1 *1844:A2 0.00101136
2 *1457:A1 0.000686797
3 *1952:Q 0
4 *1031:6 0.00169816
5 *1457:A1 *1955:CLK 0
6 *1457:A1 *1118:8 0
7 *1844:A2 *1113:28 0
8 *1457:A0 *1457:A1 1.54556e-05
9 *1844:A1 *1844:A2 1.54008e-05
10 *1952:RESET_B *1457:A1 0
11 *1981:RESET_B *1844:A2 0
12 *2087:A *1844:A2 0
13 *312:10 *1844:A2 0
14 *625:25 *1457:A1 0.00169802
15 *728:14 *1457:A1 0
16 *728:14 *1844:A2 0
17 *911:42 *1457:A1 0
18 *927:85 *1457:A1 8.0194e-05
*RES
1 *1952:Q *1031:6 40 
2 *1031:6 *1457:A1 47.304 
3 *1031:6 *1844:A2 47.9376 
*END

*D_NET *1032 0.00512536
*CONN
*I *1320:A2 I *D sg13g2_o21ai_1
*I *1456:A1 I *D sg13g2_mux2_1
*I *1953:Q O *D sg13g2_dfrbpq_1
*CAP
1 *1320:A2 0.00113661
2 *1456:A1 0.000524368
3 *1953:Q 0
4 *1032:6 0.00166097
5 *1320:A1 *1320:A2 4.77425e-05
6 *1329:A *1320:A2 0
7 *1409:A1 *1320:A2 0
8 *1416:A1 *1320:A2 0
9 *1950:CLK *1456:A1 0.000501874
10 *29:8 *1320:A2 0
11 *32:8 *1320:A2 0.000235228
12 *423:8 *1320:A2 0
13 *477:30 *1456:A1 0.000448427
14 *491:10 *1320:A2 0
15 *491:10 *1456:A1 0.000287758
16 *902:34 *1320:A2 4.77425e-05
17 *902:42 *1320:A2 0.00023464
*RES
1 *1953:Q *1032:6 40 
2 *1032:6 *1456:A1 46.6968 
3 *1032:6 *1320:A2 49.8384 
*END

*D_NET *1033 0.00436344
*CONN
*I *1315:A2 I *D sg13g2_o21ai_1
*I *1455:A1 I *D sg13g2_mux2_1
*I *1954:Q O *D sg13g2_dfrbpq_1
*CAP
1 *1315:A2 0
2 *1455:A1 0.000831098
3 *1954:Q 3.43818e-05
4 *1033:31 0.00128286
5 *1033:8 0.00214834
6 *1314:B *1033:31 9.63175e-06
7 *1315:B1 *1033:31 0
8 *1406:A *1455:A1 0
9 *1413:B *1033:8 0
10 *1455:S *1455:A1 0
11 *1458:A1 *1455:A1 0
12 *427:10 *1033:31 0
13 *428:8 *1033:31 0
14 *901:26 *1033:31 0
15 *903:38 *1455:A1 0
16 *941:36 *1033:8 4.7526e-05
17 *1030:25 *1455:A1 0
18 *1030:25 *1033:31 9.5976e-06
*RES
1 *1954:Q *1033:8 40.2728 
2 *1033:8 *1455:A1 46.8816 
3 *1033:8 *1033:31 31.5016 
4 *1033:31 *1315:A2 20 
*END

*D_NET *1034 0.00520498
*CONN
*I *1310:A2 I *D sg13g2_o21ai_1
*I *1454:A1 I *D sg13g2_mux2_1
*I *1955:Q O *D sg13g2_dfrbpq_1
*CAP
1 *1310:A2 0
2 *1454:A1 0.000587871
3 *1955:Q 0.000123953
4 *1034:23 0.00100541
5 *1034:8 0.00171724
6 *1034:23 *1114:53 0.000995495
7 *1457:S *1454:A1 0.000775005
8 *622:8 *1454:A1 0
9 *625:25 *1454:A1 0
10 *927:85 *1034:8 0
*RES
1 *1955:Q *1034:8 41.012 
2 *1034:8 *1454:A1 45.7904 
3 *1034:8 *1034:23 30.4984 
4 *1034:23 *1310:A2 20 
*END

*D_NET *1035 0.00449194
*CONN
*I *1848:A2 I *D sg13g2_o21ai_1
*I *1453:A1 I *D sg13g2_mux2_1
*I *1956:Q O *D sg13g2_dfrbpq_1
*CAP
1 *1848:A2 0.000952511
2 *1453:A1 0.000532554
3 *1956:Q 0
4 *1035:6 0.00148506
5 *1453:A1 *1118:87 0.000449344
6 *1848:A2 *1118:87 0
7 intr_gpio_o[2] *1453:A1 0.000928904
8 *1402:A *1453:A1 0
9 *1402:A *1848:A2 0
10 *1402:B *1848:A2 0
11 *1403:A1 *1848:A2 0
12 *1405:A1 *1848:A2 0
13 *1453:A0 *1453:A1 4.78853e-05
14 *1847:A *1848:A2 0
15 *1847:B *1848:A2 0
16 *1848:B1 *1848:A2 8.02269e-05
17 *1956:D *1453:A1 0
18 *580:38 *1848:A2 1.54556e-05
19 *728:14 *1453:A1 0
20 *728:14 *1848:A2 0
21 *939:47 *1848:A2 0
*RES
1 *1956:Q *1035:6 40 
2 *1035:6 *1453:A1 46.9696 
3 *1035:6 *1848:A2 48.7824 
*END

*D_NET *1036 0.00384274
*CONN
*I *1288:C I *D sg13g2_nand3_1
*I *1446:A1 I *D sg13g2_mux2_1
*I *1962:Q O *D sg13g2_dfrbpq_1
*CAP
1 *1288:C 0.000779566
2 *1446:A1 0.000507256
3 *1962:Q 5.87437e-05
4 *1036:10 0.00134557
5 *1288:C *1288:B 0
6 *1288:C *1289:C 0.000144942
7 *1288:C *1289:A 0
8 *1288:C *1047:26 4.76053e-05
9 *1288:C *1048:10 0.00027466
10 *1288:C *1095:53 0
11 *1446:A1 *1962:CLK 0.000556237
12 *1036:10 *1962:CLK 0.00012816
13 *1289:B *1288:C 0
14 *2068:D *1288:C 0
15 *721:42 *1288:C 0
16 *844:58 *1288:C 0
17 *844:58 *1036:10 0
18 *925:58 *1446:A1 0
*RES
1 *1962:Q *1036:10 40.7832 
2 *1036:10 *1446:A1 46.0016 
3 *1036:10 *1288:C 47.0664 
*END

*D_NET *1037 0.00345792
*CONN
*I *1350:A2 I *D sg13g2_o21ai_1
*I *1452:A1 I *D sg13g2_mux2_1
*I *1957:Q O *D sg13g2_dfrbpq_1
*CAP
1 *1350:A2 0.00096461
2 *1452:A1 0.000732749
3 *1957:Q 0
4 *1037:6 0.00169736
5 *1350:A2 *1983:CLK 0
6 *1350:A2 *1118:58 0
7 *1452:A1 *1957:CLK 0
8 *1452:A1 *1118:58 0
9 *1350:B1 *1350:A2 4.7803e-05
10 *1350:A1 *1350:A2 1.54008e-05
11 *1957:D *1452:A1 0
12 *2122:A *1350:A2 0
13 *446:8 *1350:A2 0
14 *446:14 *1350:A2 0
15 *628:14 *1350:A2 0
16 *628:14 *1452:A1 0
17 *927:66 *1452:A1 0
18 *927:85 *1452:A1 0
19 *939:57 *1350:A2 0
*RES
1 *1957:Q *1037:6 40 
2 *1037:6 *1452:A1 46.5912 
3 *1037:6 *1350:A2 48.2544 
*END

*D_NET *1038 0.00468751
*CONN
*I *1345:A2 I *D sg13g2_o21ai_1
*I *1451:A1 I *D sg13g2_mux2_1
*I *1958:Q O *D sg13g2_dfrbpq_1
*CAP
1 *1345:A2 0
2 *1451:A1 0.000765583
3 *1958:Q 3.20407e-05
4 *1038:25 0.00100161
5 *1038:8 0.00179924
6 *1345:B1 *1038:25 8.00842e-05
7 *1345:A1 *1038:25 0.000112426
8 *1397:A *1451:A1 0
9 *1397:A *1038:25 0
10 *1398:A1 *1038:25 0
11 *1402:A *1451:A1 0
12 *1402:B *1038:25 0
13 *1403:A1 *1038:25 0
14 *1847:A *1038:25 0
15 *316:10 *1038:25 0
16 *443:10 *1038:25 0.00023464
17 *903:23 *1451:A1 0
18 *919:8 *1038:25 0.000661887
19 *939:21 *1038:8 0
*RES
1 *1958:Q *1038:8 40.2728 
2 *1038:8 *1451:A1 46.8816 
3 *1038:8 *1038:25 30.2344 
4 *1038:25 *1345:A2 20 
*END

*D_NET *1039 0.00514776
*CONN
*I *1340:A2 I *D sg13g2_o21ai_1
*I *1450:A1 I *D sg13g2_mux2_1
*I *1959:Q O *D sg13g2_dfrbpq_1
*CAP
1 *1340:A2 0.000405231
2 *1450:A1 0.000561924
3 *1959:Q 0
4 *1039:6 0.000967155
5 *1340:B1 *1340:A2 8.02924e-05
6 *1395:A *1450:A1 0
7 *2089:A *1450:A1 7.99179e-05
8 *2122:A *1340:A2 0.000448099
9 *438:12 *1340:A2 0
10 *446:14 *1340:A2 0
11 *446:14 *1450:A1 0
12 *579:28 *1340:A2 0
13 *579:39 *1340:A2 0
14 *579:52 *1340:A2 8.02924e-05
15 *579:62 *1340:A2 1.54556e-05
16 *628:14 *1450:A1 0
17 *925:68 *1450:A1 0.000767865
18 *925:81 *1450:A1 0.000501874
19 *925:92 *1340:A2 0.000426746
20 *925:92 *1450:A1 7.52158e-05
21 *927:55 *1450:A1 0
22 *939:8 *1340:A2 0.000266907
23 *939:12 *1340:A2 0.000289002
24 *939:12 *1450:A1 0.000181781
*RES
1 *1959:Q *1039:6 40 
2 *1039:6 *1450:A1 46.8816 
3 *1039:6 *1340:A2 45.6144 
*END

*D_NET *1040 0.00323031
*CONN
*I *1840:A2 I *D sg13g2_o21ai_1
*I *1449:A1 I *D sg13g2_mux2_1
*I *1960:Q O *D sg13g2_dfrbpq_1
*CAP
1 *1840:A2 0.000771838
2 *1449:A1 0.000593251
3 *1960:Q 0.000202323
4 *1040:8 0.00156741
5 *1393:A *1449:A1 0
6 *1394:A2 *1040:8 0
7 *1394:B1 *1040:8 0
8 *1840:B1 *1840:A2 1.54008e-05
9 *1840:A1 *1840:A2 8.00842e-05
10 *719:55 *1040:8 0
11 *844:84 *1040:8 0
12 *925:58 *1449:A1 0
13 *927:27 *1449:A1 0
*RES
1 *1960:Q *1040:8 41.7512 
2 *1040:8 *1449:A1 45.6408 
3 *1040:8 *1840:A2 46.248 
*END

*D_NET *1041 0.0022029
*CONN
*I *1288:B I *D sg13g2_nand3_1
*I *1445:A1 I *D sg13g2_mux2_1
*I *1963:Q O *D sg13g2_dfrbpq_1
*CAP
1 *1288:B 0.000168466
2 *1445:A1 0.0005475
3 *1963:Q 3.61014e-05
4 *1041:8 0.000752068
5 *1288:B *1289:A 0
6 *1288:B *1048:10 0
7 *1445:A1 *1388:A1 0
8 *1041:8 *1988:CLK 0
9 *1041:8 *1048:10 0
10 *1288:C *1288:B 0
11 *1288:A *1288:B 4.78524e-05
12 *505:44 *1445:A1 0
13 *719:29 *1445:A1 0.000235228
14 *925:24 *1445:A1 7.34783e-05
15 *927:10 *1445:A1 0.00034221
*RES
1 *1963:Q *1041:8 40.2728 
2 *1041:8 *1445:A1 46.424 
3 *1041:8 *1288:B 41.628 
*END

*D_NET *1042 0.00206555
*CONN
*I *1242:A2 I *D sg13g2_o21ai_1
*I *1471:A1 I *D sg13g2_mux2_1
*I *1938:Q O *D sg13g2_dfrbpq_1
*CAP
1 *1242:A2 4.52895e-05
2 *1471:A1 0.000414307
3 *1938:Q 0.000429069
4 *1042:10 0.000888665
5 *1242:A2 *1242:A1 1.54008e-05
6 *1471:A1 *1143:33 0
7 *1242:B1 *1242:A2 8.0216e-05
8 *1439:A0 *1242:A2 0
9 *1440:A0 *1471:A1 4.79124e-05
10 *1469:A0 *1042:10 0.000144691
11 *1938:D *1471:A1 0
12 *43:10 *1471:A1 0
13 *474:18 *1471:A1 0
14 *474:18 *1042:10 0
15 *505:81 *1042:10 0
*RES
1 *1938:Q *1042:10 43.2384 
2 *1042:10 *1471:A1 43.3176 
3 *1042:10 *1242:A2 40.4576 
*END

*D_NET *1043 0.00145976
*CONN
*I *1470:A1 I *D sg13g2_mux2_1
*I *1242:A1 I *D sg13g2_o21ai_1
*I *1939:Q O *D sg13g2_dfrbpq_1
*CAP
1 *1470:A1 0.000255634
2 *1242:A1 0.000260925
3 *1939:Q 0.00019792
4 *1043:8 0.000714478
5 *1242:A2 *1242:A1 1.54008e-05
6 *1439:A0 *1242:A1 0
7 *1470:A0 *1470:A1 1.54008e-05
8 *1470:S *1470:A1 0
9 *474:18 *1242:A1 0
10 *474:18 *1043:8 0
11 *505:81 *1242:A1 0
12 *652:24 *1043:8 0
13 *707:14 *1242:A1 0
14 *707:14 *1470:A1 0
*RES
1 *1939:Q *1043:8 41.7776 
2 *1043:8 *1242:A1 42.3144 
3 *1043:8 *1470:A1 41.936 
*END

*D_NET *1044 0.00469462
*CONN
*I *1469:A1 I *D sg13g2_mux2_1
*I *1267:B I *D sg13g2_nor2_1
*I *1940:Q O *D sg13g2_dfrbpq_1
*CAP
1 *1469:A1 0
2 *1267:B 0.000178077
3 *1940:Q 0.00111811
4 *1044:19 0.000446329
5 *1044:6 0.00174251
6 *1267:B *1079:62 0
7 *1044:6 *2018:CLK 0
8 *1044:6 *1079:62 0
9 *1044:6 *1143:78 0
10 *1044:6 *1147:35 0
11 *1044:19 *1112:49 0
12 *1268:B1 *1267:B 1.54008e-05
13 *1269:A *1267:B 0
14 *2018:RESET_B *1044:19 0
15 *378:10 *1044:6 0
16 *475:43 *1044:19 0
17 *913:16 *1044:19 0.000905607
18 *913:18 *1044:19 0.000288589
*RES
1 *1940:Q *1044:6 28.2192 
2 *1044:6 *1267:B 21.3816 
3 *1044:6 *1044:19 44.7344 
4 *1044:19 *1469:A1 20 
*END

*D_NET *1045 0.00367455
*CONN
*I *1264:B I *D sg13g2_nor2_1
*I *1816:A1 I *D sg13g2_mux2_1
*I *1863:Q O *D sg13g2_dfrbpq_1
*CAP
1 *1264:B 8.60915e-05
2 *1816:A1 0.000409453
3 *1863:Q 3.34444e-05
4 *1045:8 0.000528989
5 *1816:A1 *1147:48 0.000554577
6 *1818:A1 *1816:A1 0
7 *363:12 *1264:B 0.000213353
8 *363:12 *1816:A1 0.0016196
9 *378:10 *1264:B 0.000181298
10 *378:10 *1045:8 4.77425e-05
*RES
1 *1863:Q *1045:8 40.2728 
2 *1045:8 *1816:A1 46.424 
3 *1045:8 *1264:B 41.2056 
*END

*D_NET *1046 0.00619797
*CONN
*I *1289:D I *D sg13g2_nand4_1
*I *1292:A2 I *D sg13g2_a21oi_1
*I *1390:A1 I *D sg13g2_mux2_1
*I *1987:Q O *D sg13g2_dfrbpq_1
*CAP
1 *1289:D 0
2 *1292:A2 0
3 *1390:A1 0.000776274
4 *1987:Q 5.4686e-05
5 *1046:40 0.000421489
6 *1046:27 0.000928945
7 *1046:8 0.00133842
8 *1390:A1 *1095:77 0
9 *1046:8 *1095:77 0
10 *1046:27 *1961:CLK 0
11 *1046:27 *1987:CLK 0
12 *1046:40 *1289:A 0
13 *1046:40 *1095:53 0.000234224
14 *1287:A *1046:27 0
15 *1288:A *1046:40 0
16 *1289:B *1046:40 0.000181192
17 *1447:A *1390:A1 0
18 *1987:RESET_B *1390:A1 0
19 *1987:D *1390:A1 0
20 *396:8 *1046:27 0.000209593
21 *505:18 *1390:A1 0
22 *721:42 *1046:40 0.000549825
23 *721:59 *1046:40 7.51285e-05
24 *844:28 *1390:A1 0
25 *844:58 *1046:27 0.0008298
26 *844:58 *1046:40 0.000598395
27 *925:12 *1390:A1 0
28 *925:12 *1046:8 0
*RES
1 *1987:Q *1046:8 40.5104 
2 *1046:8 *1390:A1 47.3832 
3 *1046:8 *1046:27 25.0952 
4 *1046:27 *1292:A2 20 
5 *1046:27 *1046:40 44.7696 
6 *1046:40 *1289:D 20 
*END

*D_NET *1047 0.0025417
*CONN
*I *1389:A1 I *D sg13g2_mux2_1
*I *1289:C I *D sg13g2_nand4_1
*I *1988:Q O *D sg13g2_dfrbpq_1
*CAP
1 *1389:A1 0.000136127
2 *1289:C 0.000170606
3 *1988:Q 0.00081217
4 *1047:26 0.000777692
5 *1289:C *1289:A 0
6 *1289:C *1095:53 0
7 *1288:C *1289:C 0.000144942
8 *1288:C *1047:26 4.76053e-05
9 *1289:B *1289:C 4.7803e-05
10 *1446:A0 *1389:A1 1.54008e-05
11 *1988:D *1389:A1 0
12 *607:12 *1389:A1 0.00020816
13 *719:12 *1389:A1 0
14 *844:58 *1289:C 0
15 *864:8 *1047:26 0.000181192
16 *925:58 *1047:26 0
*RES
1 *1988:Q *1289:C 41.584 
2 *1988:Q *1047:26 46.6968 
3 *1047:26 *1389:A1 41.1968 
*END

*D_NET *1048 0.00297635
*CONN
*I *1289:A I *D sg13g2_nand4_1
*I *1388:A1 I *D sg13g2_mux2_1
*I *1989:Q O *D sg13g2_dfrbpq_1
*CAP
1 *1289:A 0.000253898
2 *1388:A1 0.000647997
3 *1989:Q 0.000315231
4 *1048:10 0.00121713
5 *1048:10 *1988:CLK 0
6 *1288:B *1289:A 0
7 *1288:B *1048:10 0
8 *1288:C *1289:A 0
9 *1288:C *1048:10 0.00027466
10 *1288:A *1048:10 0
11 *1289:B *1289:A 0.000128662
12 *1289:C *1289:A 0
13 *1388:A0 *1388:A1 1.54008e-05
14 *1445:A1 *1388:A1 0
15 *398:8 *1289:A 7.56299e-05
16 *719:14 *1388:A1 0
17 *719:29 *1388:A1 0
18 *721:42 *1289:A 4.77425e-05
19 *844:58 *1289:A 0
20 *927:10 *1388:A1 0
21 *1041:8 *1048:10 0
22 *1046:40 *1289:A 0
*RES
1 *1989:Q *1048:10 42.9744 
2 *1048:10 *1388:A1 46.4592 
3 *1048:10 *1289:A 42.4816 
*END

*D_NET *1049 0.000312733
*CONN
*I *1304:A I *D sg13g2_inv_1
*I *1967:Q O *D sg13g2_dfrbpq_1
*CAP
1 *1304:A 0.000110941
2 *1967:Q 0.000110941
3 *410:16 *1304:A 9.08521e-05
4 *727:20 *1304:A 0
*RES
1 *1967:Q *1304:A 41.056 
*END

*D_NET *1050 0.000854083
*CONN
*I *1300:A I *D sg13g2_inv_1
*I *1968:Q O *D sg13g2_dfrbpq_1
*CAP
1 *1300:A 0.000350029
2 *1968:Q 7.70123e-05
3 *1050:8 0.000427042
4 *1300:A *1301:B 0
5 intr_gpio_o[1] *1300:A 0
6 *1968:CLK *1300:A 0
7 *727:20 *1300:A 0
8 *909:54 *1050:8 0
*RES
1 *1968:Q *1050:8 40.7216 
2 *1050:8 *1300:A 42.86 
*END

*D_NET *1051 0.000346884
*CONN
*I *1238:A I *D sg13g2_inv_1
*I *1969:Q O *D sg13g2_dfrbpq_1
*CAP
1 *1238:A 0.000173442
2 *1969:Q 0.000173442
3 *1239:A *1238:A 0
4 *1299:A0 *1238:A 0
5 *1357:A *1238:A 0
6 *2303:A *1238:A 0
*RES
1 *1969:Q *1238:A 41.1968 
*END

*D_NET *1052 0.000338865
*CONN
*I *1428:A I *D sg13g2_inv_1
*I *1970:Q O *D sg13g2_dfrbpq_1
*CAP
1 *1428:A 0.000169432
2 *1970:Q 0.000169432
3 *2123:A *1428:A 0
4 *714:80 *1428:A 0
*RES
1 *1970:Q *1428:A 41.496 
*END

*D_NET *1053 0.000466142
*CONN
*I *1366:A I *D sg13g2_inv_1
*I *1971:Q O *D sg13g2_dfrbpq_1
*CAP
1 *1366:A 0.000233071
2 *1971:Q 0.000233071
3 *1368:A1 *1366:A 0
4 *461:8 *1366:A 0
5 *920:73 *1366:A 0
*RES
1 *1971:Q *1366:A 42.1912 
*END

*D_NET *1054 0.00108811
*CONN
*I *1360:A I *D sg13g2_inv_1
*I *1972:Q O *D sg13g2_dfrbpq_1
*CAP
1 *1360:A 0
2 *1972:Q 0.000423049
3 *1054:10 0.000423049
4 *1971:RESET_B *1054:10 0
5 *1971:D *1054:10 0.000242017
6 *285:10 *1054:10 0
7 *458:8 *1054:10 0
*RES
1 *1972:Q *1054:10 43.3704 
2 *1054:10 *1360:A 40 
*END

*D_NET *1055 0.00132439
*CONN
*I *1468:A1 I *D sg13g2_mux2_1
*I *1305:B I *D sg13g2_nor2_1
*I *1941:Q O *D sg13g2_dfrbpq_1
*CAP
1 *1468:A1 0
2 *1305:B 9.25586e-05
3 *1941:Q 0.000106274
4 *1055:23 0.000427499
5 *1055:6 0.000626331
6 *1055:23 *2223:A 0
7 *1305:A *1305:B 8.58762e-06
8 *1306:B1 *1305:B 0
9 *1468:A0 *1055:23 1.54008e-05
10 *1942:CLK *1055:23 0
11 *411:12 *1055:23 0
12 *582:64 *1055:6 0
13 *612:12 *1055:23 4.77425e-05
14 *727:20 *1055:6 0
*RES
1 *1941:Q *1055:6 20.8272 
2 *1055:6 *1305:B 20.7568 
3 *1055:6 *1055:23 43.3176 
4 *1055:23 *1468:A1 20 
*END

*D_NET *1056 0.000826191
*CONN
*I *1354:A I *D sg13g2_inv_1
*I *1973:Q O *D sg13g2_dfrbpq_1
*CAP
1 *1354:A 0.00014565
2 *1973:Q 0.000146377
3 *1056:8 0.000292027
4 *1356:A2 *1056:8 0
5 *1423:A1 *1056:8 0
6 *453:8 *1056:8 0
7 *721:110 *1354:A 0
8 *907:21 *1354:A 0.000242137
*RES
1 *1973:Q *1056:8 41.3552 
2 *1056:8 *1354:A 41.3816 
*END

*D_NET *1057 0.000900053
*CONN
*I *1419:A I *D sg13g2_inv_1
*I *1974:Q O *D sg13g2_dfrbpq_1
*CAP
1 *1419:A 0.000137393
2 *1974:Q 7.42366e-05
3 *1057:8 0.00021163
4 *477:80 *1419:A 0
5 *493:6 *1419:A 1.54556e-05
6 *493:25 *1419:A 0.000226698
7 *915:72 *1057:8 0.00023464
*RES
1 *1974:Q *1057:8 40.9328 
2 *1057:8 *1419:A 41.3816 
*END

*D_NET *1058 0.000159356
*CONN
*I *1333:A I *D sg13g2_inv_1
*I *1975:Q O *D sg13g2_dfrbpq_1
*CAP
1 *1333:A 7.96782e-05
2 *1975:Q 7.96782e-05
3 *1334:B *1333:A 0
4 *902:53 *1333:A 0
*RES
1 *1975:Q *1333:A 40.7832 
*END

*D_NET *1059 0.000161475
*CONN
*I *1328:A I *D sg13g2_inv_1
*I *1976:Q O *D sg13g2_dfrbpq_1
*CAP
1 *1328:A 8.07374e-05
2 *1976:Q 8.07374e-05
*RES
1 *1976:Q *1328:A 40.7832 
*END

*D_NET *1060 0.000158556
*CONN
*I *1323:A I *D sg13g2_inv_1
*I *1977:Q O *D sg13g2_dfrbpq_1
*CAP
1 *1323:A 7.92781e-05
2 *1977:Q 7.92781e-05
3 *1323:A *1113:28 0
4 *1314:B *1323:A 0
*RES
1 *1977:Q *1323:A 40.7832 
*END

*D_NET *1061 0.000317092
*CONN
*I *1410:A I *D sg13g2_inv_1
*I *1978:Q O *D sg13g2_dfrbpq_1
*CAP
1 *1410:A 3.03288e-05
2 *1978:Q 4.02223e-05
3 *1061:8 7.05511e-05
4 *1410:A *1113:28 4.77425e-05
5 *1412:A1 *1061:8 0.000128247
*RES
1 *1978:Q *1061:8 40.5104 
2 *1061:8 *1410:A 40.2728 
*END

*D_NET *1062 0.00045129
*CONN
*I *1318:A I *D sg13g2_inv_1
*I *1979:Q O *D sg13g2_dfrbpq_1
*CAP
1 *1318:A 0.000153089
2 *1979:Q 0.000153089
3 *1318:A *1113:22 0
4 *1318:A *1113:28 0
5 *422:8 *1318:A 0.000145113
6 *902:8 *1318:A 0
*RES
1 *1979:Q *1318:A 41.3816 
*END

*D_NET *1063 0.000330965
*CONN
*I *1313:A I *D sg13g2_inv_1
*I *1980:Q O *D sg13g2_dfrbpq_1
*CAP
1 *1313:A 0.000165482
2 *1980:Q 0.000165482
3 *1313:A *1113:28 0
4 *427:10 *1313:A 0
*RES
1 *1980:Q *1313:A 41.1968 
*END

*D_NET *1064 0.000168228
*CONN
*I *1308:A I *D sg13g2_inv_1
*I *1981:Q O *D sg13g2_dfrbpq_1
*CAP
1 *1308:A 8.41142e-05
2 *1981:Q 8.41142e-05
*RES
1 *1981:Q *1308:A 40.7832 
*END

*D_NET *1065 0.00035819
*CONN
*I *1401:A I *D sg13g2_inv_1
*I *1982:Q O *D sg13g2_dfrbpq_1
*CAP
1 *1401:A 0.000179095
2 *1982:Q 0.000179095
3 *1847:B *1401:A 0
4 *919:12 *1401:A 0
*RES
1 *1982:Q *1401:A 41.6808 
*END

*D_NET *1066 0.00306254
*CONN
*I *1301:B I *D sg13g2_nor2_1
*I *1467:A1 I *D sg13g2_mux2_1
*I *1942:Q O *D sg13g2_dfrbpq_1
*CAP
1 *1301:B 0.000120946
2 *1467:A1 0.000514472
3 *1942:Q 6.84997e-05
4 *1066:10 0.000703918
5 *1301:B *1165:10 0
6 *1300:A *1301:B 0
7 *1302:B1 *1301:B 1.54008e-05
8 *1434:A1 *1467:A1 0
9 *1434:A1 *1066:10 0
10 *285:10 *1467:A1 0.00151114
11 *285:10 *1066:10 0.00012816
12 *458:8 *1467:A1 0
13 *909:60 *1301:B 0
14 *920:73 *1467:A1 0
*RES
1 *1942:Q *1066:10 40.7832 
2 *1066:10 *1467:A1 46.4592 
3 *1066:10 *1301:B 41.012 
*END

*D_NET *1067 0.000145155
*CONN
*I *1348:A I *D sg13g2_inv_1
*I *1983:Q O *D sg13g2_dfrbpq_1
*CAP
1 *1348:A 7.25777e-05
2 *1983:Q 7.25777e-05
3 *1575:A *1348:A 0
4 *2122:A *1348:A 0
5 *579:52 *1348:A 0
*RES
1 *1983:Q *1348:A 40.7832 
*END

*D_NET *1068 0.000524975
*CONN
*I *1343:A I *D sg13g2_inv_1
*I *1984:Q O *D sg13g2_dfrbpq_1
*CAP
1 *1343:A 0.000158412
2 *1984:Q 0.000158412
3 *1343:A *1098:8 0.000208152
4 *721:82 *1343:A 0
*RES
1 *1984:Q *1343:A 41.496 
*END

*D_NET *1069 0.00152947
*CONN
*I *1338:A I *D sg13g2_inv_1
*I *1985:Q O *D sg13g2_dfrbpq_1
*CAP
1 *1338:A 0.000328922
2 *1985:Q 5.63456e-05
3 *1069:8 0.000385268
4 *1338:A *1392:A 0
5 *1339:A *1338:A 0
6 *1744:A *1338:A 0
7 *1771:A *1069:8 0
8 *1772:S *1338:A 0.000501332
9 *249:14 *1069:8 0
10 *251:14 *1338:A 0.000145053
11 *251:29 *1338:A 0.000112552
*RES
1 *1985:Q *1069:8 40.5104 
2 *1069:8 *1338:A 43.3704 
*END

*D_NET *1070 0.000500577
*CONN
*I *1392:A I *D sg13g2_inv_1
*I *1986:Q O *D sg13g2_dfrbpq_1
*CAP
1 *1392:A 0.000250289
2 *1986:Q 0.000250289
3 *1338:A *1392:A 0
4 *1744:A *1392:A 0
5 *721:59 *1392:A 0
*RES
1 *1986:Q *1392:A 42.2616 
*END

*D_NET *1071 0.00354021
*CONN
*I *1239:B I *D sg13g2_nor2_1
*I *1466:A1 I *D sg13g2_mux2_1
*I *1943:Q O *D sg13g2_dfrbpq_1
*CAP
1 *1239:B 0.00021322
2 *1466:A1 0.00063824
3 *1943:Q 4.13497e-05
4 *1071:8 0.000892809
5 *1239:A *1239:B 1.54008e-05
6 *1943:D *1466:A1 0
7 *2303:A *1239:B 0
8 *283:10 *1466:A1 0.00153557
9 *283:10 *1071:8 0.000107921
10 *582:40 *1239:B 0
11 *612:20 *1466:A1 1.54008e-05
12 *612:30 *1466:A1 8.02924e-05
*RES
1 *1943:Q *1071:8 40.5104 
2 *1071:8 *1466:A1 46.4592 
3 *1071:8 *1239:B 41.8656 
*END

*D_NET *1072 0.00148578
*CONN
*I *1243:A2 I *D sg13g2_o21ai_1
*I *1440:A1 I *D sg13g2_mux2_1
*I *1964:Q O *D sg13g2_dfrbpq_1
*CAP
1 *1243:A2 0
2 *1440:A1 0
3 *1964:Q 0.000371462
4 *1072:18 0.000188948
5 *1072:12 0.000339828
6 *1072:8 0.000522342
7 *1072:12 *1243:B1 4.7803e-05
8 *1072:12 *1073:20 1.54008e-05
9 *1072:12 *1079:27 0
10 *1072:18 *1112:38 0
11 *1819:B *1072:8 0
12 *44:10 *1072:12 0
13 *44:10 *1072:18 0
14 *352:8 *1072:8 0
15 *475:12 *1072:18 0
16 *475:27 *1072:12 0
17 *505:96 *1072:8 0
18 *913:18 *1072:8 0
*RES
1 *1964:Q *1072:8 43.256 
2 *1072:8 *1072:12 21.3816 
3 *1072:12 *1072:18 41.7776 
4 *1072:18 *1440:A1 20 
5 *1072:12 *1243:A2 20 
*END

*D_NET *1073 0.0018099
*CONN
*I *1439:A1 I *D sg13g2_mux2_1
*I *1243:A1 I *D sg13g2_o21ai_1
*I *1965:Q O *D sg13g2_dfrbpq_1
*CAP
1 *1439:A1 0
2 *1243:A1 0
3 *1965:Q 0.000164944
4 *1073:20 0.000232762
5 *1073:12 0.00036198
6 *1073:8 0.000294161
7 *1073:8 *1112:38 0
8 *1073:20 *1079:46 0
9 *1073:20 *1143:23 0
10 *1439:A0 *1073:12 0.000242056
11 *1938:RESET_B *1073:12 0.000241979
12 *1938:RESET_B *1073:20 0.000176642
13 *43:10 *1073:8 0
14 *475:27 *1073:20 7.99797e-05
15 *1072:12 *1073:20 1.54008e-05
*RES
1 *1965:Q *1073:8 41.3552 
2 *1073:8 *1073:12 21.3816 
3 *1073:12 *1073:20 42.0768 
4 *1073:20 *1243:A1 20 
5 *1073:12 *1439:A1 20 
*END

*D_NET *1074 0.000345262
*CONN
*I *1266:A I *D sg13g2_inv_1
*I *1966:Q O *D sg13g2_dfrbpq_1
*CAP
1 *1266:A 0.00016493
2 *1966:Q 0.00016493
3 *1268:A2 *1266:A 1.54008e-05
4 *913:10 *1266:A 0
*RES
1 *1966:Q *1266:A 41.496 
*END

*D_NET *1075 0.000935295
*CONN
*I *1263:A I *D sg13g2_inv_1
*I *1862:Q O *D sg13g2_dfrbpq_1
*CAP
1 *1263:A 6.84928e-05
2 *1862:Q 7.96417e-05
3 *1075:16 0.000297244
4 *1075:8 0.000308393
5 *1075:8 *1265:A1 0.000181524
6 *1075:16 *1265:A1 0
7 *373:14 *1075:8 0
*RES
1 *1862:Q *1075:8 40.7216 
2 *1075:8 *1075:16 41.76 
3 *1075:16 *1263:A 40.4576 
*END

*D_NET *1076 0.00362606
*CONN
*I *1787:B I *D sg13g2_nor2_1
*I *1465:A1 I *D sg13g2_mux2_1
*I *1944:Q O *D sg13g2_dfrbpq_1
*CAP
1 *1787:B 0.000923558
2 *1465:A1 0.000828035
3 *1944:Q 0
4 *1076:6 0.00175159
5 *1430:A1 *1787:B 0
6 *1973:CLK *1787:B 0
7 *282:8 *1787:B 7.49633e-05
8 *613:8 *1465:A1 4.79124e-05
*RES
1 *1944:Q *1076:6 40 
2 *1076:6 *1465:A1 46.6968 
3 *1076:6 *1787:B 47.7264 
*END

*D_NET *1077 0.00156407
*CONN
*I *1367:B I *D sg13g2_nor2_1
*I *1464:A1 I *D sg13g2_mux2_1
*I *1945:Q O *D sg13g2_dfrbpq_1
*CAP
1 *1367:B 0
2 *1464:A1 0.000151851
3 *1945:Q 0.000162174
4 *1077:27 0.000186334
5 *1077:8 0.000500359
6 *1077:27 *1171:10 0
7 *1464:A0 *1464:A1 4.77425e-05
8 *1464:A0 *1077:8 1.54008e-05
9 *63:10 *1077:8 0
10 *63:10 *1077:27 0
11 *614:8 *1077:8 0
12 *915:87 *1077:8 0
13 *915:93 *1077:27 0.000500214
*RES
1 *1945:Q *1077:8 21.496 
2 *1077:8 *1464:A1 21.4256 
3 *1077:8 *1077:27 42.2616 
4 *1077:27 *1367:B 20 
*END

*D_NET *1078 0.00418261
*CONN
*I *1463:A1 I *D sg13g2_mux2_1
*I *1361:B I *D sg13g2_nor2_1
*I *1946:Q O *D sg13g2_dfrbpq_1
*CAP
1 *1463:A1 0
2 *1361:B 0
3 *1946:Q 0.000124989
4 *1078:25 0.000272396
5 *1078:14 0.000340563
6 *1078:6 0.000737948
7 *63:10 *1078:25 0.00103784
8 *900:27 *1078:14 0.000182517
9 *900:38 *1078:25 0
10 *900:71 *1078:14 0.000128742
11 *915:87 *1078:14 0
12 *915:87 *1078:25 0.00135761
*RES
1 *1946:Q *1078:6 21.012 
2 *1078:6 *1078:14 43.2648 
3 *1078:14 *1361:B 20 
4 *1078:6 *1078:25 45.368 
5 *1078:25 *1463:A1 20 
*END

*D_NET *1079 0.0114384
*CONN
*I *1265:A1 I *D sg13g2_a21oi_1
*I *1264:A I *D sg13g2_nor2_1
*I *1267:A I *D sg13g2_nor2_1
*I *1268:A1 I *D sg13g2_a21oi_1
*I *1819:A I *D sg13g2_xnor2_1
*I *1241:A I *D sg13g2_inv_1
*I *1243:B1 I *D sg13g2_o21ai_1
*I *2094:A I *D sg13g2_buf_1
*I *2011:Q O *D sg13g2_dfrbpq_1
*CAP
1 *1265:A1 0.000285498
2 *1264:A 0.00038265
3 *1267:A 0
4 *1268:A1 0
5 *1819:A 0
6 *1241:A 0
7 *1243:B1 9.48346e-05
8 *2094:A 0.000502482
9 *2011:Q 3.59376e-05
10 *1079:80 0.000794809
11 *1079:68 0.000149129
12 *1079:62 0.0011338
13 *1079:58 0.00171079
14 *1079:46 0.000308906
15 *1079:27 0.000908592
16 *1079:25 0.000628162
17 *1079:10 0.000971675
18 *1079:8 0.000981282
19 *1264:A *1147:35 0.00043656
20 *1265:A1 *2275:A 0
21 *1079:25 *1106:27 0
22 *1079:27 *2232:A 0
23 *1079:27 *1106:27 0
24 *1079:46 *1112:38 0
25 *1079:46 *1143:23 0
26 *1079:58 *1862:CLK 0
27 *1079:58 *2275:A 0
28 *1079:58 *1143:84 0
29 *1079:62 *1143:78 0
30 *1079:68 *1112:49 0
31 *1254:A1 *1079:46 0.000144358
32 *1265:A2 *1265:A1 0.000112569
33 *1267:B *1079:62 0
34 *1819:B *1079:25 1.54446e-05
35 *1819:B *1079:27 0.000890533
36 *1819:B *1079:46 4.79124e-05
37 *1940:D *1079:8 0
38 *2011:RESET_B *1079:27 0
39 *2018:RESET_B *1079:62 0
40 *44:10 *1079:27 0
41 *167:10 *2094:A 0
42 *167:10 *1079:10 0
43 *167:10 *1079:25 0
44 *373:14 *1264:A 4.75616e-05
45 *373:14 *1265:A1 0
46 *374:10 *1265:A1 4.77425e-05
47 *378:10 *1264:A 1.54008e-05
48 *401:12 *1265:A1 0
49 *401:12 *2094:A 0
50 *401:12 *1079:10 0
51 *401:12 *1079:58 0
52 *404:30 *1265:A1 7.51285e-05
53 *474:64 *2094:A 0
54 *474:64 *1079:10 0
55 *474:64 *1079:58 0
56 *475:12 *1079:46 0.000342145
57 *475:66 *1079:58 0
58 *707:14 *1079:8 0
59 *713:12 *2094:A 0
60 *721:8 *2094:A 0
61 *861:12 *2094:A 0.000145157
62 *913:16 *1079:68 0
63 *1044:6 *1079:62 0
64 *1072:12 *1243:B1 4.7803e-05
65 *1072:12 *1079:27 0
66 *1073:20 *1079:46 0
67 *1075:8 *1265:A1 0.000181524
68 *1075:16 *1265:A1 0
*RES
1 *2011:Q *1079:8 40.2728 
2 *1079:8 *1079:10 3.0448 
3 *1079:10 *2094:A 44.0832 
4 *1079:10 *1079:25 21.012 
5 *1079:25 *1079:27 5.0776 
6 *1079:27 *1243:B1 20.9944 
7 *1079:27 *1079:46 43.1944 
8 *1079:46 *1241:A 20 
9 *1079:25 *1819:A 20 
10 *1079:8 *1079:58 5.1568 
11 *1079:58 *1079:62 27.6648 
12 *1079:62 *1079:68 41.3552 
13 *1079:68 *1268:A1 20 
14 *1079:62 *1267:A 20 
15 *1079:58 *1079:80 1.144 
16 *1079:80 *1264:A 43.6696 
17 *1079:80 *1265:A1 42.6312 
*END

*D_NET *1080 0.002336
*CONN
*I *1381:A I *D sg13g2_nor2_1
*I *1249:A I *D sg13g2_inv_1
*I *2012:Q O *D sg13g2_dfrbpq_1
*CAP
1 *1381:A 0
2 *1249:A 2.77263e-05
3 *2012:Q 0.000344161
4 *1080:21 0.000207513
5 *1080:6 0.0005794
6 *1080:6 *2016:RESET_B 6.47275e-05
7 *1080:6 *1097:46 0.000209505
8 *1080:6 *1141:56 0
9 *1080:21 *1097:46 0.000339508
10 *1381:B *1080:21 0
11 *400:28 *1080:21 0.000128247
12 *471:10 *1080:21 0.000435211
13 *651:10 *1080:6 0
*RES
1 *2012:Q *1080:6 22.86 
2 *1080:6 *1249:A 20.2992 
3 *1080:6 *1080:21 42.4464 
4 *1080:21 *1381:A 20 
*END

*D_NET *1081 0.00305116
*CONN
*I *1250:A I *D sg13g2_inv_1
*I *1380:A2 I *D sg13g2_a21oi_1
*I *1821:A I *D sg13g2_xnor2_1
*I *2013:Q O *D sg13g2_dfrbpq_1
*CAP
1 *1250:A 0.000220103
2 *1380:A2 0.000199397
3 *1821:A 0.000187966
4 *2013:Q 0.000122913
5 *1081:10 0.000662287
6 *1081:8 0.00061794
7 *1250:A *1097:46 0
8 *1250:A *1141:16 0.000130055
9 *1380:A1 *1380:A2 0.000307002
10 *1821:B *1380:A2 0
11 *1821:B *1821:A 0
12 *2325:A *1380:A2 0
13 *168:8 *1821:A 0.000183828
14 *358:10 *1250:A 4.78521e-05
15 *650:12 *1081:8 0
16 *651:10 *1081:8 0
17 *691:32 *1380:A2 0.000371817
*RES
1 *2013:Q *1081:8 41.012 
2 *1081:8 *1081:10 2.2 
3 *1081:10 *1821:A 41.8392 
4 *1081:10 *1380:A2 42.1208 
5 *1081:8 *1250:A 41.8392 
*END

*D_NET *1082 0.00194399
*CONN
*I *1385:B I *D sg13g2_nand2_1
*I *1441:A I *D sg13g2_inv_1
*I *2014:Q O *D sg13g2_dfrbpq_1
*CAP
1 *1385:B 0
2 *1441:A 0.000178291
3 *2014:Q 0.000359099
4 *1082:12 0.000178291
5 *1082:10 0.000359099
6 *1441:A *1965:CLK 0
7 *1082:10 *1965:CLK 0
8 *1082:10 *1097:120 0
9 *1082:10 *1141:60 0
10 *1471:S *1082:10 0
11 *505:53 *1082:10 0.000660528
12 *691:51 *1082:10 0.00012874
13 *706:20 *1441:A 7.99451e-05
*RES
1 *2014:Q *1082:10 44.004 
2 *1082:10 *1082:12 20 
3 *1082:12 *1441:A 21.936 
4 *1082:12 *1385:B 20 
*END

*D_NET *1083 0.00303633
*CONN
*I *1751:A0 I *D sg13g2_mux2_1
*I *1377:B I *D sg13g2_nand2_1
*I *1990:Q O *D sg13g2_dfrbpq_1
*CAP
1 *1751:A0 0.000144825
2 *1377:B 0.000614123
3 *1990:Q 0.000517061
4 *1083:10 0.00127601
5 *1377:B *1297:A 0.000274583
6 *1377:B *1112:60 0
7 *1751:A0 *1751:A1 0.00020973
8 *1083:10 *1112:60 0
9 *1812:B1 *1751:A0 0
10 *361:49 *1377:B 0
11 *361:49 *1083:10 0
12 *371:8 *1083:10 0
13 *380:10 *1377:B 0
*RES
1 *1990:Q *1083:10 45.2448 
2 *1083:10 *1377:B 45.7992 
3 *1083:10 *1751:A0 41.3816 
*END

*D_NET *1084 0.00291116
*CONN
*I *1751:A1 I *D sg13g2_mux2_1
*I *1824:B I *D sg13g2_nand2_1
*I *1861:Q O *D sg13g2_dfrbpq_1
*CAP
1 *1751:A1 0.000479723
2 *1824:B 0.000489548
3 *1861:Q 0.00034126
4 *1084:8 0.00131053
5 *1751:A1 *1861:RESET_B 0
6 *1751:A1 *1861:CLK 0
7 *1751:A1 *1990:RESET_B 0
8 *1824:B *1107:10 0
9 *1824:B *1112:60 0
10 *1084:8 *1107:10 0
11 *1378:A2 *1824:B 0
12 *1751:A0 *1751:A1 0.00020973
13 *299:12 *1824:B 0
14 *300:8 *1824:B 0
15 *380:10 *1824:B 8.03692e-05
16 *469:10 *1824:B 0
*RES
1 *1861:Q *1084:8 43.4672 
2 *1084:8 *1824:B 44.5584 
3 *1084:8 *1751:A1 44.3384 
*END

*D_NET *1085 0.00322875
*CONN
*I *1751:S I *D sg13g2_mux2_1
*I *1826:A I *D sg13g2_xnor2_1
*I *2015:Q O *D sg13g2_dfrbpq_1
*CAP
1 *1751:S 0.000915477
2 *1826:A 0.000645921
3 *2015:Q 2.90916e-05
4 *1085:8 0.00159049
5 *1826:A *1143:54 0
6 *1812:B1 *1751:S 0
7 *1814:A2 *1751:S 0
8 *163:10 *1751:S 0
9 *163:10 *1826:A 0
10 *293:14 *1751:S 0
11 *360:27 *1826:A 0
12 *361:36 *1085:8 0
13 *400:22 *1085:8 4.77699e-05
14 *406:16 *1826:A 0
15 *406:43 *1751:S 0
16 *690:10 *1751:S 0
17 *793:17 *1826:A 0
18 *1020:8 *1751:S 0
*RES
1 *2015:Q *1085:8 40.2728 
2 *1085:8 *1826:A 46.424 
3 *1085:8 *1751:S 47.8144 
*END

*D_NET *1086 0.00431318
*CONN
*I *1831:A I *D sg13g2_nor3_1
*I *1375:A I *D sg13g2_xnor2_1
*I *1248:A I *D sg13g2_inv_1
*I *2016:Q O *D sg13g2_dfrbpq_1
*CAP
1 *1831:A 3.08544e-05
2 *1375:A 0.000300983
3 *1248:A 0.000178581
4 *2016:Q 0.000536385
5 *1086:31 0.000855354
6 *1086:14 0.00123848
7 *1248:A *1141:25 0.00028682
8 *1248:A *1187:16 0
9 *1375:A *2198:A 1.54556e-05
10 *1375:A *1154:10 0
11 *1086:14 *1100:83 0
12 *1086:14 *1141:25 0.000234936
13 *1086:14 *1187:16 0
14 *1375:B *1375:A 7.33225e-05
15 *1375:B *1831:A 4.77425e-05
16 *1827:B *1248:A 0
17 *2019:D *1086:14 0.000144942
18 *2322:A *1375:A 0
19 *16:14 *1086:14 0.000177268
20 *466:8 *1086:14 0
21 *466:16 *1086:14 7.96263e-05
22 *653:20 *1248:A 0
23 *658:56 *1086:14 0.000112426
*RES
1 *2016:Q *1086:14 44.7344 
2 *1086:14 *1248:A 41.6016 
3 *1086:14 *1086:31 44.708 
4 *1086:31 *1375:A 42.4728 
5 *1086:31 *1831:A 40.2728 
*END

*D_NET *1087 0.00164341
*CONN
*I *1371:A I *D sg13g2_inv_1
*I *1251:A2 I *D sg13g2_a22oi_1
*I *1828:B I *D sg13g2_nand2b_1
*I *2017:Q O *D sg13g2_dfrbpq_1
*CAP
1 *1371:A 0.000156526
2 *1251:A2 0
3 *1828:B 0
4 *2017:Q 7.88053e-05
5 *1087:25 0.000181363
6 *1087:10 0.000308036
7 *1087:8 0.000362003
8 *1371:A *2198:A 0
9 *1371:A *1189:12 0.000112558
10 *1087:8 *1189:12 1.54008e-05
11 *1087:10 *2198:A 0
12 *1251:B2 *1087:25 1.54008e-05
13 *357:35 *1087:25 0.000237686
14 *653:20 *1087:8 8.00375e-05
15 *653:20 *1087:10 0
16 *653:20 *1087:25 1.54008e-05
17 *707:14 *1087:25 8.01938e-05
*RES
1 *2017:Q *1087:8 20.7568 
2 *1087:8 *1087:10 1.012 
3 *1087:10 *1828:B 20 
4 *1087:10 *1087:25 41.848 
5 *1087:25 *1251:A2 20 
6 *1087:8 *1371:A 21.3112 
*END

*D_NET *1088 0.00289773
*CONN
*I *1833:A I *D sg13g2_xnor2_1
*I *1823:B I *D sg13g2_nand2_1
*I *1376:A_N I *D sg13g2_nand2b_1
*I *2018:Q O *D sg13g2_dfrbpq_1
*CAP
1 *1833:A 0
2 *1823:B 0
3 *1376:A_N 0.000219665
4 *2018:Q 0
5 *1088:30 0.000705462
6 *1088:6 0.000397764
7 *1088:4 0.000883562
8 *1088:30 *1143:10 1.54008e-05
9 *1833:B *1088:30 8.01938e-05
10 *363:12 *1088:30 0
11 *400:8 *1088:6 0
12 *400:14 *1376:A_N 0.000103517
13 *400:14 *1088:6 1.54556e-05
14 *400:22 *1376:A_N 1.54556e-05
15 *913:10 *1376:A_N 0.000186673
16 *913:14 *1088:30 0
17 *913:16 *1088:30 0
18 *913:54 *1376:A_N 1.54008e-05
19 *913:54 *1088:6 0.000259183
*RES
1 *2018:Q *1088:4 20 
2 *1088:4 *1088:6 1.5664 
3 *1088:6 *1376:A_N 21.9536 
4 *1088:6 *1823:B 20 
5 *1088:4 *1088:30 46.8816 
6 *1088:30 *1833:A 20 
*END

*D_NET *1089 0.00118374
*CONN
*I *1247:B I *D sg13g2_nand2_1
*I *1834:A I *D sg13g2_nor2_1
*I *1835:A1 I *D sg13g2_a21oi_1
*I *2019:Q O *D sg13g2_dfrbpq_1
*CAP
1 *1247:B 0
2 *1834:A 0
3 *1835:A1 7.38254e-05
4 *2019:Q 0.000193415
5 *1089:12 0.000136718
6 *1089:8 0.000256307
7 *1246:B1 *1089:8 0
8 *1834:B *1089:12 0.000127744
9 *194:20 *1089:8 0
10 *306:8 *1835:A1 0
11 *360:12 *1089:8 0
12 *400:28 *1835:A1 0.00018184
13 *400:28 *1089:12 0.000213887
*RES
1 *2019:Q *1089:8 21.6808 
2 *1089:8 *1089:12 20.9328 
3 *1089:12 *1835:A1 40.7216 
4 *1089:12 *1834:A 40 
5 *1089:8 *1247:B 20 
*END

*D_NET *1090 0.00177835
*CONN
*I *1569:B2 I *D sg13g2_a221oi_1
*I *2043:Q O *D sg13g2_dfrbpq_1
*CAP
1 *1569:B2 0.000103998
2 *2043:Q 0
3 *1090:14 0.000610288
4 *1090:6 0.00050629
5 *1568:B1 *1090:14 0
6 *1569:C1 *1569:B2 0.000144791
7 *1851:A0 *1569:B2 0.00017671
8 *307:18 *1090:14 0
9 *574:12 *1090:14 0.000236274
10 *729:14 *1090:14 0
11 *837:16 *1090:14 0
*RES
1 *2043:Q *1090:6 40 
2 *1090:6 *1090:14 44.6376 
3 *1090:14 *1569:B2 41.012 
*END

*D_NET *1091 0.000620251
*CONN
*I *1564:B2 I *D sg13g2_a221oi_1
*I *2044:Q O *D sg13g2_dfrbpq_1
*CAP
1 *1564:B2 0.000230609
2 *2044:Q 0.000230609
3 *1564:C1 *1564:B2 1.54556e-05
4 *205:10 *1564:B2 0.000143577
5 *564:19 *1564:B2 0
6 *940:36 *1564:B2 0
*RES
1 *2044:Q *1564:B2 42.1912 
*END

*D_NET *1092 0.000911888
*CONN
*I *1557:B1 I *D sg13g2_a22oi_1
*I *2045:Q O *D sg13g2_dfrbpq_1
*CAP
1 *1557:B1 0.000339917
2 *2045:Q 0.000116027
3 *1092:8 0.000455944
4 *1557:B2 *1557:B1 0
5 *1557:A2 *1557:B1 0
6 *2238:A *1557:B1 0
7 *205:10 *1557:B1 0
8 *712:40 *1557:B1 0
9 *830:10 *1092:8 0
10 *830:18 *1557:B1 0
11 *830:31 *1092:8 0
12 *836:42 *1557:B1 0
*RES
1 *2045:Q *1092:8 41.144 
2 *1092:8 *1557:B1 42.86 
*END

*D_NET *1093 0.00159077
*CONN
*I *1549:B1 I *D sg13g2_a22oi_1
*I *2046:Q O *D sg13g2_dfrbpq_1
*CAP
1 *1549:B1 3.54245e-05
2 *2046:Q 0.000305865
3 *1093:12 0.000341289
4 *1093:12 *1106:78 0
5 *1557:B2 *1093:12 0.000552365
6 *1858:B1 *1093:12 0
7 *558:10 *1549:B1 1.54008e-05
8 *826:35 *1093:12 0
9 *826:43 *1093:12 0.000340422
*RES
1 *2046:Q *1093:12 43.7488 
2 *1093:12 *1549:B1 40.2728 
*END

*D_NET *1094 0.000145155
*CONN
*I *2040:D I *D sg13g2_dfrbpq_1
*I *2041:Q O *D sg13g2_dfrbpq_1
*CAP
1 *2040:D 7.25777e-05
2 *2041:Q 7.25777e-05
*RES
1 *2041:Q *2040:D 40.7832 
*END
