*SPEF "ieee 1481-1999"
*DESIGN "gpio"
*DATE "00:13:41 Wednesday September 16, 2026"
*VENDOR "The OpenROAD Project"
*PROGRAM "OpenROAD"
*VERSION "26Q3-1305-gf552262465"
*DESIGN_FLOW "NAME_SCOPE LOCAL" "PIN_CAP NONE"
*DIVIDER /
*DELIMITER :
*BUS_DELIMITER []
*T_UNIT 1 NS
*C_UNIT 1 PF
*R_UNIT 1 OHM
*L_UNIT 1 HENRY

*NAME_MAP
*1 _0000_
*2 _0001_
*3 _0002_
*4 _0003_
*5 _0004_
*6 _0005_
*7 _0006_
*8 _0007_
*9 _0008_
*10 _0009_
*11 _0010_
*12 _0011_
*13 _0012_
*14 _0013_
*15 _0014_
*16 _0015_
*17 _0016_
*18 _0017_
*19 _0018_
*20 _0019_
*21 _0020_
*22 _0021_
*23 _0022_
*24 _0023_
*25 _0024_
*26 _0025_
*27 _0026_
*28 _0027_
*29 _0028_
*30 _0029_
*31 _0030_
*32 _0031_
*33 _0032_
*34 _0033_
*35 _0034_
*36 _0035_
*37 _0036_
*38 _0037_
*39 _0038_
*40 _0039_
*41 _0040_
*42 _0041_
*43 _0042_
*44 _0043_
*45 _0044_
*46 _0045_
*47 _0046_
*48 _0047_
*49 _0048_
*50 _0049_
*51 _0050_
*52 _0051_
*53 _0052_
*54 _0053_
*55 _0054_
*56 _0055_
*57 _0056_
*58 _0057_
*59 _0058_
*60 _0059_
*61 _0060_
*62 _0061_
*63 _0062_
*64 _0063_
*65 _0064_
*66 _0065_
*67 _0066_
*68 _0067_
*69 _0068_
*70 _0069_
*71 _0070_
*72 _0071_
*73 _0072_
*74 _0073_
*75 _0074_
*76 _0075_
*77 _0076_
*78 _0077_
*79 _0078_
*80 _0079_
*81 _0080_
*82 _0081_
*83 _0082_
*84 _0083_
*85 _0084_
*86 _0085_
*87 _0086_
*88 _0087_
*89 _0088_
*90 _0089_
*91 _0090_
*92 _0091_
*93 _0092_
*94 _0093_
*95 _0094_
*96 _0095_
*97 _0096_
*98 _0097_
*99 _0098_
*100 _0099_
*101 _0100_
*102 _0101_
*103 _0102_
*104 _0103_
*105 _0104_
*106 _0105_
*107 _0106_
*108 _0107_
*109 _0108_
*110 _0109_
*111 _0110_
*112 _0111_
*113 _0112_
*114 _0113_
*115 _0114_
*116 _0115_
*117 _0116_
*118 _0117_
*119 _0118_
*120 _0119_
*121 _0120_
*122 _0121_
*123 _0122_
*124 _0123_
*125 _0124_
*126 _0125_
*127 _0126_
*128 _0127_
*129 _0128_
*130 _0129_
*131 _0130_
*132 _0131_
*133 _0132_
*134 _0133_
*135 _0134_
*136 _0135_
*137 _0136_
*138 _0137_
*139 _0138_
*140 _0139_
*141 _0140_
*142 _0141_
*143 _0142_
*144 _0143_
*145 _0144_
*146 _0145_
*147 _0146_
*148 _0147_
*149 _0148_
*150 _0149_
*151 _0150_
*152 _0151_
*153 _0152_
*154 _0153_
*155 _0154_
*156 _0155_
*157 _0156_
*158 _0157_
*159 _0158_
*160 _0159_
*161 _0160_
*162 _0161_
*163 _0162_
*164 _0163_
*165 _0164_
*166 _0165_
*167 _0166_
*168 _0167_
*169 _0168_
*170 _0169_
*171 _0170_
*172 _0171_
*173 _0172_
*174 _0173_
*175 _0174_
*176 _0175_
*177 _0176_
*178 _0177_
*179 _0178_
*180 _0179_
*181 _0180_
*182 _0181_
*183 _0182_
*184 _0183_
*185 _0184_
*187 _0186_
*188 _0187_
*189 _0188_
*190 _0189_
*191 _0190_
*192 _0191_
*193 _0192_
*194 _0193_
*195 _0194_
*196 _0195_
*197 _0196_
*198 _0197_
*199 _0198_
*200 _0199_
*201 _0200_
*202 _0201_
*203 _0202_
*204 _0203_
*205 _0204_
*206 _0205_
*207 _0206_
*208 _0207_
*209 _0208_
*210 _0209_
*211 _0210_
*212 _0211_
*213 _0212_
*214 _0213_
*215 _0214_
*216 _0215_
*217 _0216_
*218 _0217_
*219 _0218_
*220 _0219_
*221 _0220_
*222 _0221_
*223 _0222_
*224 _0223_
*225 _0224_
*226 _0225_
*227 _0226_
*228 _0227_
*229 _0228_
*230 _0229_
*231 _0230_
*232 _0231_
*233 _0232_
*234 _0233_
*235 _0234_
*236 _0235_
*237 _0236_
*238 _0237_
*239 _0238_
*240 _0239_
*241 _0240_
*242 _0241_
*243 _0242_
*244 _0243_
*245 _0244_
*246 _0245_
*247 _0246_
*248 _0247_
*249 _0248_
*250 _0249_
*251 _0250_
*252 _0251_
*253 _0252_
*254 _0253_
*255 _0254_
*256 _0255_
*257 _0256_
*258 _0257_
*259 _0258_
*260 _0259_
*261 _0260_
*262 _0261_
*263 _0262_
*264 _0263_
*265 _0264_
*266 _0265_
*267 _0266_
*268 _0267_
*269 _0268_
*270 _0269_
*271 _0270_
*272 _0271_
*273 _0272_
*274 _0273_
*275 _0274_
*276 _0275_
*277 _0276_
*278 _0277_
*279 _0278_
*280 _0279_
*281 _0280_
*282 _0281_
*283 _0282_
*284 _0283_
*285 _0284_
*286 _0285_
*287 _0286_
*288 _0287_
*289 _0288_
*290 _0289_
*291 _0290_
*292 _0291_
*293 _0292_
*294 _0293_
*295 _0294_
*296 _0295_
*297 _0296_
*298 _0297_
*299 _0298_
*300 _0299_
*301 _0300_
*302 _0301_
*303 _0302_
*304 _0303_
*305 _0304_
*306 _0305_
*307 _0306_
*308 _0307_
*309 _0308_
*310 _0309_
*311 _0310_
*312 _0311_
*313 _0312_
*314 _0313_
*315 _0314_
*316 _0315_
*317 _0316_
*318 _0317_
*319 _0318_
*320 _0319_
*321 _0320_
*322 _0321_
*323 _0322_
*324 _0323_
*325 _0324_
*326 _0325_
*327 _0326_
*328 _0327_
*329 _0328_
*330 _0329_
*331 _0330_
*332 _0331_
*333 _0332_
*334 _0333_
*335 _0334_
*336 _0335_
*337 _0336_
*338 _0337_
*339 _0338_
*340 _0339_
*341 _0340_
*342 _0341_
*343 _0342_
*344 _0343_
*345 _0344_
*346 _0345_
*347 _0346_
*348 _0347_
*349 _0348_
*350 _0349_
*351 _0350_
*352 _0351_
*353 _0352_
*354 _0353_
*355 _0354_
*356 _0355_
*357 _0356_
*358 _0357_
*359 _0358_
*360 _0359_
*361 _0360_
*362 _0361_
*363 _0362_
*364 _0363_
*365 _0364_
*366 _0365_
*367 _0366_
*368 _0367_
*369 _0368_
*370 _0369_
*371 _0370_
*372 _0371_
*373 _0372_
*374 _0373_
*375 _0374_
*376 _0375_
*377 _0376_
*378 _0377_
*379 _0378_
*380 _0379_
*381 _0380_
*382 _0381_
*383 _0382_
*384 _0383_
*385 _0384_
*386 _0385_
*387 _0386_
*388 _0387_
*389 _0388_
*390 _0389_
*391 _0390_
*392 _0391_
*393 _0392_
*394 _0393_
*395 _0394_
*396 _0395_
*397 _0396_
*398 _0397_
*399 _0398_
*400 _0399_
*401 _0400_
*402 _0401_
*403 _0402_
*404 _0403_
*405 _0404_
*406 _0405_
*407 _0406_
*408 _0407_
*409 _0408_
*410 _0409_
*411 _0410_
*412 _0411_
*413 _0412_
*414 _0413_
*415 _0414_
*416 _0415_
*417 _0416_
*418 _0417_
*419 _0418_
*420 _0419_
*421 _0420_
*422 _0421_
*423 _0422_
*424 _0423_
*425 _0424_
*426 _0425_
*427 _0426_
*428 _0427_
*429 _0428_
*430 _0429_
*431 _0430_
*432 _0431_
*433 _0432_
*434 _0433_
*435 _0434_
*436 _0435_
*437 _0436_
*438 _0437_
*439 _0438_
*440 _0439_
*441 _0440_
*442 _0441_
*443 _0442_
*444 _0443_
*445 _0444_
*446 _0445_
*447 _0446_
*448 _0447_
*449 _0448_
*450 _0449_
*451 _0450_
*452 _0451_
*453 _0452_
*454 _0453_
*455 _0454_
*456 _0455_
*457 _0456_
*458 _0457_
*459 _0458_
*460 _0459_
*461 _0460_
*462 _0461_
*463 _0462_
*464 _0463_
*465 _0464_
*466 _0465_
*467 _0466_
*468 _0467_
*469 _0468_
*470 _0469_
*471 _0470_
*473 _0472_
*474 _0473_
*475 _0474_
*476 _0475_
*477 _0476_
*478 _0477_
*479 _0478_
*480 _0479_
*481 _0480_
*482 _0481_
*483 _0482_
*484 _0483_
*485 _0484_
*486 _0485_
*487 _0486_
*488 _0487_
*489 _0488_
*490 _0489_
*491 _0490_
*492 _0491_
*493 _0492_
*494 _0493_
*495 _0494_
*496 _0495_
*497 _0496_
*498 _0497_
*499 _0498_
*500 _0499_
*501 _0500_
*502 _0501_
*503 _0502_
*504 _0503_
*505 _0504_
*506 _0505_
*507 _0506_
*508 _0507_
*509 _0508_
*510 _0509_
*511 _0510_
*512 _0511_
*513 _0512_
*514 _0513_
*515 _0514_
*516 _0515_
*517 _0516_
*518 _0517_
*519 _0518_
*520 _0519_
*521 _0520_
*522 _0521_
*523 _0522_
*524 _0523_
*525 _0524_
*526 _0525_
*527 _0526_
*528 _0527_
*529 _0528_
*530 _0529_
*531 _0530_
*532 _0531_
*533 _0532_
*534 _0533_
*535 _0534_
*536 _0535_
*537 _0536_
*538 _0537_
*539 _0538_
*541 _0540_
*542 _0541_
*543 _0542_
*544 _0543_
*545 _0544_
*546 _0545_
*547 _0546_
*548 _0547_
*549 _0548_
*551 _0550_
*552 _0551_
*553 _0552_
*554 _0553_
*555 _0554_
*556 _0555_
*557 _0556_
*558 _0557_
*559 _0558_
*560 _0559_
*561 _0560_
*562 _0561_
*563 _0562_
*564 _0563_
*565 _0564_
*566 _0565_
*567 _0566_
*568 _0567_
*569 _0568_
*570 _0569_
*571 _0570_
*572 _0571_
*573 _0572_
*574 _0573_
*575 _0574_
*576 _0575_
*577 _0576_
*578 _0577_
*579 _0578_
*580 _0579_
*581 _0580_
*582 _0581_
*583 _0582_
*584 _0583_
*585 _0584_
*586 _0585_
*587 _0586_
*588 _0587_
*589 _0588_
*590 _0589_
*591 _0590_
*592 _0591_
*593 _0592_
*594 _0593_
*595 _0594_
*596 _0595_
*597 _0596_
*598 _0597_
*600 _0599_
*601 _0600_
*602 _0601_
*603 _0602_
*604 _0603_
*605 _0604_
*606 _0605_
*607 _0606_
*608 _0607_
*609 _0608_
*610 _0609_
*611 _0610_
*612 _0611_
*613 _0612_
*614 _0613_
*615 _0614_
*616 _0615_
*617 _0616_
*618 _0617_
*619 _0618_
*620 _0619_
*621 _0620_
*622 _0621_
*623 _0622_
*624 _0623_
*625 _0624_
*626 _0625_
*627 _0626_
*628 _0627_
*629 _0628_
*630 _0629_
*631 _0630_
*632 _0631_
*633 _0632_
*634 _0633_
*635 _0634_
*636 _0635_
*637 _0636_
*638 _0637_
*639 _0638_
*640 _0639_
*641 _0640_
*642 _0641_
*643 _0642_
*644 _0643_
*645 _0644_
*646 _0645_
*647 _0646_
*648 _0647_
*649 _0648_
*650 _0649_
*651 _0650_
*652 _0651_
*653 _0652_
*654 _0653_
*655 _0654_
*656 _0655_
*657 _0656_
*658 _0657_
*659 _0658_
*660 _0659_
*661 _0660_
*662 _0661_
*663 _0662_
*664 _0663_
*828 axi_lite_i[0]
*827 axi_lite_i[10]
*826 axi_lite_i[11]
*823 axi_lite_i[12]
*822 axi_lite_i[13]
*670 axi_lite_i[14]
*821 axi_lite_i[15]
*820 axi_lite_i[16]
*819 axi_lite_i[17]
*818 axi_lite_i[18]
*817 axi_lite_i[19]
*816 axi_lite_i[1]
*815 axi_lite_i[20]
*813 axi_lite_i[21]
*812 axi_lite_i[22]
*811 axi_lite_i[23]
*810 axi_lite_i[24]
*809 axi_lite_i[25]
*808 axi_lite_i[26]
*807 axi_lite_i[27]
*806 axi_lite_i[28]
*805 axi_lite_i[29]
*687 axi_lite_i[2]
*804 axi_lite_i[30]
*802 axi_lite_i[31]
*801 axi_lite_i[32]
*800 axi_lite_i[33]
*799 axi_lite_i[34]
*693 axi_lite_i[35]
*694 axi_lite_i[36]
*695 axi_lite_i[37]
*696 axi_lite_i[38]
*697 axi_lite_i[39]
*698 axi_lite_i[3]
*699 axi_lite_i[40]
*700 axi_lite_i[41]
*701 axi_lite_i[42]
*702 axi_lite_i[43]
*703 axi_lite_i[44]
*704 axi_lite_i[45]
*705 axi_lite_i[46]
*798 axi_lite_i[47]
*707 axi_lite_i[48]
*708 axi_lite_i[49]
*709 axi_lite_i[4]
*710 axi_lite_i[50]
*797 axi_lite_i[51]
*796 axi_lite_i[52]
*795 axi_lite_i[53]
*794 axi_lite_i[54]
*793 axi_lite_i[5]
*829 axi_lite_i[6]
*754 axi_lite_i[7]
*941 axi_lite_i[8]
*940 axi_lite_i[9]
*935 axi_lite_o[0]
*934 axi_lite_o[10]
*933 axi_lite_o[11]
*931 axi_lite_o[12]
*930 axi_lite_o[13]
*929 axi_lite_o[14]
*928 axi_lite_o[15]
*927 axi_lite_o[16]
*926 axi_lite_o[17]
*925 axi_lite_o[18]
*924 axi_lite_o[19]
*731 axi_lite_o[1]
*923 axi_lite_o[20]
*922 axi_lite_o[21]
*921 axi_lite_o[22]
*920 axi_lite_o[23]
*919 axi_lite_o[24]
*918 axi_lite_o[25]
*917 axi_lite_o[26]
*916 axi_lite_o[27]
*915 axi_lite_o[28]
*914 axi_lite_o[29]
*913 axi_lite_o[2]
*912 axi_lite_o[30]
*948 axi_lite_o[31]
*947 axi_lite_o[32]
*946 axi_lite_o[33]
*945 axi_lite_o[34]
*944 axi_lite_o[35]
*943 axi_lite_o[36]
*750 axi_lite_o[37]
*942 axi_lite_o[38]
*932 axi_lite_o[39]
*1101 axi_lite_o[3]
*911 axi_lite_o[40]
*785 axi_lite_o[4]
*784 axi_lite_o[5]
*783 axi_lite_o[6]
*782 axi_lite_o[7]
*781 axi_lite_o[8]
*780 axi_lite_o[9]
*779 cio_gpio_en_o[0]
*775 cio_gpio_en_o[1]
*909 cio_gpio_en_o[2]
*908 cio_gpio_en_o[3]
*791 cio_gpio_i[0]
*939 cio_gpio_i[1]
*938 cio_gpio_i[2]
*937 cio_gpio_i[3]
*907 cio_gpio_o[0]
*906 cio_gpio_o[1]
*186 cio_gpio_o[2]
*599 cio_gpio_o[3]
*773 clk_i
*1141 clknet_0_clk_i
*1142 clknet_1_0__leaf_clk_i
*1143 clknet_1_1__leaf_clk_i
*1108 clknet_leaf_0_clk_i
*1123 clknet_leaf_10_clk_i
*1124 clknet_leaf_11_clk_i
*1125 clknet_leaf_12_clk_i
*1126 clknet_leaf_13_clk_i
*1127 clknet_leaf_14_clk_i
*1128 clknet_leaf_15_clk_i
*1129 clknet_leaf_16_clk_i
*1130 clknet_leaf_17_clk_i
*1131 clknet_leaf_18_clk_i
*1132 clknet_leaf_19_clk_i
*1114 clknet_leaf_1_clk_i
*1133 clknet_leaf_20_clk_i
*1134 clknet_leaf_21_clk_i
*1135 clknet_leaf_22_clk_i
*1136 clknet_leaf_23_clk_i
*1137 clknet_leaf_24_clk_i
*1138 clknet_leaf_25_clk_i
*1139 clknet_leaf_26_clk_i
*1140 clknet_leaf_27_clk_i
*1115 clknet_leaf_2_clk_i
*1116 clknet_leaf_3_clk_i
*1117 clknet_leaf_4_clk_i
*1118 clknet_leaf_5_clk_i
*1119 clknet_leaf_6_clk_i
*1120 clknet_leaf_7_clk_i
*1121 clknet_leaf_8_clk_i
*1122 clknet_leaf_9_clk_i
*774 core_rst_ni
*776 hw2reg_10_
*777 hw2reg_11_
*778 hw2reg_12_
*786 hw2reg_9_
*550 intr_gpio_o[0]
*540 intr_gpio_o[1]
*472 intr_gpio_o[2]
*1103 intr_gpio_o[3]
*736 net100
*737 net101
*738 net102
*739 net103
*740 net104
*741 net105
*742 net106
*743 net107
*744 net108
*745 net109
*746 net110
*747 net111
*748 net112
*749 net113
*751 net114
*752 net115
*753 net116
*755 net117
*756 net118
*757 net119
*758 net120
*759 net121
*760 net122
*761 net123
*762 net124
*763 net125
*764 net126
*769 net127
*770 net128
*771 net129
*772 net130
*787 net131
*788 net132
*789 net133
*790 net134
*1107 net148
*1109 net149
*1104 net150
*1105 net151
*1106 net152
*1110 net153
*1113 net154
*1112 net155
*1111 net156
*1144 net157
*1145 net158
*1146 net159
*1147 net160
*1148 net161
*1149 net162
*1150 net163
*1151 net164
*1152 net165
*1153 net166
*1154 net167
*1155 net168
*1156 net169
*1157 net170
*1158 net171
*1159 net172
*1160 net173
*1161 net174
*1162 net175
*1163 net176
*1164 net177
*1165 net178
*1166 net179
*1167 net180
*1168 net181
*1169 net182
*1170 net183
*1171 net184
*1172 net185
*1173 net186
*1174 net187
*1175 net188
*1176 net189
*1177 net190
*1178 net191
*1179 net192
*1180 net193
*792 net40
*803 net41
*814 net42
*824 net43
*665 net44
*666 net45
*667 net46
*668 net47
*669 net48
*671 net49
*672 net50
*673 net51
*674 net52
*675 net53
*676 net54
*677 net55
*678 net56
*679 net57
*680 net58
*681 net59
*682 net60
*683 net61
*684 net62
*685 net63
*686 net64
*688 net65
*689 net66
*690 net67
*691 net68
*692 net69
*706 net70
*711 net71
*712 net72
*713 net73
*714 net74
*715 net75
*716 net76
*717 net77
*718 net78
*719 net79
*765 net80
*766 net81
*767 net82
*768 net83
*851 net84
*720 net85
*721 net86
*722 net87
*723 net88
*724 net89
*725 net90
*726 net91
*727 net92
*728 net93
*729 net94
*730 net95
*732 net96
*733 net97
*734 net98
*735 net99
*830 reg2hw_0_
*831 reg2hw_10_
*832 reg2hw_11_
*833 reg2hw_12_
*834 reg2hw_13_
*835 reg2hw_14_
*836 reg2hw_15_
*837 reg2hw_16_
*838 reg2hw_17_
*839 reg2hw_18_
*840 reg2hw_19_
*841 reg2hw_1_
*842 reg2hw_2_
*843 reg2hw_3_
*844 reg2hw_4_
*845 reg2hw_5_
*846 reg2hw_6_
*847 reg2hw_7_
*848 reg2hw_8_
*849 reg2hw_9_
*850 reg_rst_ni
*936 rst_ni
*852 u_core_reset_sync_intq
*853 u_gpio_core_data_in_q_0_
*854 u_gpio_core_data_in_q_1_
*855 u_gpio_core_data_in_q_2_
*856 u_gpio_core_data_in_q_3_
*857 u_gpio_core_filter_rst_ni
*858 u_gpio_core_gen_input_filter_0__u_filter_diff_ctr_d_0_
*859 u_gpio_core_gen_input_filter_0__u_filter_diff_ctr_d_1_
*860 u_gpio_core_gen_input_filter_0__u_filter_diff_ctr_d_2_
*861 u_gpio_core_gen_input_filter_0__u_filter_diff_ctr_d_3_
*862 u_gpio_core_gen_input_filter_0__u_filter_diff_ctr_q_0_
*863 u_gpio_core_gen_input_filter_0__u_filter_diff_ctr_q_1_
*864 u_gpio_core_gen_input_filter_0__u_filter_diff_ctr_q_2_
*865 u_gpio_core_gen_input_filter_0__u_filter_diff_ctr_q_3_
*866 u_gpio_core_gen_input_filter_0__u_filter_filter_q
*867 u_gpio_core_gen_input_filter_0__u_filter_filter_synced
*868 u_gpio_core_gen_input_filter_0__u_filter_gen_async_prim_flop_2sync_intq
*869 u_gpio_core_gen_input_filter_0__u_filter_stored_value_q
*870 u_gpio_core_gen_input_filter_1__u_filter_diff_ctr_d_0_
*871 u_gpio_core_gen_input_filter_1__u_filter_diff_ctr_d_1_
*872 u_gpio_core_gen_input_filter_1__u_filter_diff_ctr_d_2_
*873 u_gpio_core_gen_input_filter_1__u_filter_diff_ctr_d_3_
*874 u_gpio_core_gen_input_filter_1__u_filter_diff_ctr_q_0_
*875 u_gpio_core_gen_input_filter_1__u_filter_diff_ctr_q_1_
*876 u_gpio_core_gen_input_filter_1__u_filter_diff_ctr_q_2_
*877 u_gpio_core_gen_input_filter_1__u_filter_diff_ctr_q_3_
*878 u_gpio_core_gen_input_filter_1__u_filter_filter_q
*879 u_gpio_core_gen_input_filter_1__u_filter_filter_synced
*880 u_gpio_core_gen_input_filter_1__u_filter_gen_async_prim_flop_2sync_intq
*881 u_gpio_core_gen_input_filter_1__u_filter_stored_value_q
*882 u_gpio_core_gen_input_filter_2__u_filter_diff_ctr_d_0_
*883 u_gpio_core_gen_input_filter_2__u_filter_diff_ctr_d_1_
*884 u_gpio_core_gen_input_filter_2__u_filter_diff_ctr_d_2_
*885 u_gpio_core_gen_input_filter_2__u_filter_diff_ctr_d_3_
*886 u_gpio_core_gen_input_filter_2__u_filter_diff_ctr_q_0_
*887 u_gpio_core_gen_input_filter_2__u_filter_diff_ctr_q_1_
*888 u_gpio_core_gen_input_filter_2__u_filter_diff_ctr_q_2_
*889 u_gpio_core_gen_input_filter_2__u_filter_diff_ctr_q_3_
*890 u_gpio_core_gen_input_filter_2__u_filter_filter_q
*891 u_gpio_core_gen_input_filter_2__u_filter_filter_synced
*892 u_gpio_core_gen_input_filter_2__u_filter_gen_async_prim_flop_2sync_intq
*893 u_gpio_core_gen_input_filter_2__u_filter_stored_value_q
*894 u_gpio_core_gen_input_filter_3__u_filter_diff_ctr_d_0_
*895 u_gpio_core_gen_input_filter_3__u_filter_diff_ctr_d_1_
*896 u_gpio_core_gen_input_filter_3__u_filter_diff_ctr_d_2_
*897 u_gpio_core_gen_input_filter_3__u_filter_diff_ctr_d_3_
*898 u_gpio_core_gen_input_filter_3__u_filter_diff_ctr_q_0_
*899 u_gpio_core_gen_input_filter_3__u_filter_diff_ctr_q_1_
*900 u_gpio_core_gen_input_filter_3__u_filter_diff_ctr_q_2_
*901 u_gpio_core_gen_input_filter_3__u_filter_diff_ctr_q_3_
*902 u_gpio_core_gen_input_filter_3__u_filter_filter_q
*903 u_gpio_core_gen_input_filter_3__u_filter_filter_synced
*904 u_gpio_core_gen_input_filter_3__u_filter_gen_async_prim_flop_2sync_intq
*905 u_gpio_core_gen_input_filter_3__u_filter_stored_value_q
*910 u_gpio_core_state_rst_ni
*949 u_gpio_reg_u_flexsoc_axi_to_reg_i_fifo_read_mem_q_0_
*950 u_gpio_reg_u_flexsoc_axi_to_reg_i_fifo_read_mem_q_1_
*951 u_gpio_reg_u_flexsoc_axi_to_reg_i_fifo_read_mem_q_2_
*952 u_gpio_reg_u_flexsoc_axi_to_reg_i_fifo_read_mem_q_3_
*953 u_gpio_reg_u_flexsoc_axi_to_reg_i_fifo_read_mem_q_4_
*954 u_gpio_reg_u_flexsoc_axi_to_reg_i_fifo_read_mem_q_5_
*955 u_gpio_reg_u_flexsoc_axi_to_reg_i_fifo_read_mem_q_6_
*956 u_gpio_reg_u_flexsoc_axi_to_reg_i_fifo_read_mem_q_7_
*957 u_gpio_reg_u_flexsoc_axi_to_reg_i_fifo_read_read_pointer_q
*958 u_gpio_reg_u_flexsoc_axi_to_reg_i_fifo_read_resp_mem_q_0_
*959 u_gpio_reg_u_flexsoc_axi_to_reg_i_fifo_read_resp_mem_q_10_
*960 u_gpio_reg_u_flexsoc_axi_to_reg_i_fifo_read_resp_mem_q_11_
*961 u_gpio_reg_u_flexsoc_axi_to_reg_i_fifo_read_resp_mem_q_12_
*962 u_gpio_reg_u_flexsoc_axi_to_reg_i_fifo_read_resp_mem_q_13_
*963 u_gpio_reg_u_flexsoc_axi_to_reg_i_fifo_read_resp_mem_q_14_
*964 u_gpio_reg_u_flexsoc_axi_to_reg_i_fifo_read_resp_mem_q_15_
*965 u_gpio_reg_u_flexsoc_axi_to_reg_i_fifo_read_resp_mem_q_16_
*966 u_gpio_reg_u_flexsoc_axi_to_reg_i_fifo_read_resp_mem_q_17_
*967 u_gpio_reg_u_flexsoc_axi_to_reg_i_fifo_read_resp_mem_q_18_
*968 u_gpio_reg_u_flexsoc_axi_to_reg_i_fifo_read_resp_mem_q_19_
*969 u_gpio_reg_u_flexsoc_axi_to_reg_i_fifo_read_resp_mem_q_1_
*970 u_gpio_reg_u_flexsoc_axi_to_reg_i_fifo_read_resp_mem_q_20_
*971 u_gpio_reg_u_flexsoc_axi_to_reg_i_fifo_read_resp_mem_q_21_
*972 u_gpio_reg_u_flexsoc_axi_to_reg_i_fifo_read_resp_mem_q_22_
*973 u_gpio_reg_u_flexsoc_axi_to_reg_i_fifo_read_resp_mem_q_23_
*974 u_gpio_reg_u_flexsoc_axi_to_reg_i_fifo_read_resp_mem_q_24_
*975 u_gpio_reg_u_flexsoc_axi_to_reg_i_fifo_read_resp_mem_q_25_
*976 u_gpio_reg_u_flexsoc_axi_to_reg_i_fifo_read_resp_mem_q_26_
*977 u_gpio_reg_u_flexsoc_axi_to_reg_i_fifo_read_resp_mem_q_27_
*978 u_gpio_reg_u_flexsoc_axi_to_reg_i_fifo_read_resp_mem_q_28_
*979 u_gpio_reg_u_flexsoc_axi_to_reg_i_fifo_read_resp_mem_q_29_
*980 u_gpio_reg_u_flexsoc_axi_to_reg_i_fifo_read_resp_mem_q_2_
*981 u_gpio_reg_u_flexsoc_axi_to_reg_i_fifo_read_resp_mem_q_30_
*982 u_gpio_reg_u_flexsoc_axi_to_reg_i_fifo_read_resp_mem_q_31_
*983 u_gpio_reg_u_flexsoc_axi_to_reg_i_fifo_read_resp_mem_q_32_
*984 u_gpio_reg_u_flexsoc_axi_to_reg_i_fifo_read_resp_mem_q_33_
*985 u_gpio_reg_u_flexsoc_axi_to_reg_i_fifo_read_resp_mem_q_34_
*986 u_gpio_reg_u_flexsoc_axi_to_reg_i_fifo_read_resp_mem_q_35_
*987 u_gpio_reg_u_flexsoc_axi_to_reg_i_fifo_read_resp_mem_q_36_
*988 u_gpio_reg_u_flexsoc_axi_to_reg_i_fifo_read_resp_mem_q_37_
*989 u_gpio_reg_u_flexsoc_axi_to_reg_i_fifo_read_resp_mem_q_38_
*990 u_gpio_reg_u_flexsoc_axi_to_reg_i_fifo_read_resp_mem_q_39_
*991 u_gpio_reg_u_flexsoc_axi_to_reg_i_fifo_read_resp_mem_q_3_
*992 u_gpio_reg_u_flexsoc_axi_to_reg_i_fifo_read_resp_mem_q_40_
*993 u_gpio_reg_u_flexsoc_axi_to_reg_i_fifo_read_resp_mem_q_41_
*994 u_gpio_reg_u_flexsoc_axi_to_reg_i_fifo_read_resp_mem_q_42_
*995 u_gpio_reg_u_flexsoc_axi_to_reg_i_fifo_read_resp_mem_q_43_
*996 u_gpio_reg_u_flexsoc_axi_to_reg_i_fifo_read_resp_mem_q_44_
*997 u_gpio_reg_u_flexsoc_axi_to_reg_i_fifo_read_resp_mem_q_45_
*998 u_gpio_reg_u_flexsoc_axi_to_reg_i_fifo_read_resp_mem_q_46_
*999 u_gpio_reg_u_flexsoc_axi_to_reg_i_fifo_read_resp_mem_q_47_
*1000 u_gpio_reg_u_flexsoc_axi_to_reg_i_fifo_read_resp_mem_q_48_
*1001 u_gpio_reg_u_flexsoc_axi_to_reg_i_fifo_read_resp_mem_q_49_
*1002 u_gpio_reg_u_flexsoc_axi_to_reg_i_fifo_read_resp_mem_q_4_
*1003 u_gpio_reg_u_flexsoc_axi_to_reg_i_fifo_read_resp_mem_q_50_
*1004 u_gpio_reg_u_flexsoc_axi_to_reg_i_fifo_read_resp_mem_q_51_
*1005 u_gpio_reg_u_flexsoc_axi_to_reg_i_fifo_read_resp_mem_q_52_
*1006 u_gpio_reg_u_flexsoc_axi_to_reg_i_fifo_read_resp_mem_q_53_
*1007 u_gpio_reg_u_flexsoc_axi_to_reg_i_fifo_read_resp_mem_q_54_
*1008 u_gpio_reg_u_flexsoc_axi_to_reg_i_fifo_read_resp_mem_q_55_
*1009 u_gpio_reg_u_flexsoc_axi_to_reg_i_fifo_read_resp_mem_q_56_
*1010 u_gpio_reg_u_flexsoc_axi_to_reg_i_fifo_read_resp_mem_q_57_
*1011 u_gpio_reg_u_flexsoc_axi_to_reg_i_fifo_read_resp_mem_q_58_
*1012 u_gpio_reg_u_flexsoc_axi_to_reg_i_fifo_read_resp_mem_q_59_
*1013 u_gpio_reg_u_flexsoc_axi_to_reg_i_fifo_read_resp_mem_q_5_
*1014 u_gpio_reg_u_flexsoc_axi_to_reg_i_fifo_read_resp_mem_q_60_
*1015 u_gpio_reg_u_flexsoc_axi_to_reg_i_fifo_read_resp_mem_q_61_
*1016 u_gpio_reg_u_flexsoc_axi_to_reg_i_fifo_read_resp_mem_q_62_
*1017 u_gpio_reg_u_flexsoc_axi_to_reg_i_fifo_read_resp_mem_q_63_
*1018 u_gpio_reg_u_flexsoc_axi_to_reg_i_fifo_read_resp_mem_q_64_
*1019 u_gpio_reg_u_flexsoc_axi_to_reg_i_fifo_read_resp_mem_q_65_
*1020 u_gpio_reg_u_flexsoc_axi_to_reg_i_fifo_read_resp_mem_q_6_
*1021 u_gpio_reg_u_flexsoc_axi_to_reg_i_fifo_read_resp_mem_q_7_
*1022 u_gpio_reg_u_flexsoc_axi_to_reg_i_fifo_read_resp_mem_q_8_
*1023 u_gpio_reg_u_flexsoc_axi_to_reg_i_fifo_read_resp_mem_q_9_
*1024 u_gpio_reg_u_flexsoc_axi_to_reg_i_fifo_read_resp_read_pointer_q
*1025 u_gpio_reg_u_flexsoc_axi_to_reg_i_fifo_read_resp_status_cnt_q_0_
*1026 u_gpio_reg_u_flexsoc_axi_to_reg_i_fifo_read_resp_status_cnt_q_1_
*1027 u_gpio_reg_u_flexsoc_axi_to_reg_i_fifo_read_resp_write_pointer_q
*1028 u_gpio_reg_u_flexsoc_axi_to_reg_i_fifo_read_status_cnt_q_0_
*1029 u_gpio_reg_u_flexsoc_axi_to_reg_i_fifo_read_status_cnt_q_1_
*1030 u_gpio_reg_u_flexsoc_axi_to_reg_i_fifo_read_write_pointer_q
*1031 u_gpio_reg_u_flexsoc_axi_to_reg_i_fifo_write_req_mem_q_0_
*1032 u_gpio_reg_u_flexsoc_axi_to_reg_i_fifo_write_req_mem_q_10_
*1033 u_gpio_reg_u_flexsoc_axi_to_reg_i_fifo_write_req_mem_q_11_
*1034 u_gpio_reg_u_flexsoc_axi_to_reg_i_fifo_write_req_mem_q_12_
*1035 u_gpio_reg_u_flexsoc_axi_to_reg_i_fifo_write_req_mem_q_13_
*1036 u_gpio_reg_u_flexsoc_axi_to_reg_i_fifo_write_req_mem_q_14_
*1037 u_gpio_reg_u_flexsoc_axi_to_reg_i_fifo_write_req_mem_q_15_
*1038 u_gpio_reg_u_flexsoc_axi_to_reg_i_fifo_write_req_mem_q_16_
*1039 u_gpio_reg_u_flexsoc_axi_to_reg_i_fifo_write_req_mem_q_17_
*1040 u_gpio_reg_u_flexsoc_axi_to_reg_i_fifo_write_req_mem_q_18_
*1041 u_gpio_reg_u_flexsoc_axi_to_reg_i_fifo_write_req_mem_q_19_
*1042 u_gpio_reg_u_flexsoc_axi_to_reg_i_fifo_write_req_mem_q_1_
*1043 u_gpio_reg_u_flexsoc_axi_to_reg_i_fifo_write_req_mem_q_20_
*1044 u_gpio_reg_u_flexsoc_axi_to_reg_i_fifo_write_req_mem_q_21_
*1045 u_gpio_reg_u_flexsoc_axi_to_reg_i_fifo_write_req_mem_q_22_
*1046 u_gpio_reg_u_flexsoc_axi_to_reg_i_fifo_write_req_mem_q_23_
*1047 u_gpio_reg_u_flexsoc_axi_to_reg_i_fifo_write_req_mem_q_2_
*1048 u_gpio_reg_u_flexsoc_axi_to_reg_i_fifo_write_req_mem_q_36_
*1049 u_gpio_reg_u_flexsoc_axi_to_reg_i_fifo_write_req_mem_q_37_
*1050 u_gpio_reg_u_flexsoc_axi_to_reg_i_fifo_write_req_mem_q_38_
*1051 u_gpio_reg_u_flexsoc_axi_to_reg_i_fifo_write_req_mem_q_39_
*1052 u_gpio_reg_u_flexsoc_axi_to_reg_i_fifo_write_req_mem_q_40_
*1053 u_gpio_reg_u_flexsoc_axi_to_reg_i_fifo_write_req_mem_q_41_
*1054 u_gpio_reg_u_flexsoc_axi_to_reg_i_fifo_write_req_mem_q_42_
*1055 u_gpio_reg_u_flexsoc_axi_to_reg_i_fifo_write_req_mem_q_44_
*1056 u_gpio_reg_u_flexsoc_axi_to_reg_i_fifo_write_req_mem_q_45_
*1057 u_gpio_reg_u_flexsoc_axi_to_reg_i_fifo_write_req_mem_q_46_
*1058 u_gpio_reg_u_flexsoc_axi_to_reg_i_fifo_write_req_mem_q_47_
*1059 u_gpio_reg_u_flexsoc_axi_to_reg_i_fifo_write_req_mem_q_48_
*1060 u_gpio_reg_u_flexsoc_axi_to_reg_i_fifo_write_req_mem_q_49_
*1061 u_gpio_reg_u_flexsoc_axi_to_reg_i_fifo_write_req_mem_q_4_
*1062 u_gpio_reg_u_flexsoc_axi_to_reg_i_fifo_write_req_mem_q_50_
*1063 u_gpio_reg_u_flexsoc_axi_to_reg_i_fifo_write_req_mem_q_51_
*1064 u_gpio_reg_u_flexsoc_axi_to_reg_i_fifo_write_req_mem_q_52_
*1065 u_gpio_reg_u_flexsoc_axi_to_reg_i_fifo_write_req_mem_q_53_
*1066 u_gpio_reg_u_flexsoc_axi_to_reg_i_fifo_write_req_mem_q_54_
*1067 u_gpio_reg_u_flexsoc_axi_to_reg_i_fifo_write_req_mem_q_55_
*1068 u_gpio_reg_u_flexsoc_axi_to_reg_i_fifo_write_req_mem_q_56_
*1069 u_gpio_reg_u_flexsoc_axi_to_reg_i_fifo_write_req_mem_q_57_
*1070 u_gpio_reg_u_flexsoc_axi_to_reg_i_fifo_write_req_mem_q_58_
*1071 u_gpio_reg_u_flexsoc_axi_to_reg_i_fifo_write_req_mem_q_59_
*1072 u_gpio_reg_u_flexsoc_axi_to_reg_i_fifo_write_req_mem_q_5_
*1073 u_gpio_reg_u_flexsoc_axi_to_reg_i_fifo_write_req_mem_q_60_
*1074 u_gpio_reg_u_flexsoc_axi_to_reg_i_fifo_write_req_mem_q_61_
*1075 u_gpio_reg_u_flexsoc_axi_to_reg_i_fifo_write_req_mem_q_62_
*1076 u_gpio_reg_u_flexsoc_axi_to_reg_i_fifo_write_req_mem_q_63_
*1077 u_gpio_reg_u_flexsoc_axi_to_reg_i_fifo_write_req_mem_q_6_
*1078 u_gpio_reg_u_flexsoc_axi_to_reg_i_fifo_write_req_mem_q_76_
*1079 u_gpio_reg_u_flexsoc_axi_to_reg_i_fifo_write_req_mem_q_77_
*1080 u_gpio_reg_u_flexsoc_axi_to_reg_i_fifo_write_req_mem_q_78_
*1081 u_gpio_reg_u_flexsoc_axi_to_reg_i_fifo_write_req_mem_q_79_
*1082 u_gpio_reg_u_flexsoc_axi_to_reg_i_fifo_write_req_mem_q_7_
*1083 u_gpio_reg_u_flexsoc_axi_to_reg_i_fifo_write_req_mem_q_8_
*1084 u_gpio_reg_u_flexsoc_axi_to_reg_i_fifo_write_req_mem_q_9_
*1085 u_gpio_reg_u_flexsoc_axi_to_reg_i_fifo_write_req_read_pointer_q
*1086 u_gpio_reg_u_flexsoc_axi_to_reg_i_fifo_write_req_status_cnt_q_0_
*1087 u_gpio_reg_u_flexsoc_axi_to_reg_i_fifo_write_req_status_cnt_q_1_
*1088 u_gpio_reg_u_flexsoc_axi_to_reg_i_fifo_write_req_write_pointer_q
*1089 u_gpio_reg_u_flexsoc_axi_to_reg_i_fifo_write_resp_mem_q_0_
*1090 u_gpio_reg_u_flexsoc_axi_to_reg_i_fifo_write_resp_mem_q_1_
*1091 u_gpio_reg_u_flexsoc_axi_to_reg_i_fifo_write_resp_read_pointer_q
*1092 u_gpio_reg_u_flexsoc_axi_to_reg_i_fifo_write_resp_status_cnt_q_0_
*1093 u_gpio_reg_u_flexsoc_axi_to_reg_i_fifo_write_resp_status_cnt_q_1_
*1094 u_gpio_reg_u_flexsoc_axi_to_reg_i_fifo_write_resp_write_pointer_q
*1095 u_gpio_reg_u_flexsoc_axi_to_reg_i_stream_arbiter_i_arb_gen_rr_arb_i_arbiter_gen_arbiter_rr_q
*1096 u_gpio_reg_u_reg_core_data_in_qs_0_
*1097 u_gpio_reg_u_reg_core_data_in_qs_1_
*1098 u_gpio_reg_u_reg_core_data_in_qs_2_
*1099 u_gpio_reg_u_reg_core_data_in_qs_3_
*1100 u_reg_reset_sync_intq
*2566 FILLER_0_0
*2583 FILLER_0_109
*2584 FILLER_0_119
*2585 FILLER_0_121
*2586 FILLER_0_129
*2587 FILLER_0_131
*2588 FILLER_0_140
*2589 FILLER_0_151
*2568 FILLER_0_16
*2590 FILLER_0_161
*2591 FILLER_0_173
*2592 FILLER_0_177
*2593 FILLER_0_179
*2594 FILLER_0_189
*2595 FILLER_0_197
*2596 FILLER_0_201
*2597 FILLER_0_211
*2598 FILLER_0_219
*2599 FILLER_0_227
*2600 FILLER_0_235
*2601 FILLER_0_239
*2569 FILLER_0_24
*2602 FILLER_0_241
*2603 FILLER_0_249
*2604 FILLER_0_257
*2605 FILLER_0_265
*2606 FILLER_0_269
*2607 FILLER_0_271
*2608 FILLER_0_279
*2570 FILLER_0_28
*2609 FILLER_0_287
*2610 FILLER_0_295
*2611 FILLER_0_299
*2612 FILLER_0_301
*2571 FILLER_0_31
*2572 FILLER_0_39
*2573 FILLER_0_47
*2574 FILLER_0_57
*2575 FILLER_0_59
*2576 FILLER_0_61
*2577 FILLER_0_69
*2578 FILLER_0_77
*2579 FILLER_0_79
*2567 FILLER_0_8
*2580 FILLER_0_88
*2581 FILLER_0_91
*2582 FILLER_0_99
*2928 FILLER_10_12
*2938 FILLER_10_124
*2939 FILLER_10_128
*2940 FILLER_10_158
*2929 FILLER_10_16
*2941 FILLER_10_166
*2942 FILLER_10_184
*2943 FILLER_10_188
*2944 FILLER_10_209
*2945 FILLER_10_211
*2946 FILLER_10_235
*2930 FILLER_10_24
*2947 FILLER_10_240
*2948 FILLER_10_248
*2949 FILLER_10_271
*2950 FILLER_10_279
*2931 FILLER_10_28
*2951 FILLER_10_287
*2952 FILLER_10_295
*2953 FILLER_10_303
*2932 FILLER_10_51
*2933 FILLER_10_75
*2934 FILLER_10_79
*2927 FILLER_10_8
*2935 FILLER_10_84
*2936 FILLER_10_88
*2937 FILLER_10_91
*2954 FILLER_11_0
*2955 FILLER_11_10
*2966 FILLER_11_102
*2967 FILLER_11_112
*2968 FILLER_11_121
*2969 FILLER_11_125
*2970 FILLER_11_147
*2971 FILLER_11_149
*2956 FILLER_11_17
*2972 FILLER_11_181
*2973 FILLER_11_185
*2974 FILLER_11_193
*2975 FILLER_11_198
*2976 FILLER_11_206
*2957 FILLER_11_21
*2958 FILLER_11_23
*2977 FILLER_11_231
*2978 FILLER_11_239
*2979 FILLER_11_241
*2980 FILLER_11_246
*2981 FILLER_11_254
*2982 FILLER_11_262
*2983 FILLER_11_283
*2984 FILLER_11_291
*2985 FILLER_11_299
*2986 FILLER_11_301
*2959 FILLER_11_47
*2960 FILLER_11_55
*2961 FILLER_11_59
*2962 FILLER_11_61
*2963 FILLER_11_92
*2964 FILLER_11_96
*2965 FILLER_11_98
*2987 FILLER_12_0
*2999 FILLER_12_100
*3000 FILLER_12_108
*3001 FILLER_12_127
*3002 FILLER_12_149
*2989 FILLER_12_15
*3003 FILLER_12_151
*3004 FILLER_12_163
*2990 FILLER_12_20
*3005 FILLER_12_207
*3006 FILLER_12_209
*3007 FILLER_12_211
*3008 FILLER_12_219
*3009 FILLER_12_227
*3010 FILLER_12_233
*3011 FILLER_12_237
*3012 FILLER_12_239
*2991 FILLER_12_25
*3013 FILLER_12_255
*3014 FILLER_12_259
*3015 FILLER_12_265
*3016 FILLER_12_271
*3017 FILLER_12_279
*3018 FILLER_12_287
*3019 FILLER_12_295
*3020 FILLER_12_303
*2992 FILLER_12_34
*2993 FILLER_12_48
*2994 FILLER_12_76
*2995 FILLER_12_84
*2996 FILLER_12_88
*2988 FILLER_12_9
*2997 FILLER_12_91
*2998 FILLER_12_95
*3034 FILLER_13_104
*3035 FILLER_13_108
*3036 FILLER_13_110
*3037 FILLER_13_114
*3038 FILLER_13_118
*3039 FILLER_13_124
*3040 FILLER_13_128
*3041 FILLER_13_134
*3021 FILLER_13_16
*3042 FILLER_13_176
*3043 FILLER_13_181
*3044 FILLER_13_192
*3045 FILLER_13_200
*3046 FILLER_13_233
*3047 FILLER_13_237
*3048 FILLER_13_239
*3022 FILLER_13_24
*3049 FILLER_13_253
*3050 FILLER_13_261
*3051 FILLER_13_269
*3052 FILLER_13_275
*3053 FILLER_13_283
*3054 FILLER_13_291
*3023 FILLER_13_30
*3055 FILLER_13_301
*3024 FILLER_13_38
*3025 FILLER_13_42
*3026 FILLER_13_48
*3027 FILLER_13_59
*3028 FILLER_13_61
*3029 FILLER_13_66
*3030 FILLER_13_68
*3031 FILLER_13_77
*3032 FILLER_13_81
*3033 FILLER_13_83
*3066 FILLER_14_125
*3067 FILLER_14_133
*3068 FILLER_14_142
*3069 FILLER_14_144
*3070 FILLER_14_148
*3071 FILLER_14_151
*3072 FILLER_14_159
*3073 FILLER_14_167
*3074 FILLER_14_175
*3075 FILLER_14_202
*3076 FILLER_14_211
*3077 FILLER_14_215
*3078 FILLER_14_227
*3079 FILLER_14_235
*3080 FILLER_14_257
*3081 FILLER_14_262
*3082 FILLER_14_271
*3083 FILLER_14_293
*3084 FILLER_14_302
*3085 FILLER_14_304
*3057 FILLER_14_31
*3058 FILLER_14_36
*3059 FILLER_14_44
*3060 FILLER_14_66
*3061 FILLER_14_74
*3056 FILLER_14_8
*3062 FILLER_14_85
*3063 FILLER_14_89
*3064 FILLER_14_91
*3065 FILLER_14_95
*3086 FILLER_15_0
*3087 FILLER_15_10
*3097 FILLER_15_102
*3098 FILLER_15_116
*3099 FILLER_15_137
*3100 FILLER_15_141
*3101 FILLER_15_159
*3088 FILLER_15_18
*3102 FILLER_15_207
*3103 FILLER_15_215
*3104 FILLER_15_224
*3105 FILLER_15_232
*3106 FILLER_15_241
*3107 FILLER_15_245
*3108 FILLER_15_271
*3109 FILLER_15_275
*3110 FILLER_15_299
*3111 FILLER_15_301
*3089 FILLER_15_40
*3090 FILLER_15_45
*3091 FILLER_15_47
*3092 FILLER_15_55
*3093 FILLER_15_59
*3094 FILLER_15_67
*3095 FILLER_15_73
*3096 FILLER_15_81
*3124 FILLER_16_111
*3113 FILLER_16_12
*3114 FILLER_16_14
*3125 FILLER_16_143
*3126 FILLER_16_154
*3127 FILLER_16_162
*3128 FILLER_16_170
*3129 FILLER_16_178
*3115 FILLER_16_18
*3130 FILLER_16_186
*3131 FILLER_16_190
*3132 FILLER_16_199
*3116 FILLER_16_20
*3133 FILLER_16_207
*3134 FILLER_16_209
*3135 FILLER_16_211
*3136 FILLER_16_213
*3137 FILLER_16_238
*3138 FILLER_16_247
*3139 FILLER_16_249
*3117 FILLER_16_25
*3140 FILLER_16_271
*3141 FILLER_16_279
*3142 FILLER_16_281
*3143 FILLER_16_286
*3144 FILLER_16_294
*3145 FILLER_16_296
*3118 FILLER_16_31
*3119 FILLER_16_42
*3120 FILLER_16_50
*3121 FILLER_16_65
*3122 FILLER_16_73
*3112 FILLER_16_8
*3123 FILLER_16_83
*3153 FILLER_17_109
*3154 FILLER_17_117
*3155 FILLER_17_119
*3156 FILLER_17_138
*3157 FILLER_17_142
*3158 FILLER_17_152
*3159 FILLER_17_160
*3160 FILLER_17_168
*3161 FILLER_17_174
*3162 FILLER_17_178
*3163 FILLER_17_181
*3164 FILLER_17_186
*3165 FILLER_17_190
*3166 FILLER_17_192
*3167 FILLER_17_197
*3168 FILLER_17_199
*3169 FILLER_17_220
*3170 FILLER_17_228
*3171 FILLER_17_236
*3146 FILLER_17_24
*3172 FILLER_17_241
*3173 FILLER_17_249
*3174 FILLER_17_257
*3175 FILLER_17_279
*3147 FILLER_17_28
*3176 FILLER_17_290
*3177 FILLER_17_301
*3148 FILLER_17_52
*3149 FILLER_17_57
*3150 FILLER_17_59
*3151 FILLER_17_93
*3152 FILLER_17_97
*3178 FILLER_18_0
*3179 FILLER_18_10
*3190 FILLER_18_101
*3191 FILLER_18_134
*3192 FILLER_18_138
*3180 FILLER_18_14
*3193 FILLER_18_140
*3194 FILLER_18_149
*3195 FILLER_18_151
*3196 FILLER_18_158
*3197 FILLER_18_162
*3198 FILLER_18_164
*3199 FILLER_18_188
*3200 FILLER_18_197
*3201 FILLER_18_205
*3202 FILLER_18_209
*3203 FILLER_18_214
*3204 FILLER_18_218
*3181 FILLER_18_22
*3205 FILLER_18_226
*3206 FILLER_18_228
*3207 FILLER_18_252
*3182 FILLER_18_26
*3208 FILLER_18_263
*3209 FILLER_18_265
*3210 FILLER_18_269
*3211 FILLER_18_271
*3212 FILLER_18_301
*3183 FILLER_18_34
*3184 FILLER_18_42
*3185 FILLER_18_46
*3186 FILLER_18_67
*3187 FILLER_18_69
*3188 FILLER_18_91
*3189 FILLER_18_99
*3220 FILLER_19_103
*3221 FILLER_19_111
*3222 FILLER_19_119
*3223 FILLER_19_121
*3224 FILLER_19_142
*3225 FILLER_19_163
*3226 FILLER_19_167
*3227 FILLER_19_173
*3228 FILLER_19_178
*3229 FILLER_19_181
*3230 FILLER_19_188
*3231 FILLER_19_196
*3232 FILLER_19_220
*3233 FILLER_19_227
*3234 FILLER_19_235
*3235 FILLER_19_239
*3236 FILLER_19_241
*3237 FILLER_19_255
*3238 FILLER_19_285
*3239 FILLER_19_290
*3240 FILLER_19_301
*3214 FILLER_19_50
*3215 FILLER_19_54
*3216 FILLER_19_56
*3217 FILLER_19_61
*3218 FILLER_19_74
*3219 FILLER_19_78
*3213 FILLER_19_8
*2613 FILLER_1_0
*2624 FILLER_1_121
*2625 FILLER_1_129
*2626 FILLER_1_139
*2615 FILLER_1_16
*2627 FILLER_1_176
*2628 FILLER_1_181
*2629 FILLER_1_185
*2630 FILLER_1_195
*2631 FILLER_1_203
*2632 FILLER_1_212
*2633 FILLER_1_220
*2634 FILLER_1_228
*2635 FILLER_1_236
*2616 FILLER_1_24
*2636 FILLER_1_241
*2637 FILLER_1_249
*2638 FILLER_1_257
*2639 FILLER_1_265
*2640 FILLER_1_273
*2641 FILLER_1_281
*2642 FILLER_1_289
*2643 FILLER_1_297
*2644 FILLER_1_299
*2645 FILLER_1_301
*2617 FILLER_1_32
*2618 FILLER_1_48
*2619 FILLER_1_52
*2620 FILLER_1_56
*2621 FILLER_1_61
*2622 FILLER_1_69
*2614 FILLER_1_8
*2623 FILLER_1_82
*3252 FILLER_20_119
*3253 FILLER_20_127
*3254 FILLER_20_132
*3255 FILLER_20_136
*3256 FILLER_20_138
*3257 FILLER_20_146
*3258 FILLER_20_151
*3241 FILLER_20_16
*3259 FILLER_20_166
*3260 FILLER_20_170
*3261 FILLER_20_172
*3262 FILLER_20_197
*3263 FILLER_20_201
*3264 FILLER_20_203
*3265 FILLER_20_208
*3242 FILLER_20_25
*3266 FILLER_20_251
*3267 FILLER_20_259
*3268 FILLER_20_267
*3269 FILLER_20_269
*3270 FILLER_20_271
*3271 FILLER_20_275
*3272 FILLER_20_280
*3243 FILLER_20_29
*3273 FILLER_20_301
*3244 FILLER_20_31
*3245 FILLER_20_37
*3246 FILLER_20_41
*3247 FILLER_20_49
*3248 FILLER_20_71
*3249 FILLER_20_73
*3250 FILLER_20_77
*3251 FILLER_20_91
*3284 FILLER_21_118
*3275 FILLER_21_12
*3285 FILLER_21_121
*3286 FILLER_21_146
*3287 FILLER_21_170
*3288 FILLER_21_172
*3289 FILLER_21_181
*3290 FILLER_21_185
*3291 FILLER_21_195
*3292 FILLER_21_219
*3293 FILLER_21_221
*3294 FILLER_21_225
*3295 FILLER_21_229
*3296 FILLER_21_231
*3297 FILLER_21_241
*3298 FILLER_21_245
*3299 FILLER_21_247
*3300 FILLER_21_251
*3301 FILLER_21_299
*3302 FILLER_21_301
*3276 FILLER_21_37
*3277 FILLER_21_41
*3278 FILLER_21_46
*3279 FILLER_21_54
*3280 FILLER_21_58
*3274 FILLER_21_8
*3281 FILLER_21_84
*3282 FILLER_21_88
*3283 FILLER_21_93
*3311 FILLER_22_101
*3312 FILLER_22_131
*3313 FILLER_22_139
*3314 FILLER_22_147
*3315 FILLER_22_149
*3316 FILLER_22_151
*3317 FILLER_22_159
*3318 FILLER_22_167
*3304 FILLER_22_18
*3319 FILLER_22_189
*3320 FILLER_22_193
*3321 FILLER_22_195
*3305 FILLER_22_20
*3322 FILLER_22_208
*3323 FILLER_22_218
*3324 FILLER_22_222
*3325 FILLER_22_227
*3326 FILLER_22_232
*3327 FILLER_22_234
*3328 FILLER_22_255
*3329 FILLER_22_259
*3330 FILLER_22_264
*3331 FILLER_22_268
*3332 FILLER_22_271
*3333 FILLER_22_275
*3334 FILLER_22_290
*3335 FILLER_22_302
*3336 FILLER_22_304
*3306 FILLER_22_39
*3307 FILLER_22_60
*3308 FILLER_22_64
*3309 FILLER_22_66
*3303 FILLER_22_8
*3310 FILLER_22_91
*3337 FILLER_23_0
*3349 FILLER_23_101
*3350 FILLER_23_109
*3351 FILLER_23_117
*3352 FILLER_23_119
*3353 FILLER_23_141
*3354 FILLER_23_143
*3355 FILLER_23_171
*3356 FILLER_23_179
*3357 FILLER_23_201
*3358 FILLER_23_203
*3340 FILLER_23_23
*3359 FILLER_23_230
*3360 FILLER_23_234
*3361 FILLER_23_241
*3362 FILLER_23_248
*3363 FILLER_23_256
*3341 FILLER_23_27
*3364 FILLER_23_277
*3365 FILLER_23_281
*3366 FILLER_23_283
*3342 FILLER_23_29
*3367 FILLER_23_292
*3368 FILLER_23_301
*3343 FILLER_23_37
*3344 FILLER_23_39
*3338 FILLER_23_4
*3345 FILLER_23_43
*3346 FILLER_23_48
*3347 FILLER_23_50
*3339 FILLER_23_6
*3348 FILLER_23_61
*3379 FILLER_24_111
*3380 FILLER_24_119
*3381 FILLER_24_127
*3382 FILLER_24_137
*3383 FILLER_24_149
*3384 FILLER_24_151
*3385 FILLER_24_159
*3386 FILLER_24_161
*3387 FILLER_24_167
*3388 FILLER_24_175
*3370 FILLER_24_18
*3389 FILLER_24_185
*3390 FILLER_24_192
*3391 FILLER_24_194
*3392 FILLER_24_198
*3371 FILLER_24_20
*3393 FILLER_24_206
*3394 FILLER_24_211
*3395 FILLER_24_232
*3396 FILLER_24_259
*3397 FILLER_24_267
*3398 FILLER_24_269
*3399 FILLER_24_271
*3400 FILLER_24_279
*3401 FILLER_24_301
*3372 FILLER_24_58
*3373 FILLER_24_62
*3374 FILLER_24_64
*3375 FILLER_24_68
*3376 FILLER_24_79
*3369 FILLER_24_8
*3377 FILLER_24_87
*3378 FILLER_24_89
*3413 FILLER_25_103
*3414 FILLER_25_107
*3415 FILLER_25_118
*3403 FILLER_25_12
*3416 FILLER_25_124
*3417 FILLER_25_132
*3418 FILLER_25_140
*3419 FILLER_25_144
*3420 FILLER_25_146
*3421 FILLER_25_170
*3422 FILLER_25_178
*3423 FILLER_25_185
*3424 FILLER_25_189
*3425 FILLER_25_197
*3426 FILLER_25_201
*3427 FILLER_25_205
*3428 FILLER_25_235
*3429 FILLER_25_244
*3430 FILLER_25_248
*3431 FILLER_25_279
*3432 FILLER_25_294
*3433 FILLER_25_298
*3434 FILLER_25_301
*3404 FILLER_25_41
*3405 FILLER_25_45
*3406 FILLER_25_49
*3407 FILLER_25_57
*3408 FILLER_25_59
*3409 FILLER_25_61
*3410 FILLER_25_65
*3411 FILLER_25_74
*3402 FILLER_25_8
*3412 FILLER_25_99
*3435 FILLER_26_0
*3442 FILLER_26_114
*3443 FILLER_26_122
*3444 FILLER_26_126
*3445 FILLER_26_148
*3446 FILLER_26_171
*3447 FILLER_26_193
*3448 FILLER_26_195
*3449 FILLER_26_211
*3450 FILLER_26_213
*3451 FILLER_26_220
*3452 FILLER_26_226
*3453 FILLER_26_230
*3454 FILLER_26_249
*3455 FILLER_26_271
*3456 FILLER_26_300
*3457 FILLER_26_304
*3436 FILLER_26_31
*3437 FILLER_26_35
*3438 FILLER_26_41
*3439 FILLER_26_45
*3440 FILLER_26_67
*3441 FILLER_26_69
*3466 FILLER_27_117
*3467 FILLER_27_119
*3468 FILLER_27_121
*3469 FILLER_27_150
*3470 FILLER_27_154
*3471 FILLER_27_158
*3472 FILLER_27_170
*3473 FILLER_27_178
*3474 FILLER_27_201
*3475 FILLER_27_209
*3476 FILLER_27_213
*3477 FILLER_27_218
*3478 FILLER_27_241
*3479 FILLER_27_245
*3480 FILLER_27_250
*3481 FILLER_27_257
*3482 FILLER_27_261
*3483 FILLER_27_269
*3484 FILLER_27_273
*3485 FILLER_27_277
*3486 FILLER_27_279
*3487 FILLER_27_291
*3488 FILLER_27_301
*3458 FILLER_27_48
*3459 FILLER_27_56
*3460 FILLER_27_61
*3461 FILLER_27_69
*3462 FILLER_27_82
*3463 FILLER_27_90
*3464 FILLER_27_94
*3465 FILLER_27_96
*3495 FILLER_28_100
*3496 FILLER_28_131
*3497 FILLER_28_139
*3498 FILLER_28_151
*3499 FILLER_28_155
*3500 FILLER_28_159
*3501 FILLER_28_165
*3502 FILLER_28_169
*3503 FILLER_28_194
*3504 FILLER_28_196
*3505 FILLER_28_204
*3506 FILLER_28_208
*3507 FILLER_28_211
*3508 FILLER_28_219
*3509 FILLER_28_248
*3510 FILLER_28_291
*3511 FILLER_28_295
*3490 FILLER_28_44
*3491 FILLER_28_76
*3489 FILLER_28_8
*3492 FILLER_28_81
*3493 FILLER_28_89
*3494 FILLER_28_91
*3513 FILLER_29_12
*3519 FILLER_29_121
*3520 FILLER_29_131
*3521 FILLER_29_139
*3522 FILLER_29_143
*3523 FILLER_29_160
*3524 FILLER_29_162
*3525 FILLER_29_169
*3526 FILLER_29_171
*3527 FILLER_29_176
*3528 FILLER_29_181
*3529 FILLER_29_185
*3530 FILLER_29_187
*3531 FILLER_29_191
*3532 FILLER_29_195
*3533 FILLER_29_216
*3534 FILLER_29_224
*3514 FILLER_29_23
*3535 FILLER_29_233
*3536 FILLER_29_237
*3537 FILLER_29_239
*3538 FILLER_29_241
*3539 FILLER_29_249
*3515 FILLER_29_25
*3540 FILLER_29_253
*3541 FILLER_29_255
*3542 FILLER_29_282
*3543 FILLER_29_287
*3544 FILLER_29_295
*3545 FILLER_29_299
*3546 FILLER_29_301
*3516 FILLER_29_36
*3517 FILLER_29_61
*3512 FILLER_29_8
*3518 FILLER_29_99
*2646 FILLER_2_0
*2656 FILLER_2_110
*2657 FILLER_2_126
*2658 FILLER_2_130
*2659 FILLER_2_132
*2660 FILLER_2_136
*2661 FILLER_2_144
*2662 FILLER_2_148
*2648 FILLER_2_16
*2663 FILLER_2_163
*2664 FILLER_2_205
*2665 FILLER_2_209
*2666 FILLER_2_211
*2667 FILLER_2_215
*2668 FILLER_2_237
*2649 FILLER_2_24
*2669 FILLER_2_245
*2670 FILLER_2_253
*2671 FILLER_2_261
*2672 FILLER_2_269
*2673 FILLER_2_271
*2674 FILLER_2_279
*2650 FILLER_2_28
*2675 FILLER_2_287
*2676 FILLER_2_295
*2677 FILLER_2_303
*2651 FILLER_2_31
*2652 FILLER_2_39
*2653 FILLER_2_47
*2647 FILLER_2_8
*2654 FILLER_2_91
*2655 FILLER_2_99
*3557 FILLER_30_114
*3558 FILLER_30_144
*3559 FILLER_30_148
*3560 FILLER_30_171
*3561 FILLER_30_179
*3562 FILLER_30_187
*3563 FILLER_30_189
*3564 FILLER_30_211
*3565 FILLER_30_215
*3566 FILLER_30_244
*3567 FILLER_30_248
*3568 FILLER_30_252
*3548 FILLER_30_26
*3569 FILLER_30_260
*3570 FILLER_30_291
*3571 FILLER_30_293
*3572 FILLER_30_302
*3573 FILLER_30_304
*3549 FILLER_30_39
*3550 FILLER_30_41
*3551 FILLER_30_55
*3547 FILLER_30_8
*3552 FILLER_30_80
*3553 FILLER_30_84
*3554 FILLER_30_86
*3555 FILLER_30_91
*3556 FILLER_30_93
*3582 FILLER_31_101
*3583 FILLER_31_105
*3584 FILLER_31_107
*3585 FILLER_31_114
*3586 FILLER_31_118
*3575 FILLER_31_12
*3576 FILLER_31_14
*3587 FILLER_31_141
*3588 FILLER_31_143
*3589 FILLER_31_152
*3590 FILLER_31_161
*3591 FILLER_31_163
*3592 FILLER_31_171
*3593 FILLER_31_177
*3594 FILLER_31_179
*3595 FILLER_31_184
*3596 FILLER_31_188
*3597 FILLER_31_190
*3598 FILLER_31_194
*3599 FILLER_31_196
*3600 FILLER_31_201
*3601 FILLER_31_203
*3602 FILLER_31_207
*3603 FILLER_31_212
*3604 FILLER_31_219
*3605 FILLER_31_229
*3606 FILLER_31_231
*3607 FILLER_31_239
*3608 FILLER_31_241
*3609 FILLER_31_245
*3610 FILLER_31_247
*3611 FILLER_31_251
*3612 FILLER_31_259
*3613 FILLER_31_267
*3614 FILLER_31_288
*3615 FILLER_31_296
*3616 FILLER_31_301
*3577 FILLER_31_59
*3578 FILLER_31_61
*3579 FILLER_31_68
*3580 FILLER_31_76
*3574 FILLER_31_8
*3581 FILLER_31_80
*3617 FILLER_32_0
*3633 FILLER_32_107
*3634 FILLER_32_111
*3619 FILLER_32_13
*3635 FILLER_32_135
*3636 FILLER_32_140
*3637 FILLER_32_148
*3638 FILLER_32_151
*3639 FILLER_32_155
*3640 FILLER_32_160
*3641 FILLER_32_167
*3642 FILLER_32_169
*3620 FILLER_32_17
*3621 FILLER_32_19
*3643 FILLER_32_214
*3644 FILLER_32_216
*3645 FILLER_32_257
*3646 FILLER_32_261
*3647 FILLER_32_265
*3648 FILLER_32_271
*3649 FILLER_32_275
*3622 FILLER_32_28
*3650 FILLER_32_283
*3651 FILLER_32_300
*3652 FILLER_32_304
*3618 FILLER_32_4
*3623 FILLER_32_51
*3624 FILLER_32_56
*3625 FILLER_32_60
*3626 FILLER_32_66
*3627 FILLER_32_74
*3628 FILLER_32_78
*3629 FILLER_32_82
*3630 FILLER_32_86
*3631 FILLER_32_91
*3632 FILLER_32_99
*3653 FILLER_33_0
*3667 FILLER_33_103
*3668 FILLER_33_108
*3669 FILLER_33_110
*3670 FILLER_33_118
*3671 FILLER_33_132
*3672 FILLER_33_134
*3673 FILLER_33_163
*3674 FILLER_33_171
*3675 FILLER_33_173
*3676 FILLER_33_178
*3677 FILLER_33_181
*3678 FILLER_33_185
*3679 FILLER_33_192
*3654 FILLER_33_20
*3655 FILLER_33_22
*3680 FILLER_33_237
*3681 FILLER_33_239
*3682 FILLER_33_267
*3683 FILLER_33_299
*3684 FILLER_33_301
*3656 FILLER_33_38
*3657 FILLER_33_42
*3658 FILLER_33_46
*3659 FILLER_33_57
*3660 FILLER_33_59
*3661 FILLER_33_61
*3662 FILLER_33_66
*3663 FILLER_33_74
*3664 FILLER_33_76
*3665 FILLER_33_86
*3666 FILLER_33_93
*3685 FILLER_34_0
*3695 FILLER_34_123
*3696 FILLER_34_127
*3697 FILLER_34_149
*3698 FILLER_34_151
*3699 FILLER_34_192
*3700 FILLER_34_200
*3701 FILLER_34_204
*3702 FILLER_34_211
*3703 FILLER_34_213
*3704 FILLER_34_224
*3705 FILLER_34_226
*3706 FILLER_34_236
*3707 FILLER_34_244
*3708 FILLER_34_246
*3686 FILLER_34_27
*3709 FILLER_34_271
*3710 FILLER_34_275
*3711 FILLER_34_281
*3712 FILLER_34_286
*3687 FILLER_34_29
*3713 FILLER_34_290
*3714 FILLER_34_302
*3715 FILLER_34_304
*3688 FILLER_34_31
*3689 FILLER_34_35
*3690 FILLER_34_63
*3691 FILLER_34_67
*3692 FILLER_34_69
*3693 FILLER_34_91
*3694 FILLER_34_99
*3722 FILLER_35_103
*3723 FILLER_35_111
*3724 FILLER_35_119
*3725 FILLER_35_121
*3726 FILLER_35_145
*3727 FILLER_35_157
*3728 FILLER_35_166
*3729 FILLER_35_170
*3730 FILLER_35_172
*3731 FILLER_35_181
*3732 FILLER_35_185
*3733 FILLER_35_193
*3734 FILLER_35_198
*3735 FILLER_35_202
*3736 FILLER_35_223
*3737 FILLER_35_231
*3738 FILLER_35_239
*3739 FILLER_35_241
*3740 FILLER_35_249
*3741 FILLER_35_257
*3742 FILLER_35_294
*3743 FILLER_35_298
*3744 FILLER_35_301
*3717 FILLER_35_32
*3718 FILLER_35_64
*3719 FILLER_35_72
*3720 FILLER_35_76
*3716 FILLER_35_8
*3721 FILLER_35_81
*3745 FILLER_36_0
*3757 FILLER_36_110
*3758 FILLER_36_114
*3759 FILLER_36_116
*3760 FILLER_36_191
*3761 FILLER_36_199
*3746 FILLER_36_2
*3762 FILLER_36_207
*3763 FILLER_36_209
*3764 FILLER_36_211
*3747 FILLER_36_22
*3765 FILLER_36_242
*3766 FILLER_36_246
*3767 FILLER_36_251
*3768 FILLER_36_259
*3769 FILLER_36_267
*3770 FILLER_36_269
*3748 FILLER_36_27
*3771 FILLER_36_271
*3749 FILLER_36_29
*3772 FILLER_36_292
*3773 FILLER_36_300
*3774 FILLER_36_304
*3750 FILLER_36_31
*3751 FILLER_36_35
*3752 FILLER_36_39
*3753 FILLER_36_79
*3754 FILLER_36_86
*3755 FILLER_36_91
*3756 FILLER_36_99
*3776 FILLER_37_10
*3783 FILLER_37_121
*3784 FILLER_37_125
*3785 FILLER_37_127
*3786 FILLER_37_148
*3787 FILLER_37_156
*3788 FILLER_37_163
*3789 FILLER_37_171
*3790 FILLER_37_179
*3791 FILLER_37_181
*3792 FILLER_37_189
*3777 FILLER_37_20
*3793 FILLER_37_218
*3794 FILLER_37_226
*3795 FILLER_37_236
*3796 FILLER_37_241
*3797 FILLER_37_298
*3798 FILLER_37_301
*3778 FILLER_37_42
*3779 FILLER_37_50
*3780 FILLER_37_58
*3781 FILLER_37_61
*3782 FILLER_37_69
*3775 FILLER_37_8
*3810 FILLER_38_134
*3811 FILLER_38_142
*3812 FILLER_38_151
*3813 FILLER_38_166
*3814 FILLER_38_170
*3815 FILLER_38_191
*3816 FILLER_38_199
*3817 FILLER_38_207
*3818 FILLER_38_209
*3819 FILLER_38_211
*3820 FILLER_38_215
*3821 FILLER_38_219
*3822 FILLER_38_227
*3823 FILLER_38_231
*3824 FILLER_38_252
*3825 FILLER_38_260
*3826 FILLER_38_268
*3827 FILLER_38_271
*3828 FILLER_38_275
*3799 FILLER_38_28
*3829 FILLER_38_281
*3830 FILLER_38_285
*3831 FILLER_38_290
*3832 FILLER_38_302
*3833 FILLER_38_304
*3800 FILLER_38_31
*3801 FILLER_38_39
*3802 FILLER_38_43
*3803 FILLER_38_56
*3804 FILLER_38_60
*3805 FILLER_38_65
*3806 FILLER_38_75
*3807 FILLER_38_77
*3808 FILLER_38_81
*3809 FILLER_38_88
*3834 FILLER_39_0
*3840 FILLER_39_105
*3841 FILLER_39_109
*3842 FILLER_39_121
*3843 FILLER_39_123
*3844 FILLER_39_133
*3845 FILLER_39_155
*3846 FILLER_39_163
*3847 FILLER_39_168
*3848 FILLER_39_173
*3849 FILLER_39_188
*3836 FILLER_39_19
*3850 FILLER_39_220
*3851 FILLER_39_228
*3852 FILLER_39_236
*3853 FILLER_39_241
*3854 FILLER_39_249
*3855 FILLER_39_256
*3837 FILLER_39_27
*3856 FILLER_39_278
*3857 FILLER_39_280
*3858 FILLER_39_292
*3859 FILLER_39_301
*3838 FILLER_39_36
*3839 FILLER_39_58
*3835 FILLER_39_9
*2678 FILLER_3_0
*2691 FILLER_3_109
*2692 FILLER_3_113
*2693 FILLER_3_154
*2694 FILLER_3_158
*2680 FILLER_3_16
*2695 FILLER_3_160
*2696 FILLER_3_181
*2697 FILLER_3_185
*2698 FILLER_3_207
*2699 FILLER_3_215
*2700 FILLER_3_236
*2681 FILLER_3_24
*2701 FILLER_3_241
*2702 FILLER_3_249
*2703 FILLER_3_257
*2704 FILLER_3_265
*2705 FILLER_3_273
*2706 FILLER_3_281
*2707 FILLER_3_289
*2708 FILLER_3_297
*2709 FILLER_3_299
*2710 FILLER_3_301
*2682 FILLER_3_45
*2683 FILLER_3_53
*2684 FILLER_3_57
*2685 FILLER_3_59
*2686 FILLER_3_61
*2687 FILLER_3_69
*2679 FILLER_3_8
*2688 FILLER_3_80
*2689 FILLER_3_88
*2690 FILLER_3_96
*3876 FILLER_40_106
*3877 FILLER_40_114
*3878 FILLER_40_118
*3879 FILLER_40_120
*3880 FILLER_40_141
*3881 FILLER_40_149
*3882 FILLER_40_151
*3883 FILLER_40_153
*3884 FILLER_40_158
*3885 FILLER_40_164
*3861 FILLER_40_18
*3886 FILLER_40_198
*3887 FILLER_40_206
*3888 FILLER_40_211
*3889 FILLER_40_215
*3890 FILLER_40_222
*3891 FILLER_40_253
*3892 FILLER_40_261
*3893 FILLER_40_268
*3894 FILLER_40_278
*3895 FILLER_40_286
*3862 FILLER_40_29
*3896 FILLER_40_290
*3897 FILLER_40_302
*3898 FILLER_40_304
*3863 FILLER_40_31
*3864 FILLER_40_33
*3865 FILLER_40_37
*3866 FILLER_40_41
*3867 FILLER_40_48
*3868 FILLER_40_56
*3869 FILLER_40_66
*3870 FILLER_40_74
*3871 FILLER_40_78
*3860 FILLER_40_8
*3872 FILLER_40_82
*3873 FILLER_40_88
*3874 FILLER_40_91
*3875 FILLER_40_99
*3899 FILLER_41_0
*3906 FILLER_41_106
*3907 FILLER_41_108
*3908 FILLER_41_118
*3909 FILLER_41_121
*3910 FILLER_41_125
*3911 FILLER_41_146
*3912 FILLER_41_154
*3913 FILLER_41_158
*3914 FILLER_41_184
*3915 FILLER_41_186
*3916 FILLER_41_190
*3917 FILLER_41_201
*3918 FILLER_41_206
*3919 FILLER_41_230
*3920 FILLER_41_236
*3921 FILLER_41_251
*3922 FILLER_41_255
*3923 FILLER_41_260
*3924 FILLER_41_264
*3925 FILLER_41_266
*3926 FILLER_41_270
*3927 FILLER_41_292
*3928 FILLER_41_301
*3900 FILLER_41_4
*3901 FILLER_41_45
*3902 FILLER_41_53
*3903 FILLER_41_57
*3904 FILLER_41_59
*3905 FILLER_41_84
*3929 FILLER_42_0
*3940 FILLER_42_102
*3941 FILLER_42_110
*3942 FILLER_42_114
*3930 FILLER_42_12
*3943 FILLER_42_143
*3944 FILLER_42_149
*3945 FILLER_42_154
*3946 FILLER_42_162
*3947 FILLER_42_166
*3948 FILLER_42_168
*3949 FILLER_42_173
*3950 FILLER_42_177
*3951 FILLER_42_182
*3952 FILLER_42_189
*3931 FILLER_42_20
*3953 FILLER_42_211
*3954 FILLER_42_215
*3955 FILLER_42_217
*3956 FILLER_42_221
*3957 FILLER_42_223
*3958 FILLER_42_230
*3959 FILLER_42_238
*3960 FILLER_42_246
*3961 FILLER_42_271
*3962 FILLER_42_279
*3932 FILLER_42_28
*3963 FILLER_42_287
*3964 FILLER_42_295
*3965 FILLER_42_303
*3933 FILLER_42_31
*3934 FILLER_42_43
*3935 FILLER_42_47
*3936 FILLER_42_58
*3937 FILLER_42_60
*3938 FILLER_42_85
*3939 FILLER_42_94
*3966 FILLER_43_0
*3968 FILLER_43_13
*3969 FILLER_43_15
*3981 FILLER_43_164
*3982 FILLER_43_172
*3983 FILLER_43_221
*3984 FILLER_43_227
*3985 FILLER_43_235
*3986 FILLER_43_239
*3970 FILLER_43_25
*3987 FILLER_43_261
*3988 FILLER_43_269
*3971 FILLER_43_27
*3989 FILLER_43_277
*3990 FILLER_43_285
*3991 FILLER_43_293
*3992 FILLER_43_297
*3993 FILLER_43_299
*3994 FILLER_43_301
*3972 FILLER_43_31
*3973 FILLER_43_35
*3974 FILLER_43_61
*3975 FILLER_43_65
*3976 FILLER_43_75
*3977 FILLER_43_77
*3978 FILLER_43_81
*3979 FILLER_43_85
*3967 FILLER_43_9
*3980 FILLER_43_90
*3995 FILLER_44_0
*4006 FILLER_44_116
*4007 FILLER_44_124
*4008 FILLER_44_126
*4009 FILLER_44_135
*4010 FILLER_44_139
*4011 FILLER_44_141
*4012 FILLER_44_148
*4013 FILLER_44_151
*4014 FILLER_44_160
*4015 FILLER_44_181
*4016 FILLER_44_185
*4017 FILLER_44_193
*4018 FILLER_44_201
*4019 FILLER_44_209
*4020 FILLER_44_211
*4021 FILLER_44_235
*4022 FILLER_44_243
*4023 FILLER_44_247
*4024 FILLER_44_268
*4025 FILLER_44_271
*4026 FILLER_44_279
*4027 FILLER_44_287
*4028 FILLER_44_295
*4029 FILLER_44_303
*3997 FILLER_44_31
*3998 FILLER_44_42
*3999 FILLER_44_50
*4000 FILLER_44_54
*4001 FILLER_44_56
*4002 FILLER_44_77
*3996 FILLER_44_8
*4003 FILLER_44_85
*4004 FILLER_44_89
*4005 FILLER_44_91
*4030 FILLER_45_0
*4031 FILLER_45_12
*4039 FILLER_45_131
*4040 FILLER_45_138
*4041 FILLER_45_140
*4042 FILLER_45_144
*4043 FILLER_45_148
*4044 FILLER_45_157
*4045 FILLER_45_179
*4046 FILLER_45_181
*4047 FILLER_45_195
*4032 FILLER_45_20
*4048 FILLER_45_230
*4049 FILLER_45_234
*4050 FILLER_45_238
*4051 FILLER_45_241
*4052 FILLER_45_249
*4053 FILLER_45_257
*4054 FILLER_45_265
*4055 FILLER_45_273
*4033 FILLER_45_28
*4056 FILLER_45_281
*4057 FILLER_45_289
*4058 FILLER_45_297
*4059 FILLER_45_299
*4060 FILLER_45_301
*4034 FILLER_45_32
*4035 FILLER_45_54
*4036 FILLER_45_58
*4037 FILLER_45_81
*4038 FILLER_45_89
*4061 FILLER_46_0
*4070 FILLER_46_138
*4071 FILLER_46_145
*4072 FILLER_46_149
*4063 FILLER_46_16
*4073 FILLER_46_164
*4074 FILLER_46_172
*4075 FILLER_46_194
*4076 FILLER_46_208
*4077 FILLER_46_215
*4078 FILLER_46_227
*4079 FILLER_46_235
*4064 FILLER_46_24
*4080 FILLER_46_243
*4081 FILLER_46_251
*4082 FILLER_46_259
*4083 FILLER_46_267
*4084 FILLER_46_269
*4085 FILLER_46_271
*4086 FILLER_46_279
*4065 FILLER_46_28
*4087 FILLER_46_287
*4088 FILLER_46_295
*4089 FILLER_46_303
*4066 FILLER_46_31
*4067 FILLER_46_55
*4068 FILLER_46_63
*4062 FILLER_46_8
*4069 FILLER_46_91
*4090 FILLER_47_0
*4101 FILLER_47_100
*4102 FILLER_47_110
*4103 FILLER_47_118
*4104 FILLER_47_121
*4105 FILLER_47_132
*4106 FILLER_47_144
*4107 FILLER_47_154
*4108 FILLER_47_159
*4092 FILLER_47_16
*4109 FILLER_47_181
*4110 FILLER_47_203
*4111 FILLER_47_205
*4112 FILLER_47_209
*4113 FILLER_47_211
*4114 FILLER_47_215
*4115 FILLER_47_222
*4116 FILLER_47_227
*4117 FILLER_47_235
*4118 FILLER_47_239
*4093 FILLER_47_24
*4119 FILLER_47_241
*4120 FILLER_47_249
*4121 FILLER_47_257
*4122 FILLER_47_265
*4123 FILLER_47_273
*4124 FILLER_47_281
*4125 FILLER_47_289
*4126 FILLER_47_297
*4127 FILLER_47_299
*4128 FILLER_47_301
*4094 FILLER_47_32
*4095 FILLER_47_40
*4096 FILLER_47_48
*4097 FILLER_47_56
*4098 FILLER_47_61
*4099 FILLER_47_68
*4100 FILLER_47_76
*4091 FILLER_47_8
*4129 FILLER_48_0
*4142 FILLER_48_122
*4131 FILLER_48_16
*4143 FILLER_48_205
*4144 FILLER_48_211
*4145 FILLER_48_221
*4146 FILLER_48_225
*4147 FILLER_48_227
*4148 FILLER_48_231
*4149 FILLER_48_239
*4132 FILLER_48_24
*4150 FILLER_48_243
*4151 FILLER_48_253
*4152 FILLER_48_261
*4153 FILLER_48_269
*4154 FILLER_48_271
*4155 FILLER_48_279
*4133 FILLER_48_28
*4156 FILLER_48_287
*4157 FILLER_48_295
*4158 FILLER_48_303
*4134 FILLER_48_31
*4135 FILLER_48_39
*4136 FILLER_48_47
*4137 FILLER_48_55
*4130 FILLER_48_8
*4138 FILLER_48_83
*4139 FILLER_48_87
*4140 FILLER_48_89
*4141 FILLER_48_91
*4159 FILLER_49_0
*4174 FILLER_49_100
*4175 FILLER_49_117
*4176 FILLER_49_119
*4177 FILLER_49_121
*4178 FILLER_49_129
*4179 FILLER_49_133
*4180 FILLER_49_135
*4181 FILLER_49_156
*4161 FILLER_49_16
*4182 FILLER_49_165
*4183 FILLER_49_173
*4184 FILLER_49_177
*4185 FILLER_49_179
*4186 FILLER_49_181
*4187 FILLER_49_185
*4188 FILLER_49_203
*4189 FILLER_49_224
*4190 FILLER_49_233
*4191 FILLER_49_237
*4192 FILLER_49_239
*4162 FILLER_49_24
*4193 FILLER_49_241
*4194 FILLER_49_249
*4195 FILLER_49_257
*4196 FILLER_49_265
*4197 FILLER_49_273
*4198 FILLER_49_281
*4199 FILLER_49_289
*4200 FILLER_49_297
*4201 FILLER_49_299
*4202 FILLER_49_301
*4163 FILLER_49_32
*4164 FILLER_49_40
*4165 FILLER_49_48
*4166 FILLER_49_56
*4167 FILLER_49_61
*4168 FILLER_49_63
*4169 FILLER_49_72
*4170 FILLER_49_76
*4160 FILLER_49_8
*4171 FILLER_49_86
*4172 FILLER_49_94
*4173 FILLER_49_98
*2711 FILLER_4_0
*2727 FILLER_4_112
*2728 FILLER_4_136
*2729 FILLER_4_140
*2730 FILLER_4_148
*2731 FILLER_4_151
*2732 FILLER_4_155
*2713 FILLER_4_16
*2733 FILLER_4_165
*2734 FILLER_4_169
*2735 FILLER_4_194
*2736 FILLER_4_202
*2737 FILLER_4_234
*2738 FILLER_4_238
*2714 FILLER_4_24
*2739 FILLER_4_246
*2740 FILLER_4_254
*2741 FILLER_4_262
*2742 FILLER_4_271
*2743 FILLER_4_279
*2715 FILLER_4_28
*2744 FILLER_4_287
*2745 FILLER_4_295
*2746 FILLER_4_299
*2747 FILLER_4_303
*2716 FILLER_4_31
*2717 FILLER_4_39
*2718 FILLER_4_47
*2719 FILLER_4_55
*2720 FILLER_4_63
*2721 FILLER_4_71
*2722 FILLER_4_73
*2712 FILLER_4_8
*2723 FILLER_4_83
*2724 FILLER_4_87
*2725 FILLER_4_89
*2726 FILLER_4_91
*4203 FILLER_50_0
*4222 FILLER_50_117
*4223 FILLER_50_119
*4224 FILLER_50_121
*4225 FILLER_50_129
*4226 FILLER_50_137
*4227 FILLER_50_151
*4228 FILLER_50_155
*4205 FILLER_50_16
*4229 FILLER_50_172
*4230 FILLER_50_181
*4231 FILLER_50_189
*4232 FILLER_50_191
*4233 FILLER_50_200
*4234 FILLER_50_208
*4235 FILLER_50_211
*4236 FILLER_50_215
*4237 FILLER_50_237
*4238 FILLER_50_239
*4206 FILLER_50_24
*4239 FILLER_50_241
*4240 FILLER_50_249
*4241 FILLER_50_257
*4242 FILLER_50_265
*4243 FILLER_50_269
*4244 FILLER_50_271
*4245 FILLER_50_279
*4207 FILLER_50_28
*4246 FILLER_50_287
*4247 FILLER_50_295
*4248 FILLER_50_299
*4249 FILLER_50_301
*4208 FILLER_50_31
*4209 FILLER_50_39
*4210 FILLER_50_47
*4211 FILLER_50_55
*4212 FILLER_50_59
*4213 FILLER_50_61
*4214 FILLER_50_63
*4215 FILLER_50_72
*4216 FILLER_50_76
*4217 FILLER_50_78
*4204 FILLER_50_8
*4218 FILLER_50_87
*4219 FILLER_50_89
*4220 FILLER_50_91
*4221 FILLER_50_95
*2748 FILLER_5_0
*2756 FILLER_5_104
*2757 FILLER_5_109
*2758 FILLER_5_113
*2759 FILLER_5_117
*2760 FILLER_5_119
*2761 FILLER_5_121
*2762 FILLER_5_129
*2763 FILLER_5_133
*2764 FILLER_5_143
*2765 FILLER_5_151
*2766 FILLER_5_155
*2750 FILLER_5_16
*2767 FILLER_5_165
*2768 FILLER_5_172
*2769 FILLER_5_181
*2770 FILLER_5_185
*2771 FILLER_5_207
*2772 FILLER_5_215
*2773 FILLER_5_225
*2774 FILLER_5_227
*2775 FILLER_5_237
*2776 FILLER_5_239
*2751 FILLER_5_24
*2777 FILLER_5_241
*2778 FILLER_5_249
*2779 FILLER_5_257
*2780 FILLER_5_265
*2781 FILLER_5_273
*2782 FILLER_5_281
*2783 FILLER_5_289
*2784 FILLER_5_297
*2785 FILLER_5_299
*2786 FILLER_5_301
*2752 FILLER_5_45
*2753 FILLER_5_61
*2754 FILLER_5_69
*2749 FILLER_5_8
*2755 FILLER_5_80
*2800 FILLER_6_117
*2801 FILLER_6_125
*2802 FILLER_6_129
*2803 FILLER_6_151
*2804 FILLER_6_155
*2805 FILLER_6_157
*2788 FILLER_6_16
*2806 FILLER_6_167
*2807 FILLER_6_178
*2808 FILLER_6_200
*2809 FILLER_6_208
*2810 FILLER_6_211
*2811 FILLER_6_215
*2812 FILLER_6_217
*2813 FILLER_6_233
*2814 FILLER_6_237
*2789 FILLER_6_24
*2815 FILLER_6_245
*2816 FILLER_6_253
*2817 FILLER_6_261
*2818 FILLER_6_269
*2819 FILLER_6_271
*2820 FILLER_6_279
*2790 FILLER_6_28
*2821 FILLER_6_287
*2822 FILLER_6_295
*2823 FILLER_6_303
*2791 FILLER_6_31
*2792 FILLER_6_39
*2793 FILLER_6_43
*2794 FILLER_6_49
*2795 FILLER_6_53
*2796 FILLER_6_74
*2787 FILLER_6_8
*2797 FILLER_6_82
*2798 FILLER_6_91
*2799 FILLER_6_99
*2830 FILLER_7_105
*2831 FILLER_7_113
*2832 FILLER_7_117
*2833 FILLER_7_119
*2834 FILLER_7_121
*2835 FILLER_7_143
*2836 FILLER_7_147
*2837 FILLER_7_184
*2838 FILLER_7_206
*2839 FILLER_7_214
*2840 FILLER_7_219
*2841 FILLER_7_223
*2842 FILLER_7_231
*2843 FILLER_7_239
*2844 FILLER_7_241
*2845 FILLER_7_249
*2846 FILLER_7_257
*2847 FILLER_7_265
*2848 FILLER_7_273
*2849 FILLER_7_281
*2850 FILLER_7_289
*2851 FILLER_7_297
*2852 FILLER_7_299
*2853 FILLER_7_301
*2825 FILLER_7_61
*2826 FILLER_7_65
*2827 FILLER_7_67
*2824 FILLER_7_8
*2828 FILLER_7_80
*2829 FILLER_7_84
*2854 FILLER_8_0
*2866 FILLER_8_124
*2867 FILLER_8_129
*2868 FILLER_8_131
*2869 FILLER_8_144
*2870 FILLER_8_148
*2871 FILLER_8_151
*2872 FILLER_8_159
*2873 FILLER_8_167
*2874 FILLER_8_171
*2875 FILLER_8_184
*2876 FILLER_8_188
*2877 FILLER_8_193
*2878 FILLER_8_201
*2879 FILLER_8_209
*2880 FILLER_8_234
*2881 FILLER_8_242
*2882 FILLER_8_250
*2883 FILLER_8_258
*2884 FILLER_8_266
*2885 FILLER_8_271
*2886 FILLER_8_279
*2887 FILLER_8_287
*2856 FILLER_8_29
*2888 FILLER_8_295
*2889 FILLER_8_303
*2857 FILLER_8_34
*2858 FILLER_8_38
*2855 FILLER_8_4
*2859 FILLER_8_57
*2860 FILLER_8_59
*2861 FILLER_8_66
*2862 FILLER_8_71
*2863 FILLER_8_89
*2864 FILLER_8_91
*2865 FILLER_8_99
*2890 FILLER_9_0
*2891 FILLER_9_10
*2900 FILLER_9_101
*2901 FILLER_9_113
*2902 FILLER_9_117
*2903 FILLER_9_119
*2904 FILLER_9_121
*2905 FILLER_9_129
*2906 FILLER_9_142
*2907 FILLER_9_146
*2908 FILLER_9_154
*2892 FILLER_9_16
*2909 FILLER_9_162
*2910 FILLER_9_170
*2911 FILLER_9_172
*2912 FILLER_9_176
*2913 FILLER_9_181
*2914 FILLER_9_189
*2915 FILLER_9_197
*2916 FILLER_9_239
*2893 FILLER_9_24
*2917 FILLER_9_241
*2918 FILLER_9_249
*2919 FILLER_9_257
*2920 FILLER_9_265
*2921 FILLER_9_273
*2922 FILLER_9_281
*2923 FILLER_9_289
*2894 FILLER_9_29
*2924 FILLER_9_297
*2925 FILLER_9_299
*2926 FILLER_9_301
*2895 FILLER_9_37
*2896 FILLER_9_39
*2897 FILLER_9_46
*2898 FILLER_9_54
*2899 FILLER_9_58
*2131 TAP_TAPCELL_ROW_0_0
*2221 TAP_TAPCELL_ROW_0_1
*2222 TAP_TAPCELL_ROW_0_2
*2223 TAP_TAPCELL_ROW_0_3
*2224 TAP_TAPCELL_ROW_0_4
*2225 TAP_TAPCELL_ROW_0_5
*2226 TAP_TAPCELL_ROW_0_6
*2227 TAP_TAPCELL_ROW_0_7
*2228 TAP_TAPCELL_ROW_0_8
*2229 TAP_TAPCELL_ROW_0_9
*2275 TAP_TAPCELL_ROW_10_55
*2276 TAP_TAPCELL_ROW_10_56
*2277 TAP_TAPCELL_ROW_10_57
*2278 TAP_TAPCELL_ROW_10_58
*2279 TAP_TAPCELL_ROW_10_59
*2280 TAP_TAPCELL_ROW_11_60
*2281 TAP_TAPCELL_ROW_11_61
*2282 TAP_TAPCELL_ROW_11_62
*2283 TAP_TAPCELL_ROW_11_63
*2284 TAP_TAPCELL_ROW_11_64
*2285 TAP_TAPCELL_ROW_12_65
*2286 TAP_TAPCELL_ROW_12_66
*2287 TAP_TAPCELL_ROW_12_67
*2288 TAP_TAPCELL_ROW_12_68
*2289 TAP_TAPCELL_ROW_12_69
*2290 TAP_TAPCELL_ROW_13_70
*2291 TAP_TAPCELL_ROW_13_71
*2292 TAP_TAPCELL_ROW_13_72
*2293 TAP_TAPCELL_ROW_13_73
*2294 TAP_TAPCELL_ROW_13_74
*2295 TAP_TAPCELL_ROW_14_75
*2296 TAP_TAPCELL_ROW_14_76
*2297 TAP_TAPCELL_ROW_14_77
*2298 TAP_TAPCELL_ROW_14_78
*2299 TAP_TAPCELL_ROW_14_79
*2300 TAP_TAPCELL_ROW_15_80
*2301 TAP_TAPCELL_ROW_15_81
*2302 TAP_TAPCELL_ROW_15_82
*2303 TAP_TAPCELL_ROW_15_83
*2304 TAP_TAPCELL_ROW_15_84
*2305 TAP_TAPCELL_ROW_16_85
*2306 TAP_TAPCELL_ROW_16_86
*2307 TAP_TAPCELL_ROW_16_87
*2308 TAP_TAPCELL_ROW_16_88
*2309 TAP_TAPCELL_ROW_16_89
*2310 TAP_TAPCELL_ROW_17_90
*2311 TAP_TAPCELL_ROW_17_91
*2312 TAP_TAPCELL_ROW_17_92
*2313 TAP_TAPCELL_ROW_17_93
*2314 TAP_TAPCELL_ROW_17_94
*2315 TAP_TAPCELL_ROW_18_95
*2316 TAP_TAPCELL_ROW_18_96
*2317 TAP_TAPCELL_ROW_18_97
*2318 TAP_TAPCELL_ROW_18_98
*2319 TAP_TAPCELL_ROW_18_99
*2320 TAP_TAPCELL_ROW_19_100
*2321 TAP_TAPCELL_ROW_19_101
*2322 TAP_TAPCELL_ROW_19_102
*2323 TAP_TAPCELL_ROW_19_103
*2324 TAP_TAPCELL_ROW_19_104
*2230 TAP_TAPCELL_ROW_1_10
*2231 TAP_TAPCELL_ROW_1_11
*2232 TAP_TAPCELL_ROW_1_12
*2233 TAP_TAPCELL_ROW_1_13
*2234 TAP_TAPCELL_ROW_1_14
*2325 TAP_TAPCELL_ROW_20_105
*2326 TAP_TAPCELL_ROW_20_106
*2327 TAP_TAPCELL_ROW_20_107
*2328 TAP_TAPCELL_ROW_20_108
*2329 TAP_TAPCELL_ROW_20_109
*2330 TAP_TAPCELL_ROW_21_110
*2331 TAP_TAPCELL_ROW_21_111
*2332 TAP_TAPCELL_ROW_21_112
*2333 TAP_TAPCELL_ROW_21_113
*2334 TAP_TAPCELL_ROW_21_114
*2335 TAP_TAPCELL_ROW_22_115
*2336 TAP_TAPCELL_ROW_22_116
*2337 TAP_TAPCELL_ROW_22_117
*2338 TAP_TAPCELL_ROW_22_118
*2339 TAP_TAPCELL_ROW_22_119
*2340 TAP_TAPCELL_ROW_23_120
*2341 TAP_TAPCELL_ROW_23_121
*2342 TAP_TAPCELL_ROW_23_122
*2343 TAP_TAPCELL_ROW_23_123
*2344 TAP_TAPCELL_ROW_23_124
*2345 TAP_TAPCELL_ROW_24_125
*2346 TAP_TAPCELL_ROW_24_126
*2347 TAP_TAPCELL_ROW_24_127
*2348 TAP_TAPCELL_ROW_24_128
*2349 TAP_TAPCELL_ROW_24_129
*2350 TAP_TAPCELL_ROW_25_130
*2351 TAP_TAPCELL_ROW_25_131
*2352 TAP_TAPCELL_ROW_25_132
*2353 TAP_TAPCELL_ROW_25_133
*2354 TAP_TAPCELL_ROW_25_134
*2355 TAP_TAPCELL_ROW_26_135
*2356 TAP_TAPCELL_ROW_26_136
*2357 TAP_TAPCELL_ROW_26_137
*2358 TAP_TAPCELL_ROW_26_138
*2359 TAP_TAPCELL_ROW_26_139
*2360 TAP_TAPCELL_ROW_27_140
*2361 TAP_TAPCELL_ROW_27_141
*2362 TAP_TAPCELL_ROW_27_142
*2363 TAP_TAPCELL_ROW_27_143
*2364 TAP_TAPCELL_ROW_27_144
*2365 TAP_TAPCELL_ROW_28_145
*2366 TAP_TAPCELL_ROW_28_146
*2367 TAP_TAPCELL_ROW_28_147
*2368 TAP_TAPCELL_ROW_28_148
*2369 TAP_TAPCELL_ROW_28_149
*2370 TAP_TAPCELL_ROW_29_150
*2371 TAP_TAPCELL_ROW_29_151
*2372 TAP_TAPCELL_ROW_29_152
*2373 TAP_TAPCELL_ROW_29_153
*2374 TAP_TAPCELL_ROW_29_154
*2235 TAP_TAPCELL_ROW_2_15
*2236 TAP_TAPCELL_ROW_2_16
*2237 TAP_TAPCELL_ROW_2_17
*2238 TAP_TAPCELL_ROW_2_18
*2239 TAP_TAPCELL_ROW_2_19
*2375 TAP_TAPCELL_ROW_30_155
*2376 TAP_TAPCELL_ROW_30_156
*2377 TAP_TAPCELL_ROW_30_157
*2378 TAP_TAPCELL_ROW_30_158
*2379 TAP_TAPCELL_ROW_30_159
*2380 TAP_TAPCELL_ROW_31_160
*2381 TAP_TAPCELL_ROW_31_161
*2382 TAP_TAPCELL_ROW_31_162
*2383 TAP_TAPCELL_ROW_31_163
*2384 TAP_TAPCELL_ROW_31_164
*2385 TAP_TAPCELL_ROW_32_165
*2386 TAP_TAPCELL_ROW_32_166
*2387 TAP_TAPCELL_ROW_32_167
*2388 TAP_TAPCELL_ROW_32_168
*2389 TAP_TAPCELL_ROW_32_169
*2390 TAP_TAPCELL_ROW_33_170
*2391 TAP_TAPCELL_ROW_33_171
*2392 TAP_TAPCELL_ROW_33_172
*2393 TAP_TAPCELL_ROW_33_173
*2394 TAP_TAPCELL_ROW_33_174
*2395 TAP_TAPCELL_ROW_34_175
*2396 TAP_TAPCELL_ROW_34_176
*2397 TAP_TAPCELL_ROW_34_177
*2398 TAP_TAPCELL_ROW_34_178
*2399 TAP_TAPCELL_ROW_34_179
*2400 TAP_TAPCELL_ROW_35_180
*2401 TAP_TAPCELL_ROW_35_181
*2402 TAP_TAPCELL_ROW_35_182
*2403 TAP_TAPCELL_ROW_35_183
*2404 TAP_TAPCELL_ROW_35_184
*2405 TAP_TAPCELL_ROW_36_185
*2406 TAP_TAPCELL_ROW_36_186
*2407 TAP_TAPCELL_ROW_36_187
*2408 TAP_TAPCELL_ROW_36_188
*2409 TAP_TAPCELL_ROW_36_189
*2410 TAP_TAPCELL_ROW_37_190
*2411 TAP_TAPCELL_ROW_37_191
*2412 TAP_TAPCELL_ROW_37_192
*2413 TAP_TAPCELL_ROW_37_193
*2414 TAP_TAPCELL_ROW_37_194
*2415 TAP_TAPCELL_ROW_38_195
*2416 TAP_TAPCELL_ROW_38_196
*2417 TAP_TAPCELL_ROW_38_197
*2418 TAP_TAPCELL_ROW_38_198
*2419 TAP_TAPCELL_ROW_38_199
*2420 TAP_TAPCELL_ROW_39_200
*2421 TAP_TAPCELL_ROW_39_201
*2422 TAP_TAPCELL_ROW_39_202
*2423 TAP_TAPCELL_ROW_39_203
*2424 TAP_TAPCELL_ROW_39_204
*2240 TAP_TAPCELL_ROW_3_20
*2241 TAP_TAPCELL_ROW_3_21
*2242 TAP_TAPCELL_ROW_3_22
*2243 TAP_TAPCELL_ROW_3_23
*2244 TAP_TAPCELL_ROW_3_24
*2425 TAP_TAPCELL_ROW_40_205
*2426 TAP_TAPCELL_ROW_40_206
*2427 TAP_TAPCELL_ROW_40_207
*2428 TAP_TAPCELL_ROW_40_208
*2429 TAP_TAPCELL_ROW_40_209
*2430 TAP_TAPCELL_ROW_41_210
*2431 TAP_TAPCELL_ROW_41_211
*2432 TAP_TAPCELL_ROW_41_212
*2433 TAP_TAPCELL_ROW_41_213
*2434 TAP_TAPCELL_ROW_41_214
*2435 TAP_TAPCELL_ROW_42_215
*2436 TAP_TAPCELL_ROW_42_216
*2437 TAP_TAPCELL_ROW_42_217
*2438 TAP_TAPCELL_ROW_42_218
*2439 TAP_TAPCELL_ROW_42_219
*2440 TAP_TAPCELL_ROW_43_220
*2441 TAP_TAPCELL_ROW_43_221
*2442 TAP_TAPCELL_ROW_43_222
*2443 TAP_TAPCELL_ROW_43_223
*2444 TAP_TAPCELL_ROW_43_224
*2445 TAP_TAPCELL_ROW_44_225
*2446 TAP_TAPCELL_ROW_44_226
*2447 TAP_TAPCELL_ROW_44_227
*2448 TAP_TAPCELL_ROW_44_228
*2449 TAP_TAPCELL_ROW_44_229
*2450 TAP_TAPCELL_ROW_45_230
*2451 TAP_TAPCELL_ROW_45_231
*2452 TAP_TAPCELL_ROW_45_232
*2453 TAP_TAPCELL_ROW_45_233
*2454 TAP_TAPCELL_ROW_45_234
*2455 TAP_TAPCELL_ROW_46_235
*2456 TAP_TAPCELL_ROW_46_236
*2457 TAP_TAPCELL_ROW_46_237
*2458 TAP_TAPCELL_ROW_46_238
*2459 TAP_TAPCELL_ROW_46_239
*2460 TAP_TAPCELL_ROW_47_240
*2461 TAP_TAPCELL_ROW_47_241
*2462 TAP_TAPCELL_ROW_47_242
*2463 TAP_TAPCELL_ROW_47_243
*2464 TAP_TAPCELL_ROW_47_244
*2465 TAP_TAPCELL_ROW_48_245
*2466 TAP_TAPCELL_ROW_48_246
*2467 TAP_TAPCELL_ROW_48_247
*2468 TAP_TAPCELL_ROW_48_248
*2469 TAP_TAPCELL_ROW_48_249
*2470 TAP_TAPCELL_ROW_49_250
*2471 TAP_TAPCELL_ROW_49_251
*2472 TAP_TAPCELL_ROW_49_252
*2473 TAP_TAPCELL_ROW_49_253
*2474 TAP_TAPCELL_ROW_49_254
*2245 TAP_TAPCELL_ROW_4_25
*2246 TAP_TAPCELL_ROW_4_26
*2247 TAP_TAPCELL_ROW_4_27
*2248 TAP_TAPCELL_ROW_4_28
*2249 TAP_TAPCELL_ROW_4_29
*2475 TAP_TAPCELL_ROW_50_255
*2476 TAP_TAPCELL_ROW_50_256
*2477 TAP_TAPCELL_ROW_50_257
*2478 TAP_TAPCELL_ROW_50_258
*2479 TAP_TAPCELL_ROW_50_259
*2480 TAP_TAPCELL_ROW_50_260
*2481 TAP_TAPCELL_ROW_50_261
*2482 TAP_TAPCELL_ROW_50_262
*2483 TAP_TAPCELL_ROW_50_263
*2484 TAP_TAPCELL_ROW_50_264
*2250 TAP_TAPCELL_ROW_5_30
*2251 TAP_TAPCELL_ROW_5_31
*2252 TAP_TAPCELL_ROW_5_32
*2253 TAP_TAPCELL_ROW_5_33
*2254 TAP_TAPCELL_ROW_5_34
*2255 TAP_TAPCELL_ROW_6_35
*2256 TAP_TAPCELL_ROW_6_36
*2257 TAP_TAPCELL_ROW_6_37
*2258 TAP_TAPCELL_ROW_6_38
*2259 TAP_TAPCELL_ROW_6_39
*2260 TAP_TAPCELL_ROW_7_40
*2261 TAP_TAPCELL_ROW_7_41
*2262 TAP_TAPCELL_ROW_7_42
*2263 TAP_TAPCELL_ROW_7_43
*2264 TAP_TAPCELL_ROW_7_44
*2265 TAP_TAPCELL_ROW_8_45
*2266 TAP_TAPCELL_ROW_8_46
*2267 TAP_TAPCELL_ROW_8_47
*2268 TAP_TAPCELL_ROW_8_48
*2269 TAP_TAPCELL_ROW_8_49
*2270 TAP_TAPCELL_ROW_9_50
*2271 TAP_TAPCELL_ROW_9_51
*2272 TAP_TAPCELL_ROW_9_52
*2273 TAP_TAPCELL_ROW_9_53
*2274 TAP_TAPCELL_ROW_9_54
*1181 _0666_
*1182 _0667_
*1183 _0668_
*1184 _0669_
*1185 _0670_
*1186 _0671_
*1187 _0672_
*1188 _0673_
*1189 _0674_
*1190 _0675_
*1191 _0676_
*1192 _0677_
*1193 _0678_
*1194 _0679_
*1195 _0680_
*1196 _0681_
*1197 _0682_
*1198 _0683_
*1199 _0684_
*1200 _0685_
*1201 _0686_
*1202 _0687_
*1203 _0688_
*1204 _0689_
*1205 _0690_
*1206 _0691_
*1207 _0692_
*1208 _0693_
*1209 _0694_
*1210 _0695_
*1211 _0696_
*1212 _0697_
*1213 _0698_
*1214 _0699_
*1215 _0700_
*1216 _0701_
*1217 _0702_
*1218 _0703_
*1219 _0704_
*1220 _0705_
*1221 _0706_
*1222 _0707_
*1223 _0708_
*1224 _0709_
*1225 _0710_
*1226 _0711_
*1227 _0712_
*1228 _0713_
*1229 _0714_
*1230 _0715_
*1231 _0716_
*1232 _0717_
*1233 _0718_
*1234 _0719_
*1235 _0720_
*1236 _0721_
*1237 _0722_
*1238 _0723_
*1239 _0724_
*1240 _0725_
*1241 _0726_
*1242 _0727_
*1243 _0728_
*1244 _0729_
*1245 _0730_
*1246 _0731_
*1247 _0732_
*1248 _0733_
*1249 _0734_
*1250 _0735_
*1251 _0736_
*1252 _0737_
*1253 _0738_
*1254 _0739_
*1255 _0740_
*1256 _0741_
*1257 _0742_
*1258 _0743_
*1259 _0744_
*1260 _0745_
*1261 _0746_
*1262 _0747_
*1263 _0748_
*1264 _0749_
*1265 _0750_
*1266 _0751_
*1267 _0752_
*1268 _0753_
*1269 _0754_
*1270 _0755_
*1271 _0756_
*1272 _0757_
*1273 _0758_
*1274 _0759_
*1275 _0760_
*1276 _0761_
*1277 _0762_
*1278 _0763_
*1279 _0764_
*1280 _0765_
*1281 _0766_
*1282 _0767_
*1283 _0768_
*1284 _0769_
*1285 _0770_
*1286 _0771_
*1288 _0773_
*1289 _0774_
*1290 _0775_
*1291 _0776_
*1292 _0777_
*1293 _0778_
*1294 _0779_
*1295 _0780_
*1296 _0781_
*1297 _0782_
*1298 _0783_
*1299 _0784_
*1300 _0785_
*1301 _0786_
*1302 _0787_
*1303 _0788_
*1304 _0789_
*1305 _0790_
*1306 _0791_
*1307 _0792_
*1308 _0793_
*1309 _0794_
*1310 _0795_
*1311 _0796_
*1312 _0797_
*1313 _0798_
*1314 _0799_
*1315 _0800_
*1316 _0801_
*1317 _0802_
*1318 _0803_
*1319 _0804_
*1320 _0805_
*1321 _0806_
*1322 _0807_
*1323 _0808_
*1324 _0809_
*1325 _0810_
*1326 _0811_
*1327 _0812_
*1328 _0813_
*1329 _0814_
*1330 _0815_
*1331 _0816_
*1332 _0817_
*1333 _0818_
*1334 _0819_
*1335 _0820_
*1336 _0821_
*1337 _0822_
*1338 _0823_
*1339 _0824_
*1340 _0825_
*1341 _0826_
*1342 _0827_
*1343 _0828_
*1344 _0829_
*1345 _0830_
*1346 _0831_
*1347 _0832_
*1348 _0833_
*1349 _0834_
*1350 _0835_
*1351 _0836_
*1352 _0837_
*1353 _0838_
*1354 _0839_
*1355 _0840_
*1356 _0841_
*1357 _0842_
*1358 _0843_
*1359 _0844_
*1360 _0845_
*1361 _0846_
*1362 _0847_
*1363 _0848_
*1364 _0849_
*1365 _0850_
*1366 _0851_
*1367 _0852_
*1368 _0853_
*1369 _0854_
*1370 _0855_
*1371 _0856_
*1372 _0857_
*1373 _0858_
*1374 _0859_
*1376 _0861_
*1377 _0862_
*1378 _0863_
*1379 _0864_
*1380 _0865_
*1381 _0866_
*1382 _0867_
*1383 _0868_
*1384 _0869_
*1385 _0870_
*1386 _0871_
*1387 _0872_
*1388 _0873_
*1389 _0874_
*1390 _0875_
*1391 _0876_
*1392 _0877_
*1393 _0878_
*1394 _0879_
*1395 _0880_
*1396 _0881_
*1397 _0882_
*1398 _0883_
*1399 _0884_
*1400 _0885_
*1401 _0886_
*1402 _0887_
*1403 _0888_
*1404 _0889_
*1405 _0890_
*1406 _0891_
*1407 _0892_
*1408 _0893_
*1409 _0894_
*1410 _0895_
*1412 _0897_
*1413 _0898_
*1414 _0899_
*1415 _0900_
*1416 _0901_
*1417 _0902_
*1418 _0903_
*1419 _0904_
*1420 _0905_
*1421 _0906_
*1422 _0907_
*1423 _0908_
*1424 _0909_
*1425 _0910_
*1426 _0911_
*1427 _0912_
*1428 _0913_
*1429 _0914_
*1430 _0915_
*1431 _0916_
*1432 _0917_
*1433 _0918_
*1434 _0919_
*1435 _0920_
*1436 _0921_
*1437 _0922_
*1438 _0923_
*1439 _0924_
*1440 _0925_
*1441 _0926_
*1442 _0927_
*1443 _0928_
*1444 _0929_
*1445 _0930_
*1446 _0931_
*1447 _0932_
*1448 _0933_
*1449 _0934_
*1450 _0935_
*1451 _0936_
*1452 _0937_
*1453 _0938_
*1454 _0939_
*1455 _0940_
*1456 _0941_
*1457 _0942_
*1458 _0943_
*1459 _0944_
*1460 _0945_
*1461 _0946_
*1462 _0947_
*1463 _0948_
*1464 _0949_
*1465 _0950_
*1466 _0951_
*1467 _0952_
*1468 _0953_
*1469 _0954_
*1470 _0955_
*1471 _0956_
*1472 _0957_
*1473 _0958_
*1474 _0959_
*1475 _0960_
*1476 _0961_
*1477 _0962_
*1478 _0963_
*1479 _0964_
*1480 _0965_
*1481 _0966_
*1482 _0967_
*1483 _0968_
*1484 _0969_
*1485 _0970_
*1486 _0971_
*1488 _0973_
*1489 _0974_
*1490 _0975_
*1491 _0976_
*1492 _0977_
*1493 _0978_
*1494 _0979_
*1495 _0980_
*1496 _0981_
*1497 _0982_
*1498 _0983_
*1499 _0984_
*1500 _0985_
*1501 _0986_
*1502 _0987_
*1503 _0988_
*1504 _0989_
*1505 _0990_
*1506 _0991_
*1507 _0992_
*1508 _0993_
*1509 _0994_
*1510 _0995_
*1511 _0996_
*1512 _0997_
*1513 _0998_
*1514 _0999_
*1515 _1000_
*1516 _1001_
*1517 _1002_
*1518 _1003_
*1519 _1004_
*1520 _1005_
*1521 _1006_
*1522 _1007_
*1523 _1008_
*1524 _1009_
*1525 _1010_
*1526 _1011_
*1527 _1012_
*1528 _1013_
*1529 _1014_
*1530 _1015_
*1531 _1016_
*1532 _1017_
*1533 _1018_
*1534 _1019_
*1535 _1020_
*1536 _1021_
*1537 _1022_
*1538 _1023_
*1539 _1024_
*1540 _1025_
*1541 _1026_
*1542 _1027_
*1543 _1028_
*1544 _1029_
*1545 _1030_
*1546 _1031_
*1547 _1032_
*1548 _1033_
*1549 _1034_
*1550 _1035_
*1551 _1036_
*1552 _1037_
*1553 _1038_
*1554 _1039_
*1555 _1040_
*1556 _1041_
*1557 _1042_
*1558 _1043_
*1559 _1044_
*1560 _1045_
*1561 _1046_
*1562 _1047_
*1563 _1048_
*1564 _1049_
*1565 _1050_
*1566 _1051_
*1567 _1052_
*1568 _1053_
*1569 _1054_
*1570 _1055_
*1571 _1056_
*1572 _1057_
*1573 _1058_
*1574 _1059_
*1575 _1060_
*1576 _1061_
*1577 _1062_
*1578 _1063_
*1579 _1064_
*1580 _1065_
*1581 _1066_
*1582 _1067_
*1583 _1068_
*1584 _1069_
*1585 _1070_
*1586 _1071_
*1587 _1072_
*1588 _1073_
*1589 _1074_
*1590 _1075_
*1591 _1076_
*1592 _1077_
*1593 _1078_
*1594 _1079_
*1595 _1080_
*1596 _1081_
*1597 _1082_
*1598 _1083_
*1599 _1084_
*1600 _1085_
*1602 _1087_
*1603 _1088_
*1604 _1089_
*1605 _1090_
*1606 _1091_
*1607 _1092_
*1608 _1093_
*1609 _1094_
*1610 _1095_
*1611 _1096_
*1612 _1097_
*1613 _1098_
*1614 _1099_
*1615 _1100_
*1616 _1101_
*1617 _1102_
*1618 _1103_
*1619 _1104_
*1620 _1105_
*1621 _1106_
*1622 _1107_
*1623 _1108_
*1624 _1109_
*1625 _1110_
*1626 _1111_
*1627 _1112_
*1628 _1113_
*1629 _1114_
*1630 _1115_
*1631 _1116_
*1632 _1117_
*1633 _1118_
*1634 _1119_
*1635 _1120_
*1636 _1121_
*1637 _1122_
*1638 _1123_
*1639 _1124_
*1640 _1125_
*1641 _1126_
*1642 _1127_
*1643 _1128_
*1644 _1129_
*1645 _1130_
*1646 _1131_
*1647 _1132_
*1648 _1133_
*1649 _1134_
*1650 _1135_
*1651 _1136_
*1652 _1137_
*1653 _1138_
*1654 _1139_
*1655 _1140_
*1656 _1141_
*1657 _1142_
*1658 _1143_
*1659 _1144_
*1660 _1145_
*1661 _1146_
*1662 _1147_
*1663 _1148_
*1664 _1149_
*1665 _1150_
*1666 _1151_
*1667 _1152_
*1668 _1153_
*1669 _1154_
*1670 _1155_
*1671 _1156_
*1672 _1157_
*1673 _1158_
*1674 _1159_
*1675 _1160_
*1676 _1161_
*1677 _1162_
*1678 _1163_
*1679 _1164_
*1680 _1165_
*1681 _1166_
*1682 _1167_
*1683 _1168_
*1684 _1169_
*1685 _1170_
*1686 _1171_
*1687 _1172_
*1688 _1173_
*1689 _1174_
*1690 _1175_
*1691 _1176_
*1692 _1177_
*1693 _1178_
*1694 _1179_
*1695 _1180_
*1696 _1181_
*1697 _1182_
*1698 _1183_
*1699 _1184_
*1700 _1185_
*1701 _1186_
*1702 _1187_
*1703 _1188_
*1704 _1189_
*1705 _1190_
*1706 _1191_
*1707 _1192_
*1708 _1193_
*1709 _1194_
*1710 _1195_
*1711 _1196_
*1712 _1197_
*1713 _1198_
*1714 _1199_
*1715 _1200_
*1716 _1201_
*1717 _1202_
*1718 _1203_
*1719 _1204_
*1720 _1205_
*1721 _1206_
*1722 _1207_
*1723 _1208_
*1724 _1209_
*1725 _1210_
*1726 _1211_
*1727 _1212_
*1728 _1213_
*1729 _1214_
*1730 _1215_
*1731 _1216_
*1732 _1217_
*1733 _1218_
*1734 _1219_
*1735 _1220_
*1736 _1221_
*1737 _1222_
*1738 _1223_
*1739 _1224_
*1740 _1225_
*1741 _1226_
*1742 _1227_
*1743 _1228_
*1744 _1229_
*1745 _1230_
*1746 _1231_
*1747 _1232_
*1748 _1233_
*1749 _1234_
*1750 _1235_
*1751 _1236_
*1752 _1237_
*1753 _1238_
*1754 _1239_
*1755 _1240_
*1756 _1241_
*1757 _1242_
*1758 _1243_
*1759 _1244_
*1760 _1245_
*1761 _1246_
*1762 _1247_
*1763 _1248_
*1764 _1249_
*1765 _1250_
*1766 _1251_
*1767 _1252_
*1768 _1253_
*1769 _1254_
*1770 _1255_
*1771 _1256_
*1772 _1257_
*1773 _1258_
*1774 _1259_
*1775 _1260_
*1776 _1261_
*1777 _1262_
*1778 _1263_
*1779 _1264_
*1780 _1265_
*1781 _1266_
*1782 _1267_
*1783 _1268_
*1784 _1269_
*1785 _1270_
*1786 _1271_
*1787 _1272_
*1788 _1273_
*1789 _1274_
*1790 _1275_
*1791 _1276_
*1792 _1277_
*1793 _1278_
*1794 _1279_
*1795 _1280_
*1796 _1281_
*1797 _1282_
*1798 _1283_
*1799 _1284_
*1800 _1285_
*1801 _1286_
*1802 _1287_
*1803 _1288_
*1804 _1289_
*1805 _1290_
*1806 _1291_
*1807 _1292_
*1808 _1293_
*1809 _1294_
*1810 _1295_
*1811 _1296_
*1812 _1297_
*1813 _1298_
*1814 _1299_
*1815 _1300_
*1816 _1301_
*1817 _1302_
*1818 _1303_
*1819 _1304_
*1820 _1305_
*1821 _1306_
*1822 _1307_
*1823 _1308_
*1824 _1309_
*1825 _1310_
*1826 _1311_
*1827 _1312_
*1828 _1313_
*1829 _1314_
*1830 _1315_
*1831 _1316_
*1832 _1317_
*1833 _1318_
*1834 _1319_
*1835 _1320_
*1836 _1321_
*1837 _1322_
*1838 _1323_
*1839 _1324_
*1840 _1325_
*1841 _1326_
*1842 _1327_
*1843 _1328_
*1844 _1329_
*1845 _1330_
*1846 _1331_
*1847 _1332_
*1848 _1333_
*1849 _1334_
*1850 _1335_
*1851 _1336_
*1852 _1337_
*1853 _1338_
*1854 _1339_
*1855 _1340_
*1856 _1341_
*1857 _1342_
*1858 _1343_
*1859 _1344_
*1860 _1345_
*1861 _1346_
*1862 _1347_
*1863 _1348_
*1864 _1349_
*1865 _1350_
*1866 _1351_
*1867 _1352_
*1868 _1353_
*1869 _1354_
*1870 _1355_
*1871 _1356_
*1872 _1357_
*1873 _1358_
*1874 _1359_
*1875 _1360_
*1876 _1361_
*1877 _1362_
*1878 _1363_
*1879 _1364_
*1880 _1365_
*1881 _1366_
*1882 _1367_
*1883 _1368_
*1884 _1369_
*1885 _1370_
*1886 _1371_
*1887 _1372_
*1888 _1373_
*1889 _1374_
*1890 _1375_
*1891 _1376_
*1892 _1377_
*1893 _1378_
*1894 _1379_
*1895 _1380_
*1896 _1381_
*1897 _1382_
*1898 _1383_
*1899 _1384_
*1900 _1385_
*1901 _1386_
*1902 _1387_
*1903 _1388_
*1904 _1389_
*1905 _1390_
*1906 _1391_
*1907 _1392_
*1908 _1393_
*1909 _1394_
*1910 _1395_
*1911 _1396_
*1912 _1397_
*1913 _1398_
*1914 _1399_
*1915 _1400_
*1916 _1401_
*1917 _1402_
*1918 _1403_
*1919 _1404_
*1920 _1405_
*1921 _1406_
*1922 _1407_
*1923 _1408_
*1924 _1409_
*1925 _1410_
*1926 _1411_
*1927 _1412_
*1928 _1413_
*1929 _1414_
*1930 _1415_
*1931 _1416_
*1932 _1417_
*1933 _1418_
*1934 _1419_
*1935 _1420_
*1936 _1421_
*1937 _1422_
*1938 _1423_
*1939 _1424_
*1940 _1425_
*1941 _1426_
*1942 _1427_
*1943 _1428_
*1944 _1429_
*1945 _1430_
*1946 _1431_
*1947 _1432_
*1948 _1433_
*1949 _1434_
*1950 _1435_
*1951 _1436_
*1952 _1437_
*1953 _1438_
*1954 _1439_
*1955 _1440_
*1956 _1441_
*1957 _1442_
*1958 _1443_
*1959 _1444_
*1960 _1445_
*1961 _1446_
*1962 _1447_
*1963 _1448_
*1964 _1449_
*1965 _1450_
*1966 _1451_
*1967 _1452_
*1968 _1453_
*1969 _1454_
*1970 _1455_
*1971 _1456_
*1972 _1457_
*1973 _1458_
*1974 _1459_
*1975 _1460_
*1976 _1461_
*1977 _1462_
*1978 _1463_
*1979 _1464_
*1980 _1465_
*1981 _1466_
*1982 _1467_
*1983 _1468_
*1984 _1469_
*1985 _1470_
*1986 _1471_
*1987 _1472_
*1988 _1473_
*1989 _1474_
*1990 _1475_
*1991 _1476_
*1992 _1477_
*1993 _1478_
*1994 _1479_
*1995 _1480_
*1996 _1481_
*1997 _1482_
*1998 _1483_
*1999 _1484_
*2000 _1485_
*2001 _1486_
*2002 _1487_
*2003 _1488_
*2004 _1489_
*2005 _1490_
*2006 _1491_
*2007 _1492_
*2008 _1493_
*2009 _1494_
*2010 _1495_
*2011 _1496_
*2012 _1497_
*2013 _1498_
*2014 _1499_
*2015 _1500_
*2016 _1501_
*2017 _1502_
*2018 _1503_
*2019 _1504_
*2020 _1505_
*2021 _1506_
*2022 _1507_
*2023 _1508_
*2024 _1509_
*2025 _1510_
*2026 _1511_
*2027 _1512_
*2028 _1513_
*2029 _1514_
*2030 _1515_
*2031 _1516_
*2032 _1517_
*2033 _1518_
*2034 _1519_
*2035 _1520_
*2036 _1521_
*2037 _1522_
*2038 _1523_
*2039 _1524_
*2040 _1525_
*2041 _1526_
*2042 _1527_
*2043 _1528_
*2044 _1529_
*2045 _1530_
*2046 _1531_
*2047 _1532_
*2048 _1533_
*2049 _1534_
*2050 _1535_
*2051 _1536_
*2052 _1537_
*2053 _1538_
*2054 _1539_
*2055 _1540_
*2056 _1541_
*2057 _1542_
*2058 _1543_
*2059 _1544_
*2060 _1545_
*2061 _1546_
*2062 _1547_
*2063 _1548_
*2064 _1549_
*2065 _1550_
*2066 _1551_
*2067 _1552_
*2068 _1553_
*2069 _1554_
*2070 _1555_
*2071 _1556_
*2072 _1557_
*2073 _1558_
*2074 _1559_
*2075 _1560_
*2076 _1561_
*2077 _1562_
*2078 _1563_
*2079 _1564_
*2080 _1565_
*2081 _1566_
*2082 _1567_
*2083 _1568_
*2084 _1569_
*2085 _1570_
*2086 _1571_
*2087 _1572_
*2183 _1572__4
*2089 _1573_
*2090 _1574_
*2091 _1575_
*2092 _1576_
*2093 _1577_
*2088 _1577__5
*2095 _1578_
*2094 _1578__6
*2097 _1579_
*2098 _1580_
*2099 _1581_
*2100 _1582_
*2101 _1583_
*2102 _1584_
*2103 _1585_
*2104 _1586_
*2105 _1587_
*2106 _1588_
*2107 _1589_
*2108 _1590_
*2109 _1591_
*2110 _1592_
*2111 _1593_
*2112 _1594_
*2113 _1595_
*2114 _1596_
*2115 _1597_
*2116 _1598_
*2117 _1599_
*2118 _1600_
*2119 _1601_
*2120 _1602_
*2121 _1603_
*2122 _1604_
*2123 _1605_
*2124 _1606_
*2125 _1607_
*2126 _1608_
*2127 _1609_
*2128 _1610_
*2129 _1611_
*2130 _1612_
*2096 _1612__7
*2220 _1628__2
*2146 _1664__3
*2523 clkbuf_0_clk_i
*2524 clkbuf_1_0__f_clk_i
*2525 clkbuf_1_1__f_clk_i
*2490 clkbuf_leaf_0_clk_i
*2505 clkbuf_leaf_10_clk_i
*2506 clkbuf_leaf_11_clk_i
*2507 clkbuf_leaf_12_clk_i
*2508 clkbuf_leaf_13_clk_i
*2509 clkbuf_leaf_14_clk_i
*2510 clkbuf_leaf_15_clk_i
*2511 clkbuf_leaf_16_clk_i
*2512 clkbuf_leaf_17_clk_i
*2513 clkbuf_leaf_18_clk_i
*2514 clkbuf_leaf_19_clk_i
*2496 clkbuf_leaf_1_clk_i
*2515 clkbuf_leaf_20_clk_i
*2516 clkbuf_leaf_21_clk_i
*2517 clkbuf_leaf_22_clk_i
*2518 clkbuf_leaf_23_clk_i
*2519 clkbuf_leaf_24_clk_i
*2520 clkbuf_leaf_25_clk_i
*2521 clkbuf_leaf_26_clk_i
*2522 clkbuf_leaf_27_clk_i
*2497 clkbuf_leaf_2_clk_i
*2498 clkbuf_leaf_3_clk_i
*2499 clkbuf_leaf_4_clk_i
*2500 clkbuf_leaf_5_clk_i
*2501 clkbuf_leaf_6_clk_i
*2502 clkbuf_leaf_7_clk_i
*2503 clkbuf_leaf_8_clk_i
*2504 clkbuf_leaf_9_clk_i
*2526 clkload0
*2527 clkload1
*2528 clkload2
*2529 hold122
*2530 hold123
*2531 hold124
*2532 hold125
*2533 hold126
*2534 hold127
*2535 hold128
*2536 hold129
*2537 hold130
*2538 hold131
*2539 hold132
*2540 hold133
*2541 hold134
*2542 hold135
*2543 hold136
*2544 hold137
*2545 hold138
*2546 hold139
*2547 hold140
*2548 hold141
*2549 hold142
*2550 hold143
*2551 hold144
*2552 hold145
*2553 hold146
*2554 hold147
*2555 hold148
*2556 hold149
*2557 hold150
*2558 hold151
*2559 hold152
*2560 hold153
*2561 hold154
*2562 hold155
*2563 hold156
*2564 hold157
*2565 hold158
*2217 input10
*2216 input11
*2215 input12
*2214 input13
*2213 input14
*2212 input15
*2211 input16
*2210 input17
*2209 input18
*2208 input19
*2207 input20
*2206 input21
*2205 input22
*2204 input23
*2203 input24
*2202 input25
*2201 input26
*2200 input27
*2199 input28
*2198 input29
*2197 input30
*2196 input31
*2195 input32
*2194 input33
*2193 input34
*2192 input35
*2191 input36
*2190 input37
*2189 input38
*2188 input39
*2187 input40
*2186 input41
*2185 input42
*2184 input43
*2182 input44
*2181 input45
*2180 input46
*2179 input47
*2178 input48
*2219 input8
*2218 input9
*2177 output49
*2176 output50
*2175 output51
*2174 output52
*2173 output53
*2172 output54
*2171 output55
*2170 output56
*2169 output57
*2168 output58
*2167 output59
*2166 output60
*2165 output61
*2164 output62
*2163 output63
*2162 output64
*2161 output65
*2160 output66
*2159 output67
*2158 output68
*2157 output69
*2156 output70
*2155 output71
*2154 output72
*2153 output73
*2152 output74
*2151 output75
*2150 output76
*2149 output77
*2148 output78
*2147 output79
*2145 output80
*2144 output81
*2143 output82
*2142 output83
*2141 output84
*2140 output85
*2139 output86
*2138 output87
*2137 output88
*2136 output89
*2135 output90
*2134 output91
*2133 output92
*2132 output93
*1601 output94
*1487 output95
*1411 output96
*1375 output97
*1287 output98
*2485 output99
*2489 place113
*2491 place114
*2486 place115
*2487 place116
*2488 place117
*2492 place118
*2495 place119
*2494 place120
*2493 place121

*PORTS
axi_lite_i[0] I
axi_lite_i[10] I
axi_lite_i[11] I
axi_lite_i[12] I
axi_lite_i[13] I
axi_lite_i[14] I
axi_lite_i[15] I
axi_lite_i[16] I
axi_lite_i[17] I
axi_lite_i[18] I
axi_lite_i[19] I
axi_lite_i[1] I
axi_lite_i[20] I
axi_lite_i[21] I
axi_lite_i[22] I
axi_lite_i[23] I
axi_lite_i[24] I
axi_lite_i[25] I
axi_lite_i[26] I
axi_lite_i[27] I
axi_lite_i[28] I
axi_lite_i[29] I
axi_lite_i[2] I
axi_lite_i[30] I
axi_lite_i[31] I
axi_lite_i[32] I
axi_lite_i[33] I
axi_lite_i[34] I
axi_lite_i[35] I
axi_lite_i[36] I
axi_lite_i[37] I
axi_lite_i[38] I
axi_lite_i[39] I
axi_lite_i[3] I
axi_lite_i[40] I
axi_lite_i[41] I
axi_lite_i[42] I
axi_lite_i[43] I
axi_lite_i[44] I
axi_lite_i[45] I
axi_lite_i[46] I
axi_lite_i[47] I
axi_lite_i[48] I
axi_lite_i[49] I
axi_lite_i[4] I
axi_lite_i[50] I
axi_lite_i[51] I
axi_lite_i[52] I
axi_lite_i[53] I
axi_lite_i[54] I
axi_lite_i[5] I
axi_lite_i[6] I
axi_lite_i[7] I
axi_lite_i[8] I
axi_lite_i[9] I
axi_lite_o[0] O
axi_lite_o[10] O
axi_lite_o[11] O
axi_lite_o[12] O
axi_lite_o[13] O
axi_lite_o[14] O
axi_lite_o[15] O
axi_lite_o[16] O
axi_lite_o[17] O
axi_lite_o[18] O
axi_lite_o[19] O
axi_lite_o[1] O
axi_lite_o[20] O
axi_lite_o[21] O
axi_lite_o[22] O
axi_lite_o[23] O
axi_lite_o[24] O
axi_lite_o[25] O
axi_lite_o[26] O
axi_lite_o[27] O
axi_lite_o[28] O
axi_lite_o[29] O
axi_lite_o[2] O
axi_lite_o[30] O
axi_lite_o[31] O
axi_lite_o[32] O
axi_lite_o[33] O
axi_lite_o[34] O
axi_lite_o[35] O
axi_lite_o[36] O
axi_lite_o[37] O
axi_lite_o[38] O
axi_lite_o[39] O
axi_lite_o[3] O
axi_lite_o[40] O
axi_lite_o[4] O
axi_lite_o[5] O
axi_lite_o[6] O
axi_lite_o[7] O
axi_lite_o[8] O
axi_lite_o[9] O
cio_gpio_en_o[0] O
cio_gpio_en_o[1] O
cio_gpio_en_o[2] O
cio_gpio_en_o[3] O
cio_gpio_i[0] I
cio_gpio_i[1] I
cio_gpio_i[2] I
cio_gpio_i[3] I
cio_gpio_o[0] O
cio_gpio_o[1] O
cio_gpio_o[2] O
cio_gpio_o[3] O
clk_i I
intr_gpio_o[0] O
intr_gpio_o[1] O
intr_gpio_o[2] O
intr_gpio_o[3] O
rst_ni I

*D_NET *1 0.000790318
*CONN
*I *2084:D I *D sky130_fd_sc_hd__dfrtp_1
*I *1292:Y O *D sky130_fd_sc_hd__o21ai_0
*CAP
1 *2084:D 0.000222394
2 *1292:Y 0.000222394
3 *2084:D *1292:A1 0.000107496
4 *2084:D *1292:A2 2.18821e-05
5 *2084:D *1292:B1 1.6299e-05
6 *2084:D *1307:A 0
7 *2084:D *2043:CLK 8.28664e-05
8 *2084:D *2084:RESET_B 0.000116986
9 *2084:D *224:38 0
10 *2084:D *763:12 0
*RES
1 *1292:Y *2084:D 32.6845 
*END

*D_NET *2 0.000415189
*CONN
*I *2083:D I *D sky130_fd_sc_hd__dfrtp_1
*I *1298:Y O *D sky130_fd_sc_hd__o21ai_0
*CAP
1 *2083:D 0.000110771
2 *1298:Y 0.000110771
3 *2083:D *1298:A1 6.28701e-05
4 *2083:D *1673:A 0.000130777
*RES
1 *1298:Y *2083:D 30.4689 
*END

*D_NET *3 0.000268892
*CONN
*I *2082:D I *D sky130_fd_sc_hd__dfrtp_1
*I *1304:Y O *D sky130_fd_sc_hd__o21ai_0
*CAP
1 *2082:D 9.88637e-05
2 *1304:Y 9.88637e-05
3 *2082:D *1304:A1 7.11641e-05
*RES
1 *1304:Y *2082:D 20.8855 
*END

*D_NET *4 0.000322689
*CONN
*I *2080:D I *D sky130_fd_sc_hd__dfrtp_1
*I *1308:Y O *D sky130_fd_sc_hd__a31oi_1
*CAP
1 *2080:D 7.49628e-05
2 *1308:Y 7.49628e-05
3 *2080:D *1306:B 0.000134336
4 *2080:D *436:94 2.47663e-05
5 *2080:D *436:120 1.36606e-05
*RES
1 *1308:Y *2080:D 30.0537 
*END

*D_NET *5 0.000448535
*CONN
*I *2079:D I *D sky130_fd_sc_hd__dfrtp_1
*I *1312:Y O *D sky130_fd_sc_hd__a31oi_1
*CAP
1 *2079:D 0.000152871
2 *1312:Y 0.000152871
3 *2079:D *1312:A1 6.27718e-05
4 *2079:D *1312:A2 1.63652e-05
5 *2079:D *436:86 6.3657e-05
*RES
1 *1312:Y *2079:D 30.7771 
*END

*D_NET *6 0.00040089
*CONN
*I *2078:D I *D sky130_fd_sc_hd__dfrtp_1
*I *1316:Y O *D sky130_fd_sc_hd__a31oi_1
*CAP
1 *2078:D 0.000174008
2 *1316:Y 0.000174008
3 *2078:D *1316:B1 5.28741e-05
*RES
1 *1316:Y *2078:D 31.0235 
*END

*D_NET *7 0.00042479
*CONN
*I *2076:D I *D sky130_fd_sc_hd__dfrtp_1
*I *1321:Y O *D sky130_fd_sc_hd__a21oi_1
*CAP
1 *2076:D 7.23017e-05
2 *1321:Y 7.23017e-05
3 *2076:D *1306:B 5.37077e-05
4 *2076:D *1434:B 2.16355e-05
5 *2076:D *436:94 0.000114659
6 *2076:D *1040:12 6.4309e-05
7 *2076:D *1110:68 2.58757e-05
*RES
1 *1321:Y *2076:D 30.4689 
*END

*D_NET *8 0.000719622
*CONN
*I *2075:D I *D sky130_fd_sc_hd__dfrtp_1
*I *1326:Y O *D sky130_fd_sc_hd__a21oi_1
*CAP
1 *2075:D 0.000240265
2 *1326:Y 0.000240265
3 *2075:D *1107:280 0
4 *2075:D *1107:288 0.000160047
5 *2075:D *1107:310 4.85806e-05
6 *2075:D *1113:20 3.04651e-05
*RES
1 *1326:Y *2075:D 32.1327 
*END

*D_NET *9 0.00019761
*CONN
*I *2074:D I *D sky130_fd_sc_hd__dfrtp_1
*I *1331:Y O *D sky130_fd_sc_hd__a21oi_1
*CAP
1 *2074:D 7.38981e-05
2 *1331:Y 7.38981e-05
3 *2074:D *1331:B1 1.07248e-05
4 *2074:D *2074:RESET_B 0
5 *2074:D *2074:CLK 3.90891e-05
*RES
1 *1331:Y *2074:D 29.7455 
*END

*D_NET *10 0.000308142
*CONN
*I *2072:D I *D sky130_fd_sc_hd__dfrtp_1
*I *1335:Y O *D sky130_fd_sc_hd__a31oi_1
*CAP
1 *2072:D 8.37616e-05
2 *1335:Y 8.37616e-05
3 *2072:D *1107:14 3.77659e-05
4 *2072:D *1110:24 6.50727e-05
5 *2072:D *1137:28 3.77804e-05
*RES
1 *1335:Y *2072:D 30.0537 
*END

*D_NET *11 0.000522919
*CONN
*I *2071:D I *D sky130_fd_sc_hd__dfrtp_1
*I *1339:Y O *D sky130_fd_sc_hd__a31oi_1
*CAP
1 *2071:D 0.000213667
2 *1339:Y 0.000213667
3 *2071:D *1339:A1 6.32945e-05
4 *2071:D *2071:CLK 3.22909e-05
5 *2071:D *436:249 0
*RES
1 *1339:Y *2071:D 31.4951 
*END

*D_NET *12 0.000474376
*CONN
*I *2070:D I *D sky130_fd_sc_hd__dfrtp_1
*I *1343:Y O *D sky130_fd_sc_hd__a31oi_1
*CAP
1 *2070:D 0.000135667
2 *1343:Y 0.000135667
3 *2070:D *1343:B1 6.92705e-05
4 *2070:D *2070:RESET_B 9.40857e-05
5 *2070:D *1107:184 1.41291e-05
6 *2070:D *1123:34 2.55561e-05
*RES
1 *1343:Y *2070:D 30.6083 
*END

*D_NET *13 0.0017057
*CONN
*I *2068:D I *D sky130_fd_sc_hd__dfrtp_1
*I *1347:X O *D sky130_fd_sc_hd__mux2_1
*CAP
1 *2068:D 0.000319276
2 *1347:X 0.000319276
3 *2068:D *1347:S 0.000205686
4 *2068:D *1884:S 5.99802e-05
5 *2068:D *831:19 2.26713e-06
6 *2068:D *910:121 0.000600749
7 *2068:D *1107:94 0.000198469
*RES
1 *1347:X *2068:D 39.7438 
*END

*D_NET *14 0.000620936
*CONN
*I *2067:D I *D sky130_fd_sc_hd__dfrtp_1
*I *1351:X O *D sky130_fd_sc_hd__mux2_1
*CAP
1 *2067:D 0.000148919
2 *1351:X 0.000148919
3 *2067:D *1325:A 4.04211e-05
4 *2067:D *1326:A2 0
5 *2067:D *2067:RESET_B 0.000135389
6 *2067:D *224:117 0
7 *2067:D *1122:32 6.94804e-05
8 *2067:D *1122:38 7.78069e-05
*RES
1 *1351:X *2067:D 33.242 
*END

*D_NET *15 0.000176307
*CONN
*I *2066:D I *D sky130_fd_sc_hd__dfrtp_1
*I *1355:X O *D sky130_fd_sc_hd__mux2_1
*CAP
1 *2066:D 5.22071e-05
2 *1355:X 5.22071e-05
3 *2066:D *837:12 4.40158e-05
4 *2066:D *1122:32 2.78772e-05
*RES
1 *1355:X *2066:D 29.3303 
*END

*D_NET *16 0.00215013
*CONN
*I *2062:D I *D sky130_fd_sc_hd__dfrtp_1
*I *1360:X O *D sky130_fd_sc_hd__xor2_1
*CAP
1 *2062:D 0.000680635
2 *1360:X 0.000680635
3 *2062:D *1368:A 0.000399119
4 *2062:D *2059:RESET_B 0
5 *2062:D *427:8 6.08467e-05
6 *2062:D *528:14 0.000127194
7 *2062:D *528:27 3.31733e-05
8 *2062:D *1092:14 0.000168525
*RES
1 *1360:X *2062:D 47.093 
*END

*D_NET *17 0.000315008
*CONN
*I *2036:D I *D sky130_fd_sc_hd__dfrtp_1
*I *1364:Y O *D sky130_fd_sc_hd__o21ai_0
*CAP
1 *2036:D 0.000111461
2 *1364:Y 0.000111461
3 *2036:D *1786:A2 2.93144e-05
4 *2036:D *1872:A 0
5 *2036:D *529:6 6.27718e-05
*RES
1 *1364:Y *2036:D 30.0537 
*END

*D_NET *18 0.00168677
*CONN
*I *2058:D I *D sky130_fd_sc_hd__dfrtp_1
*I *1371:X O *D sky130_fd_sc_hd__xor2_1
*CAP
1 *2058:D 0.000473108
2 *1371:X 0.000473108
3 *2058:D *1369:A 0
4 *2058:D *1371:B 0.000158607
5 *2058:D *1866:A2 4.20184e-06
6 *2058:D *2059:RESET_B 0.000577744
7 *2058:D *1139:81 0
*RES
1 *1371:X *2058:D 43.3446 
*END

*D_NET *19 0.000599812
*CONN
*I *2035:D I *D sky130_fd_sc_hd__dfrtp_1
*I *1377:Y O *D sky130_fd_sc_hd__o21ai_0
*CAP
1 *2035:D 0.000200039
2 *1377:Y 0.000200039
3 *2035:D *1280:A 0
4 *2035:D *2034:D 5.45757e-05
5 *2035:D *2034:RESET_B 0
6 *2035:D *2034:CLK 4.12533e-05
7 *2035:D *2035:CLK 7.34948e-06
8 *2035:D *752:25 6.50586e-05
9 *2035:D *1104:14 0
10 *2035:D *1140:25 3.14978e-05
*RES
1 *1377:Y *2035:D 33.3757 
*END

*D_NET *20 0.0018027
*CONN
*I *2034:D I *D sky130_fd_sc_hd__dfrtp_1
*I *1379:Y O *D sky130_fd_sc_hd__o21ai_0
*CAP
1 *2034:D 0.000569412
2 *1379:Y 0.000569412
3 *2034:D *1376:B 0.000176652
4 *2034:D *1378:B 0.000127164
5 *2034:D *1379:A1 0.000107496
6 *2034:D *2034:CLK 0.000103943
7 *2034:D *2215:A 0
8 *2034:D *2217:A 0
9 *2034:D *667:14 9.40492e-05
10 *2035:D *2034:D 5.45757e-05
*RES
1 *1379:Y *2034:D 43.3768 
*END

*D_NET *21 0.000313806
*CONN
*I *2033:D I *D sky130_fd_sc_hd__dfrtp_1
*I *1381:Y O *D sky130_fd_sc_hd__o21ai_0
*CAP
1 *2033:D 0.00011486
2 *1381:Y 0.00011486
3 *2033:D *1381:A1 3.65841e-05
4 *2033:D *1381:B1 1.43832e-05
5 *2033:D *1418:A1 3.31192e-05
*RES
1 *1381:Y *2033:D 30.0537 
*END

*D_NET *22 0.00120032
*CONN
*I *2032:D I *D sky130_fd_sc_hd__dfrtp_1
*I *1382:X O *D sky130_fd_sc_hd__mux2_1
*CAP
1 *2032:D 0.000440389
2 *1382:X 0.000440389
3 *2032:D *1382:A1 4.78323e-05
4 *2032:D *1421:B 0.000217028
5 *2032:D *1990:D 2.15326e-05
6 *2032:D *475:8 2.61642e-05
7 *2032:D *692:18 6.98337e-06
*RES
1 *1382:X *2032:D 35.7685 
*END

*D_NET *23 0.000914577
*CONN
*I *2031:D I *D sky130_fd_sc_hd__dfrtp_1
*I *1383:X O *D sky130_fd_sc_hd__mux2_1
*CAP
1 *2031:D 0.000341362
2 *1383:X 0.000341362
3 *2031:D *1383:S 0.000117066
4 *2031:D *2005:CLK 8.62625e-06
5 *2031:D *2057:D 0
6 *2031:D *1115:30 8.62625e-06
7 *2031:D *1115:32 9.75356e-05
*RES
1 *1383:X *2031:D 33.9359 
*END

*D_NET *24 0.00067379
*CONN
*I *2030:D I *D sky130_fd_sc_hd__dfrtp_1
*I *1384:X O *D sky130_fd_sc_hd__mux2_1
*CAP
1 *2030:D 0.000170405
2 *1384:X 0.000170405
3 *2030:D *2026:CLK 8.62625e-06
4 *2030:D *436:44 2.57102e-05
5 *2030:D *502:14 0.000169041
6 *2030:D *1119:16 0.000119244
7 *2030:D *1119:55 1.03594e-05
*RES
1 *1384:X *2030:D 31.5781 
*END

*D_NET *25 0.000698748
*CONN
*I *2029:D I *D sky130_fd_sc_hd__dfrtp_1
*I *1385:X O *D sky130_fd_sc_hd__mux2_1
*CAP
1 *2029:D 0.00019315
2 *1385:X 0.00019315
3 *2029:D *1340:A 0.000171288
4 *2029:D *1112:222 2.15184e-05
5 *2029:D *1112:274 9.40857e-05
6 *2029:D *1117:72 2.55561e-05
*RES
1 *1385:X *2029:D 31.7175 
*END

*D_NET *26 0.00026614
*CONN
*I *2028:D I *D sky130_fd_sc_hd__dfrtp_1
*I *1386:X O *D sky130_fd_sc_hd__mux2_1
*CAP
1 *2028:D 4.97591e-05
2 *1386:X 4.97591e-05
3 *2028:D *1112:179 0.000130777
4 *2028:D *1117:16 3.58457e-05
*RES
1 *1386:X *2028:D 29.7455 
*END

*D_NET *27 0.000519941
*CONN
*I *2027:D I *D sky130_fd_sc_hd__dfrtp_1
*I *1387:X O *D sky130_fd_sc_hd__mux2_1
*CAP
1 *2027:D 0.000130102
2 *1387:X 0.000130102
3 *2027:D *1419:A 0.000118485
4 *2027:D *519:12 2.16355e-05
5 *2027:D *763:33 2.65831e-05
6 *2027:D *1104:442 6.50727e-05
7 *2027:D *1112:157 2.7961e-05
*RES
1 *1387:X *2027:D 31.1923 
*END

*D_NET *28 0.000505898
*CONN
*I *2026:D I *D sky130_fd_sc_hd__dfrtp_1
*I *1388:X O *D sky130_fd_sc_hd__mux2_1
*CAP
1 *2026:D 0.000252949
2 *1388:X 0.000252949
*RES
1 *1388:X *2026:D 31.881 
*END

*D_NET *29 0.000497739
*CONN
*I *2025:D I *D sky130_fd_sc_hd__dfrtp_1
*I *1389:X O *D sky130_fd_sc_hd__mux2_1
*CAP
1 *2025:D 0.00024887
2 *1389:X 0.00024887
3 *2025:D *1350:B1 0
4 *2025:D *1397:S 0
5 *2025:D *1119:12 0
*RES
1 *1389:X *2025:D 33.242 
*END

*D_NET *30 0.00104857
*CONN
*I *2024:D I *D sky130_fd_sc_hd__dfrtp_1
*I *1390:X O *D sky130_fd_sc_hd__mux2_1
*CAP
1 *2024:D 0.00033997
2 *1390:X 0.00033997
3 *2024:D *2023:D 3.03825e-05
4 *2024:D *2023:RESET_B 0
5 *2024:D *682:12 0.000338249
*RES
1 *1390:X *2024:D 36.6977 
*END

*D_NET *31 0.000331095
*CONN
*I *2023:D I *D sky130_fd_sc_hd__dfrtp_1
*I *1391:X O *D sky130_fd_sc_hd__mux2_1
*CAP
1 *2023:D 0.000137418
2 *1391:X 0.000137418
3 *2023:D *1998:D 0
4 *2023:D *682:12 2.58757e-05
5 *2024:D *2023:D 3.03825e-05
*RES
1 *1391:X *2023:D 30.4689 
*END

*D_NET *32 0.000291479
*CONN
*I *2022:D I *D sky130_fd_sc_hd__dfrtp_1
*I *1392:X O *D sky130_fd_sc_hd__mux2_1
*CAP
1 *2022:D 0.000108917
2 *1392:X 0.000108917
3 *2022:D *2022:CLK 2.58616e-05
4 *2022:D *2201:A 4.77834e-05
*RES
1 *1392:X *2022:D 30.4689 
*END

*D_NET *33 0.000156153
*CONN
*I *2021:D I *D sky130_fd_sc_hd__dfrtp_1
*I *1393:X O *D sky130_fd_sc_hd__mux2_1
*CAP
1 *2021:D 7.80766e-05
2 *1393:X 7.80766e-05
3 *2021:D *1393:A0 0
4 *2021:D *2205:A 0
*RES
1 *1393:X *2021:D 29.3303 
*END

*D_NET *34 0.000294368
*CONN
*I *2020:D I *D sky130_fd_sc_hd__dfrtp_1
*I *1394:X O *D sky130_fd_sc_hd__mux2_1
*CAP
1 *2020:D 8.5848e-05
2 *1394:X 8.5848e-05
3 *2020:D *1997:RESET_B 1.60687e-05
4 *2020:D *2020:CLK 3.00829e-05
5 *2020:D *436:196 6.27782e-05
6 *2020:D *436:216 1.37421e-05
*RES
1 *1394:X *2020:D 30.0537 
*END

*D_NET *35 0.000488768
*CONN
*I *2019:D I *D sky130_fd_sc_hd__dfrtp_1
*I *1395:X O *D sky130_fd_sc_hd__mux2_1
*CAP
1 *2019:D 0.000208804
2 *1395:X 0.000208804
3 *2019:D *1993:CLK 4.25952e-05
4 *2019:D *2019:CLK 2.85637e-05
*RES
1 *1395:X *2019:D 31.5781 
*END

*D_NET *36 0.00036975
*CONN
*I *2018:D I *D sky130_fd_sc_hd__dfrtp_1
*I *1396:X O *D sky130_fd_sc_hd__mux2_1
*CAP
1 *2018:D 0.000136102
2 *1396:X 0.000136102
3 *2018:D *2018:RESET_B 2.55561e-05
4 *2018:D *2018:CLK 7.19887e-05
5 *2018:D *677:12 0
*RES
1 *1396:X *2018:D 31.1629 
*END

*D_NET *37 0.000573161
*CONN
*I *2017:D I *D sky130_fd_sc_hd__dfrtp_1
*I *1397:X O *D sky130_fd_sc_hd__mux2_1
*CAP
1 *2017:D 0.000247661
2 *1397:X 0.000247661
3 *2017:D *1313:B 1.77537e-06
4 *2017:D *1068:10 4.73463e-05
5 *2017:D *1112:299 0
6 *2017:D *1112:313 2.8718e-05
*RES
1 *1397:X *2017:D 32.848 
*END

*D_NET *38 0.00103042
*CONN
*I *2016:D I *D sky130_fd_sc_hd__dfrtp_1
*I *1398:X O *D sky130_fd_sc_hd__mux2_1
*CAP
1 *2016:D 0.000391895
2 *1398:X 0.000391895
3 *2016:D *1344:A 0.000139684
4 *2016:D *1990:D 0
5 *2016:D *517:12 0
6 *2016:D *1104:230 3.14978e-05
7 *2016:D *1109:151 7.54446e-05
*RES
1 *1398:X *2016:D 36.6977 
*END

*D_NET *39 0.000609417
*CONN
*I *2015:D I *D sky130_fd_sc_hd__dfrtp_1
*I *1399:X O *D sky130_fd_sc_hd__mux2_1
*CAP
1 *2015:D 0.000194398
2 *1399:X 0.000194398
3 *2015:D *2015:CLK 2.58757e-05
4 *2015:D *2135:A 6.99486e-05
5 *2015:D *2199:A 0.000101148
6 *2015:D *1114:48 2.36494e-05
*RES
1 *1399:X *2015:D 31.8863 
*END

*D_NET *40 0.000438724
*CONN
*I *2014:D I *D sky130_fd_sc_hd__dfrtp_1
*I *1400:X O *D sky130_fd_sc_hd__mux2_1
*CAP
1 *2014:D 0.000158173
2 *1400:X 0.000158173
3 *2014:D *2014:RESET_B 0
4 *2014:D *1112:243 0.000122378
*RES
1 *1400:X *2014:D 30.6083 
*END

*D_NET *41 0.000574551
*CONN
*I *2013:D I *D sky130_fd_sc_hd__dfrtp_1
*I *1401:X O *D sky130_fd_sc_hd__mux2_1
*CAP
1 *2013:D 0.000187183
2 *1401:X 0.000187183
3 *2013:D *2013:CLK 0.000197183
4 *2013:D *1104:296 3.00174e-06
*RES
1 *1401:X *2013:D 31.5781 
*END

*D_NET *42 0.000591019
*CONN
*I *2012:D I *D sky130_fd_sc_hd__dfrtp_1
*I *1403:Y O *D sky130_fd_sc_hd__o21ai_0
*CAP
1 *2012:D 0.000228336
2 *1403:Y 0.000228336
3 *2012:D *1402:A 6.92705e-05
4 *2012:D *1403:A1 7.97098e-06
5 *2012:D *2212:A 5.71059e-05
6 *2012:D *713:10 0
*RES
1 *1403:Y *2012:D 32.1327 
*END

*D_NET *43 0.000790243
*CONN
*I *2011:D I *D sky130_fd_sc_hd__dfrtp_1
*I *1405:Y O *D sky130_fd_sc_hd__o21ai_0
*CAP
1 *2011:D 0.000118565
2 *1405:Y 0.000118565
3 *2011:D *2062:RESET_B 3.20069e-06
4 *2011:D *1104:145 0.00033835
5 *2011:D *1110:530 0.000156823
6 *2011:D *1110:539 5.47392e-05
*RES
1 *1405:Y *2011:D 33.3757 
*END

*D_NET *44 0.00071924
*CONN
*I *2010:D I *D sky130_fd_sc_hd__dfrtp_1
*I *1407:Y O *D sky130_fd_sc_hd__o21ai_0
*CAP
1 *2010:D 0.00021148
2 *1407:Y 0.00021148
3 *2010:D *1407:B1 0.000169085
4 *2010:D *1104:121 0.000127194
5 *2010:D *1104:145 0
*RES
1 *1407:Y *2010:D 32.3015 
*END

*D_NET *45 0.00207418
*CONN
*I *2009:D I *D sky130_fd_sc_hd__dfrtp_1
*I *1413:Y O *D sky130_fd_sc_hd__nand2_1
*CAP
1 *2009:D 0.000466439
2 *1413:Y 0.000466439
3 *2009:D *1279:A 0.000405322
4 *2009:D *1282:A 0.000445308
5 *2009:D *1413:B 0
6 *2009:D *2008:D 6.65668e-05
7 *2009:D *2060:D 0.000135866
8 *2009:D *2490:A 7.79923e-05
9 *2009:D *2528:A 0
10 *2009:D *1110:613 1.02448e-05
*RES
1 *1413:Y *2009:D 43.4489 
*END

*D_NET *46 0.00075728
*CONN
*I *2008:D I *D sky130_fd_sc_hd__dfrtp_1
*I *1416:Y O *D sky130_fd_sc_hd__nand2_1
*CAP
1 *2008:D 0.000271137
2 *1416:Y 0.000271137
3 *2008:D *1413:B 0.000114708
4 *2008:D *1416:A 2.11837e-06
5 *2008:D *2008:CLK 3.16131e-05
6 *2009:D *2008:D 6.65668e-05
*RES
1 *1416:Y *2008:D 32.6044 
*END

*D_NET *47 0.00059822
*CONN
*I *2007:D I *D sky130_fd_sc_hd__dfrtp_1
*I *1418:Y O *D sky130_fd_sc_hd__o21ai_0
*CAP
1 *2007:D 0.000185966
2 *1418:Y 0.000185966
3 *2007:D *1380:B 1.28301e-05
4 *2007:D *2007:CLK 6.24387e-05
5 *2007:D *2033:CLK 6.27782e-05
6 *2007:D *667:14 8.05143e-05
7 *2007:D *1108:53 7.72761e-06
*RES
1 *1418:Y *2007:D 32.5452 
*END

*D_NET *48 0.000924071
*CONN
*I *2006:D I *D sky130_fd_sc_hd__dfrtp_1
*I *1421:Y O *D sky130_fd_sc_hd__nand2_1
*CAP
1 *2006:D 0.000262919
2 *1421:Y 0.000262919
3 *2006:D *1421:A 0.000376597
4 *2006:D *1990:D 0
5 *2006:D *686:22 2.16355e-05
*RES
1 *1421:Y *2006:D 35.0367 
*END

*D_NET *49 0.000174684
*CONN
*I *2005:D I *D sky130_fd_sc_hd__dfrtp_1
*I *1424:Y O *D sky130_fd_sc_hd__nand2_1
*CAP
1 *2005:D 6.53342e-05
2 *1424:Y 6.53342e-05
3 *2005:D *2057:D 4.40158e-05
*RES
1 *1424:Y *2005:D 29.3303 
*END

*D_NET *50 0.000368706
*CONN
*I *2004:D I *D sky130_fd_sc_hd__dfrtp_1
*I *1427:Y O *D sky130_fd_sc_hd__nand2_1
*CAP
1 *2004:D 0.000135005
2 *1427:Y 0.000135005
3 *2004:D *2000:CLK 2.94263e-05
4 *2004:D *502:14 6.92705e-05
5 *2004:D *548:10 0
*RES
1 *1427:Y *2004:D 30.4689 
*END

*D_NET *51 0.000162192
*CONN
*I *2003:D I *D sky130_fd_sc_hd__dfrtp_1
*I *1430:Y O *D sky130_fd_sc_hd__nand2_1
*CAP
1 *2003:D 7.57335e-05
2 *1430:Y 7.57335e-05
3 *2003:D *2003:RESET_B 1.07248e-05
4 *2003:D *548:24 0
5 *2003:D *1109:295 0
*RES
1 *1430:Y *2003:D 29.3303 
*END

*D_NET *52 0.00053101
*CONN
*I *2002:D I *D sky130_fd_sc_hd__dfrtp_1
*I *1433:Y O *D sky130_fd_sc_hd__nand2_1
*CAP
1 *2002:D 8.68143e-05
2 *1433:Y 8.68143e-05
3 *2002:D *1433:B 9.29919e-05
4 *2002:D *374:16 6.97525e-05
5 *2002:D *436:196 0.00015901
6 *2002:D *1109:295 3.56264e-05
*RES
1 *1433:Y *2002:D 31.1629 
*END

*D_NET *53 0.000755859
*CONN
*I *2001:D I *D sky130_fd_sc_hd__dfrtp_1
*I *1436:Y O *D sky130_fd_sc_hd__nand2_1
*CAP
1 *2001:D 0.000240785
2 *1436:Y 0.000240785
3 *2001:D *1386:S 0.000163492
4 *2001:D *1436:B 6.32762e-05
5 *2001:D *688:22 3.91554e-05
6 *2001:D *772:31 8.36586e-06
*RES
1 *1436:Y *2001:D 32.9632 
*END

*D_NET *54 0.00025472
*CONN
*I *2000:D I *D sky130_fd_sc_hd__dfrtp_1
*I *1439:Y O *D sky130_fd_sc_hd__nand2_1
*CAP
1 *2000:D 4.04413e-05
2 *1439:Y 4.04413e-05
3 *2000:D *1439:B 7.26606e-05
4 *2000:D *2026:RESET_B 0.000101177
*RES
1 *1439:Y *2000:D 29.3303 
*END

*D_NET *55 0.0001958
*CONN
*I *1999:D I *D sky130_fd_sc_hd__dfrtp_1
*I *1442:Y O *D sky130_fd_sc_hd__nand2_1
*CAP
1 *1999:D 9.6178e-05
2 *1442:Y 9.6178e-05
3 *1999:D *1120:14 3.44412e-06
*RES
1 *1442:Y *1999:D 29.7455 
*END

*D_NET *56 0.00205664
*CONN
*I *1998:D I *D sky130_fd_sc_hd__dfrtp_1
*I *1445:Y O *D sky130_fd_sc_hd__o21ai_0
*CAP
1 *1998:D 0.000780316
2 *1445:Y 0.000780316
3 *1998:D *1390:A0 2.12494e-05
4 *1998:D *1443:A 0
5 *1998:D *1445:B1 0.000208627
6 *1998:D *1998:RESET_B 0.00010618
7 *1998:D *2023:RESET_B 5.39463e-05
8 *1998:D *683:22 3.56264e-05
9 *1998:D *1067:12 0
10 *1998:D *1109:174 7.0379e-05
11 *2023:D *1998:D 0
*RES
1 *1445:Y *1998:D 46.7044 
*END

*D_NET *57 0.000925234
*CONN
*I *1997:D I *D sky130_fd_sc_hd__dfrtp_1
*I *1447:Y O *D sky130_fd_sc_hd__o21ai_0
*CAP
1 *1997:D 0.000185254
2 *1447:Y 0.000185254
3 *1997:D *1319:A2 9.24241e-05
4 *1997:D *1997:CLK 7.02649e-05
5 *1997:D *2024:RESET_B 0.000161234
6 *1997:D *1109:159 0.00011818
7 *1997:D *1109:161 1.65872e-05
8 *1997:D *1174:16 9.60366e-05
*RES
1 *1447:Y *1997:D 32.9955 
*END

*D_NET *58 0.000396764
*CONN
*I *1996:D I *D sky130_fd_sc_hd__dfrtp_1
*I *1449:Y O *D sky130_fd_sc_hd__o21ai_0
*CAP
1 *1996:D 0.000136593
2 *1449:Y 0.000136593
3 *1996:D *1065:12 0.000113237
4 *1996:D *1109:356 1.03403e-05
*RES
1 *1449:Y *1996:D 30.4689 
*END

*D_NET *59 0.00020376
*CONN
*I *1995:D I *D sky130_fd_sc_hd__dfrtp_1
*I *1451:Y O *D sky130_fd_sc_hd__o21ai_0
*CAP
1 *1995:D 7.24466e-05
2 *1451:Y 7.24466e-05
3 *1995:D *2013:RESET_B 5.88662e-05
*RES
1 *1451:Y *1995:D 29.7455 
*END

*D_NET *60 0.00080212
*CONN
*I *1994:D I *D sky130_fd_sc_hd__dfrtp_1
*I *1454:Y O *D sky130_fd_sc_hd__o21ai_0
*CAP
1 *1994:D 0.000296465
2 *1454:Y 0.000296465
3 *1994:D *1454:B1 9.8732e-05
4 *1994:D *1109:250 1.41976e-05
5 *1994:D *1109:263 9.626e-05
*RES
1 *1454:Y *1994:D 34.3456 
*END

*D_NET *61 0.000537364
*CONN
*I *1993:D I *D sky130_fd_sc_hd__dfrtp_1
*I *1456:Y O *D sky130_fd_sc_hd__o21ai_0
*CAP
1 *1993:D 0.00011483
2 *1456:Y 0.00011483
3 *1993:D *1456:A1 0.000115934
4 *1993:D *1109:147 9.40857e-05
5 *1993:D *1174:16 9.76832e-05
*RES
1 *1456:Y *1993:D 30.6083 
*END

*D_NET *62 0.000561162
*CONN
*I *1992:D I *D sky130_fd_sc_hd__dfrtp_1
*I *1458:Y O *D sky130_fd_sc_hd__o21ai_0
*CAP
1 *1992:D 0.000263512
2 *1458:Y 0.000263512
3 *1992:D *2501:A 0
4 *1992:D *520:8 9.43222e-06
5 *1992:D *1119:10 2.4707e-05
*RES
1 *1458:Y *1992:D 33.3757 
*END

*D_NET *63 0.00100983
*CONN
*I *1991:D I *D sky130_fd_sc_hd__dfrtp_1
*I *1460:Y O *D sky130_fd_sc_hd__o21ai_0
*CAP
1 *1991:D 0.000341762
2 *1460:Y 0.000341762
3 *1991:D *1313:A 0.000130777
4 *1991:D *1316:A2 7.28994e-06
5 *1991:D *1991:CLK 4.4336e-05
6 *1991:D *1109:422 0.000143905
*RES
1 *1460:Y *1991:D 36.8048 
*END

*D_NET *64 0.00206283
*CONN
*I *1990:D I *D sky130_fd_sc_hd__dfrtp_1
*I *1463:Y O *D sky130_fd_sc_hd__o21ai_0
*CAP
1 *1990:D 0.000885872
2 *1463:Y 0.000885872
3 *1990:D *1256:A 1.43848e-05
4 *1990:D *1398:A1 7.73661e-05
5 *1990:D *1420:A 0
6 *1990:D *1421:A 0
7 *1990:D *517:12 0
8 *1990:D *519:10 0
9 *1990:D *548:52 9.90116e-05
10 *1990:D *1050:8 0
11 *1990:D *1104:212 0
12 *1990:D *1114:10 4.11905e-05
13 *1990:D *1114:14 3.76013e-05
14 *2006:D *1990:D 0
15 *2016:D *1990:D 0
16 *2032:D *1990:D 2.15326e-05
*RES
1 *1463:Y *1990:D 48.7428 
*END

*D_NET *65 0.00139582
*CONN
*I *1989:D I *D sky130_fd_sc_hd__dfrtp_1
*I *1465:Y O *D sky130_fd_sc_hd__o21ai_0
*CAP
1 *1989:D 0.000511054
2 *1465:Y 0.000511054
3 *1989:D *1465:A1 0.000161956
4 *1989:D *1986:D 0.000117754
5 *1989:D *1109:78 0
6 *1989:D *1109:97 7.92757e-06
7 *1989:D *1110:364 8.60778e-05
*RES
1 *1465:Y *1989:D 38.3615 
*END

*D_NET *66 0.00114424
*CONN
*I *1988:D I *D sky130_fd_sc_hd__dfrtp_1
*I *1467:Y O *D sky130_fd_sc_hd__o21ai_0
*CAP
1 *1988:D 0.000474203
2 *1467:Y 0.000474203
3 *1988:D *1294:A 0.00016182
4 *1988:D *1988:RESET_B 3.40114e-05
*RES
1 *1467:Y *1988:D 29.9521 
*END

*D_NET *67 0.000597242
*CONN
*I *1987:D I *D sky130_fd_sc_hd__dfrtp_1
*I *1469:Y O *D sky130_fd_sc_hd__o21ai_0
*CAP
1 *1987:D 0.000118886
2 *1469:Y 0.000118886
3 *1987:D *1469:B1 0.000111722
4 *1987:D *1987:RESET_B 0.000122068
5 *1987:D *1118:60 0.00012568
*RES
1 *1469:Y *1987:D 31.0235 
*END

*D_NET *68 0.000376828
*CONN
*I *1986:D I *D sky130_fd_sc_hd__dfrtp_1
*I *1472:Y O *D sky130_fd_sc_hd__nand2_1
*CAP
1 *1986:D 0.00012477
2 *1472:Y 0.00012477
3 *1986:D *1256:A 2.18523e-06
4 *1986:D *1472:A 7.34948e-06
5 *1986:D *1989:RESET_B 0
6 *1989:D *1986:D 0.000117754
*RES
1 *1472:Y *1986:D 30.4689 
*END

*D_NET *69 0.00042376
*CONN
*I *1985:D I *D sky130_fd_sc_hd__dfrtp_1
*I *1474:Y O *D sky130_fd_sc_hd__o21ai_0
*CAP
1 *1985:D 0.000100594
2 *1474:Y 0.000100594
3 *1985:D *1420:A 3.1218e-05
4 *1985:D *1474:B1 6.92705e-05
5 *1985:D *1104:189 0.000122083
*RES
1 *1474:Y *1985:D 30.4689 
*END

*D_NET *70 0.000398878
*CONN
*I *1984:D I *D sky130_fd_sc_hd__dfrtp_1
*I *1476:Y O *D sky130_fd_sc_hd__o21ai_0
*CAP
1 *1984:D 0.00011426
2 *1476:Y 0.00011426
3 *1984:D *462:16 2.83365e-05
4 *1984:D *548:65 1.35449e-05
5 *1984:D *1109:42 0.0001221
6 *1984:D *1109:46 6.37652e-06
*RES
1 *1476:Y *1984:D 30.4689 
*END

*D_NET *71 0.00175795
*CONN
*I *2054:D I *D sky130_fd_sc_hd__dfrtp_1
*I *1481:X O *D sky130_fd_sc_hd__xor2_1
*CAP
1 *2054:D 0.000486275
2 *1481:X 0.000486275
3 *2054:D *1643:B1 0.000126335
4 *2054:D *592:21 0.000659059
*RES
1 *1481:X *2054:D 37.1242 
*END

*D_NET *72 0.000365852
*CONN
*I *1983:D I *D sky130_fd_sc_hd__dfrtp_1
*I *1489:Y O *D sky130_fd_sc_hd__nand2_1
*CAP
1 *1983:D 0.000167786
2 *1489:Y 0.000167786
3 *1983:D *1489:B 4.73037e-06
4 *1983:D *1976:D 0
5 *1983:D *388:83 2.55493e-05
*RES
1 *1489:Y *1983:D 30.6083 
*END

*D_NET *73 0.0001625
*CONN
*I *1982:D I *D sky130_fd_sc_hd__dfrtp_1
*I *1491:Y O *D sky130_fd_sc_hd__nand2_1
*CAP
1 *1982:D 8.125e-05
2 *1491:Y 8.125e-05
3 *1982:D *597:62 0
4 *1982:D *1016:8 0
*RES
1 *1491:Y *1982:D 29.3303 
*END

*D_NET *74 0.00218474
*CONN
*I *1981:D I *D sky130_fd_sc_hd__dfrtp_1
*I *1493:Y O *D sky130_fd_sc_hd__nand2_1
*CAP
1 *1981:D 0.000685079
2 *1493:Y 0.000685079
3 *1981:D axi_lite_o[18] 7.19887e-05
4 *1981:D *1492:A 6.24474e-06
5 *1981:D *1493:B 1.61631e-05
6 *1981:D *1680:A 0
7 *1981:D *1680:B 0
8 *1981:D *2515:A 0.000343574
9 *1981:D *185:12 0
10 *1981:D *597:75 0.000140516
11 *1981:D *597:86 4.54854e-05
12 *1981:D *960:10 0
13 *1981:D *996:14 0
14 *1981:D *1113:559 1.75816e-05
15 *1981:D *1132:27 0.00016195
16 *1981:D *1143:85 1.10793e-05
*RES
1 *1493:Y *1981:D 45.1744 
*END

*D_NET *75 0.000694782
*CONN
*I *1980:D I *D sky130_fd_sc_hd__dfrtp_1
*I *1495:Y O *D sky130_fd_sc_hd__nand2_1
*CAP
1 *1980:D 0.000237058
2 *1495:Y 0.000237058
3 *1980:D *1495:B 1.39708e-05
4 *1980:D *1746:A 0.000206696
5 *1980:D *1111:273 0
*RES
1 *1495:Y *1980:D 31.7175 
*END

*D_NET *76 0.000352642
*CONN
*I *1979:D I *D sky130_fd_sc_hd__dfrtp_1
*I *1497:Y O *D sky130_fd_sc_hd__nand2_1
*CAP
1 *1979:D 0.000112607
2 *1497:Y 0.000112607
3 *1979:D *597:53 7.87336e-05
4 *1979:D *598:514 4.8694e-05
*RES
1 *1497:Y *1979:D 30.4689 
*END

*D_NET *77 0.000419828
*CONN
*I *1978:D I *D sky130_fd_sc_hd__dfrtp_1
*I *1499:Y O *D sky130_fd_sc_hd__nand2_1
*CAP
1 *1978:D 0.000139296
2 *1499:Y 0.000139296
3 *1978:D *1499:B 1.41307e-05
4 *1978:D *597:146 9.78191e-05
5 *1978:D *1111:578 1.4091e-06
6 *1978:D *1127:27 2.78772e-05
*RES
1 *1499:Y *1978:D 30.6083 
*END

*D_NET *78 0.00163866
*CONN
*I *1977:D I *D sky130_fd_sc_hd__dfrtp_1
*I *1501:Y O *D sky130_fd_sc_hd__nand2_1
*CAP
1 *1977:D 0.000346461
2 *1501:Y 0.000346461
3 *1977:D *1500:B 4.63117e-05
4 *1977:D *1501:A 1.78942e-05
5 *1977:D *1501:B 0.000265476
6 *1977:D *598:578 0.000612612
7 *1977:D *1128:20 3.44412e-06
*RES
1 *1501:Y *1977:D 39.7522 
*END

*D_NET *79 0.00115872
*CONN
*I *1976:D I *D sky130_fd_sc_hd__dfrtp_1
*I *1503:Y O *D sky130_fd_sc_hd__nand2_1
*CAP
1 *1976:D 0.000400777
2 *1503:Y 0.000400777
3 *1976:D *1503:A 0.000114594
4 *1976:D *1929:RESET_B 1.03594e-05
5 *1976:D *1983:RESET_B 0.000101133
6 *1976:D *388:83 0
7 *1976:D *597:95 6.22703e-05
8 *1976:D *597:99 6.88045e-05
9 *1983:D *1976:D 0
*RES
1 *1503:Y *1976:D 36.8399 
*END

*D_NET *80 0.00127936
*CONN
*I *1975:D I *D sky130_fd_sc_hd__dfrtp_1
*I *1505:Y O *D sky130_fd_sc_hd__nand2_1
*CAP
1 *1975:D 0.000586306
2 *1505:Y 0.000586306
3 *1975:D *1505:A 2.55108e-05
4 *1975:D *1505:B 2.99287e-05
5 *1975:D *1127:73 5.13058e-05
*RES
1 *1505:Y *1975:D 37.1242 
*END

*D_NET *81 0.000841287
*CONN
*I *1974:D I *D sky130_fd_sc_hd__dfrtp_1
*I *1507:Y O *D sky130_fd_sc_hd__nand2_1
*CAP
1 *1974:D 0.00023542
2 *1507:Y 0.00023542
3 *1974:D *598:651 0.000277488
4 *1974:D *966:18 9.29577e-05
5 *1974:D *1127:27 0
*RES
1 *1507:Y *1974:D 32.2721 
*END

*D_NET *82 0.000458455
*CONN
*I *1973:D I *D sky130_fd_sc_hd__dfrtp_1
*I *1509:Y O *D sky130_fd_sc_hd__nand2_1
*CAP
1 *1973:D 5.85122e-05
2 *1509:Y 5.85122e-05
3 *1973:D *1508:B 1.44764e-05
4 *1973:D *1973:CLK 6.97525e-05
5 *1973:D *725:18 0.000257202
*RES
1 *1509:Y *1973:D 21.4401 
*END

*D_NET *83 0.000485257
*CONN
*I *1972:D I *D sky130_fd_sc_hd__dfrtp_1
*I *1513:Y O *D sky130_fd_sc_hd__o21ai_0
*CAP
1 *1972:D 0.000116041
2 *1513:Y 0.000116041
3 *1972:D *1189:A 2.29419e-05
4 *1972:D *1512:B 3.37843e-05
5 *1972:D *1603:A2 3.37843e-05
6 *1972:D *728:20 0.000162663
*RES
1 *1513:Y *1972:D 31.1629 
*END

*D_NET *84 0.00123717
*CONN
*I *1971:D I *D sky130_fd_sc_hd__dfrtp_1
*I *1516:Y O *D sky130_fd_sc_hd__o21ai_0
*CAP
1 *1971:D 0.00048418
2 *1516:Y 0.00048418
3 *1971:D *1516:A1 0.000159038
4 *1971:D *1516:A2 1.1957e-05
5 *1971:D *1136:63 9.78191e-05
*RES
1 *1516:Y *1971:D 35.5997 
*END

*D_NET *85 0.000736185
*CONN
*I *1970:D I *D sky130_fd_sc_hd__dfrtp_1
*I *1519:Y O *D sky130_fd_sc_hd__o21ai_0
*CAP
1 *1970:D 0.000181857
2 *1519:Y 0.000181857
3 *1970:D *1518:A 0.000164843
4 *1970:D *2175:A 9.60366e-05
5 *1970:D *598:288 1.1957e-05
6 *1970:D *758:8 9.96342e-05
*RES
1 *1519:Y *1970:D 31.7175 
*END

*D_NET *86 0.000415702
*CONN
*I *1969:D I *D sky130_fd_sc_hd__dfrtp_1
*I *1522:Y O *D sky130_fd_sc_hd__o21ai_0
*CAP
1 *1969:D 0.000113248
2 *1522:Y 0.000113248
3 *1969:D *117:14 0.000126335
4 *1969:D *388:10 6.28701e-05
*RES
1 *1522:Y *1969:D 30.4689 
*END

*D_NET *87 0.00154533
*CONN
*I *1968:D I *D sky130_fd_sc_hd__dfrtp_1
*I *1525:Y O *D sky130_fd_sc_hd__o21ai_0
*CAP
1 *1968:D 0.000380194
2 *1525:Y 0.000380194
3 *1968:D *1720:A 3.00829e-05
4 *1968:D *1968:CLK 0.000164495
5 *1968:D *2141:A 9.11633e-05
6 *1968:D *185:154 4.0508e-05
7 *1968:D *598:96 0.000453648
8 *1968:D *1001:16 5.04829e-06
*RES
1 *1525:Y *1968:D 40.0365 
*END

*D_NET *88 0.000260005
*CONN
*I *1967:D I *D sky130_fd_sc_hd__dfrtp_1
*I *1528:Y O *D sky130_fd_sc_hd__o21ai_0
*CAP
1 *1967:D 6.61611e-05
2 *1528:Y 6.61611e-05
3 *1967:D *1528:A2 0.000127683
*RES
1 *1528:Y *1967:D 29.7455 
*END

*D_NET *89 0.000466388
*CONN
*I *1966:D I *D sky130_fd_sc_hd__dfrtp_1
*I *1531:Y O *D sky130_fd_sc_hd__o21ai_0
*CAP
1 *1966:D 0.00016586
2 *1531:Y 0.00016586
3 *1966:D *1531:A2 1.41181e-05
4 *1966:D *1615:A2 2.41274e-06
5 *1966:D *1966:RESET_B 2.57847e-05
6 *1966:D *624:12 9.23516e-05
*RES
1 *1531:Y *1966:D 31.1923 
*END

*D_NET *90 0.00113912
*CONN
*I *1965:D I *D sky130_fd_sc_hd__dfrtp_1
*I *1534:Y O *D sky130_fd_sc_hd__o21ai_0
*CAP
1 *1965:D 0.000438248
2 *1534:Y 0.000438248
3 *1965:D *1520:A2 2.41274e-06
4 *1965:D *1617:A2 6.50586e-05
5 *1965:D *1926:RESET_B 0
6 *1965:D *2037:RESET_B 2.99412e-05
7 *1965:D *626:14 4.33819e-05
8 *1965:D *788:14 0.000121831
*RES
1 *1534:Y *1965:D 36.7033 
*END

*D_NET *91 0.000382349
*CONN
*I *1964:D I *D sky130_fd_sc_hd__dfrtp_1
*I *1537:Y O *D sky130_fd_sc_hd__o21ai_0
*CAP
1 *1964:D 0.000114302
2 *1537:Y 0.000114302
3 *1964:D *1202:A 0
4 *1964:D *1537:A2 0.000153746
5 *1964:D *388:125 0
*RES
1 *1537:Y *1964:D 30.4689 
*END

*D_NET *92 0.000425359
*CONN
*I *1963:D I *D sky130_fd_sc_hd__dfrtp_1
*I *1540:Y O *D sky130_fd_sc_hd__o21ai_0
*CAP
1 *1963:D 0.000193664
2 *1540:Y 0.000193664
3 *1963:D *1621:A2 3.80309e-05
*RES
1 *1540:Y *1963:D 32.2032 
*END

*D_NET *93 0.000303127
*CONN
*I *1962:D I *D sky130_fd_sc_hd__dfrtp_1
*I *1543:Y O *D sky130_fd_sc_hd__o21ai_0
*CAP
1 *1962:D 8.98256e-05
2 *1543:Y 8.98256e-05
3 *1962:D *1543:B1 5.84033e-05
4 *1962:D *1962:CLK 6.50727e-05
*RES
1 *1543:Y *1962:D 20.8855 
*END

*D_NET *94 0.00036028
*CONN
*I *1961:D I *D sky130_fd_sc_hd__dfrtp_1
*I *1546:Y O *D sky130_fd_sc_hd__o21ai_0
*CAP
1 *1961:D 0.000145718
2 *1546:Y 0.000145718
3 *1961:D *1546:A1 3.67918e-05
4 *1961:D *1546:B1 4.17531e-06
5 *1961:D *1124:20 2.78772e-05
*RES
1 *1546:Y *1961:D 30.6083 
*END

*D_NET *95 0.000368382
*CONN
*I *1960:D I *D sky130_fd_sc_hd__dfrtp_1
*I *1551:Y O *D sky130_fd_sc_hd__o21ai_0
*CAP
1 *1960:D 3.91066e-05
2 *1551:Y 3.91066e-05
3 *1960:D *1550:B 0.000211546
4 *1960:D *1551:B1 2.41274e-06
5 *1960:D *1960:CLK 7.621e-05
*RES
1 *1551:Y *1960:D 20.8855 
*END

*D_NET *96 0.000725656
*CONN
*I *1959:D I *D sky130_fd_sc_hd__dfrtp_1
*I *1554:Y O *D sky130_fd_sc_hd__o21ai_0
*CAP
1 *1959:D 0.000204238
2 *1554:Y 0.000204238
3 *1959:D *1554:B1 2.12377e-05
4 *1959:D *598:86 0
5 *1959:D *630:10 2.16355e-05
6 *1959:D *1106:235 0.000274307
7 *1959:D *1111:65 0
*RES
1 *1554:Y *1959:D 33.3757 
*END

*D_NET *97 0.000992508
*CONN
*I *1958:D I *D sky130_fd_sc_hd__dfrtp_1
*I *1557:Y O *D sky130_fd_sc_hd__o21ai_0
*CAP
1 *1958:D 0.000338642
2 *1557:Y 0.000338642
3 *1958:D *1631:A2 2.41483e-05
4 *1958:D *185:335 0.000127164
5 *1958:D *598:332 0
6 *1958:D *642:22 0.000163912
*RES
1 *1557:Y *1958:D 34.3512 
*END

*D_NET *98 0.000272125
*CONN
*I *1957:D I *D sky130_fd_sc_hd__dfrtp_1
*I *1560:Y O *D sky130_fd_sc_hd__o21ai_0
*CAP
1 *1957:D 0.000129846
2 *1560:Y 0.000129846
3 *1957:D *1632:B 0
4 *1957:D *1926:D 0
5 *1957:D *1957:RESET_B 3.00174e-06
6 *1957:D *618:10 9.43222e-06
*RES
1 *1560:Y *1957:D 30.0537 
*END

*D_NET *99 0.000282201
*CONN
*I *1956:D I *D sky130_fd_sc_hd__dfrtp_1
*I *1567:Y O *D sky130_fd_sc_hd__o21ai_0
*CAP
1 *1956:D 3.51843e-05
2 *1567:Y 3.51843e-05
3 *1956:D *185:128 0.000103412
4 *1956:D *611:136 8.36586e-06
5 *1956:D *611:146 0.000100054
*RES
1 *1567:Y *1956:D 29.3303 
*END

*D_NET *100 0.000536565
*CONN
*I *1955:D I *D sky130_fd_sc_hd__dfrtp_1
*I *1574:Y O *D sky130_fd_sc_hd__o21ai_0
*CAP
1 *1955:D 0.000230048
2 *1574:Y 0.000230048
3 *1955:D *1574:A1 2.39769e-05
4 *1955:D *1574:B1 4.17531e-06
5 *1955:D *1768:A 2.99929e-05
6 *1955:D *598:370 0
7 *1955:D *777:14 3.86207e-06
8 *1955:D *855:8 1.44611e-05
*RES
1 *1574:Y *1955:D 31.7175 
*END

*D_NET *101 0.000524697
*CONN
*I *1954:D I *D sky130_fd_sc_hd__dfrtp_1
*I *1580:Y O *D sky130_fd_sc_hd__o21ai_0
*CAP
1 *1954:D 0.000133378
2 *1580:Y 0.000133378
3 *1954:D *1580:A2 0.000127164
4 *1954:D *1696:A 0.000130777
*RES
1 *1580:Y *1954:D 31.0235 
*END

*D_NET *102 0.000353365
*CONN
*I *1953:D I *D sky130_fd_sc_hd__dfrtp_1
*I *1586:Y O *D sky130_fd_sc_hd__o21ai_0
*CAP
1 *1953:D 0.000145293
2 *1586:Y 0.000145293
3 *1953:D *1586:A1 6.27782e-05
4 *1953:D *1904:B1 0
5 *1953:D *1953:RESET_B 0
*RES
1 *1586:Y *1953:D 30.4689 
*END

*D_NET *103 0.00126127
*CONN
*I *1952:D I *D sky130_fd_sc_hd__dfrtp_1
*I *1589:Y O *D sky130_fd_sc_hd__o21ai_0
*CAP
1 *1952:D 0.000346444
2 *1589:Y 0.000346444
3 *1952:D *1213:B 1.61631e-05
4 *1952:D *1214:B1 0.000413252
5 *1952:D *1488:A 7.6719e-06
6 *1952:D *1942:CLK 3.01634e-05
7 *1952:D *598:561 0.000101133
*RES
1 *1589:Y *1952:D 34.4905 
*END

*D_NET *104 0.000638412
*CONN
*I *1951:D I *D sky130_fd_sc_hd__dfrtp_1
*I *1590:Y O *D sky130_fd_sc_hd__o21ai_0
*CAP
1 *1951:D 0.000171818
2 *1590:Y 0.000171818
3 *1951:D *1590:A1 0.000160617
4 *1951:D *183:95 9.32891e-05
5 *1951:D *1111:366 4.08704e-05
*RES
1 *1590:Y *1951:D 31.1629 
*END

*D_NET *105 0.000674035
*CONN
*I *1950:D I *D sky130_fd_sc_hd__dfrtp_1
*I *1591:Y O *D sky130_fd_sc_hd__o21ai_0
*CAP
1 *1950:D 0.000155583
2 *1591:Y 0.000155583
3 *1950:D *1496:B 5.04829e-06
4 *1950:D *1591:A1 0.000109427
5 *1950:D *183:67 0.000122518
6 *1950:D *1014:8 0.000125876
*RES
1 *1591:Y *1950:D 31.7469 
*END

*D_NET *106 0.000588232
*CONN
*I *1949:D I *D sky130_fd_sc_hd__dfrtp_1
*I *1592:Y O *D sky130_fd_sc_hd__o21ai_0
*CAP
1 *1949:D 0.000117975
2 *1592:Y 0.000117975
3 *1949:D axi_lite_o[8] 0.000110413
4 *1949:D *183:155 6.11447e-06
5 *1949:D *1111:603 0.000109421
6 *1949:D *1128:80 0.000126335
*RES
1 *1592:Y *1949:D 31.0235 
*END

*D_NET *107 0.00127909
*CONN
*I *1948:D I *D sky130_fd_sc_hd__dfrtp_1
*I *1593:Y O *D sky130_fd_sc_hd__o21ai_0
*CAP
1 *1948:D 0.000316982
2 *1593:Y 0.000316982
3 *1948:D *1224:A 0.000193981
4 *1948:D *184:51 0.000299937
5 *1948:D *184:68 0.000151204
*RES
1 *1593:Y *1948:D 37.4158 
*END

*D_NET *108 0.00043437
*CONN
*I *1947:D I *D sky130_fd_sc_hd__dfrtp_1
*I *1594:Y O *D sky130_fd_sc_hd__o21ai_0
*CAP
1 *1947:D 9.07398e-05
2 *1594:Y 9.07398e-05
3 *1947:D *1594:A1 6.08467e-05
4 *1947:D *184:147 9.60216e-05
5 *1947:D *1113:818 3.31733e-05
6 *1947:D *1113:840 6.28484e-05
*RES
1 *1594:Y *1947:D 30.0537 
*END

*D_NET *109 0.000479467
*CONN
*I *1946:D I *D sky130_fd_sc_hd__dfrtp_1
*I *1595:Y O *D sky130_fd_sc_hd__o21ai_0
*CAP
1 *1946:D 8.00179e-05
2 *1595:Y 8.00179e-05
3 *1946:D *1232:B1 6.50727e-05
4 *1946:D *184:119 0.000127179
5 *1946:D *1113:797 0.000127179
*RES
1 *1595:Y *1946:D 30.4689 
*END

*D_NET *110 0.0023627
*CONN
*I *1945:D I *D sky130_fd_sc_hd__dfrtp_1
*I *1596:Y O *D sky130_fd_sc_hd__o21ai_0
*CAP
1 *1945:D 0.000510544
2 *1596:Y 0.000510544
3 *1945:D axi_lite_o[18] 8.58741e-05
4 *1945:D *1212:A 0
5 *1945:D *1596:A1 7.67734e-06
6 *1945:D *1596:A2 1.41976e-05
7 *1945:D *1596:B1 7.01935e-06
8 *1945:D *1952:RESET_B 6.23423e-05
9 *1945:D *183:106 0.000196969
10 *1945:D *183:121 6.51863e-05
11 *1945:D *184:77 0.000218636
12 *1945:D *184:96 0.000353132
13 *1945:D *184:107 0.000330575
14 *1945:D *1113:959 0
*RES
1 *1596:Y *1945:D 44.5875 
*END

*D_NET *111 0.00124929
*CONN
*I *1944:D I *D sky130_fd_sc_hd__dfrtp_1
*I *1597:Y O *D sky130_fd_sc_hd__o21ai_0
*CAP
1 *1944:D 0.000530143
2 *1597:Y 0.000530143
3 *1944:D *1184:A 3.314e-05
4 *1944:D *1597:A1 5.08751e-05
5 *1944:D *1597:A2 1.84293e-05
6 *1944:D *1944:RESET_B 4.8054e-05
7 *1944:D *386:6 3.85049e-05
*RES
1 *1597:Y *1944:D 31.6159 
*END

*D_NET *112 0.000277906
*CONN
*I *1943:D I *D sky130_fd_sc_hd__dfrtp_1
*I *1598:Y O *D sky130_fd_sc_hd__o21ai_0
*CAP
1 *1943:D 0.000126022
2 *1598:Y 0.000126022
3 *1943:D *1974:RESET_B 2.58616e-05
*RES
1 *1598:Y *1943:D 30.4689 
*END

*D_NET *113 0.000454553
*CONN
*I *1942:D I *D sky130_fd_sc_hd__dfrtp_1
*I *1599:Y O *D sky130_fd_sc_hd__o21ai_0
*CAP
1 *1942:D 0.000164767
2 *1599:Y 0.000164767
3 *1942:D axi_lite_o[18] 5.04829e-06
4 *1942:D *1945:RESET_B 2.02742e-05
5 *1942:D *184:96 9.96962e-05
*RES
1 *1599:Y *1942:D 31.1629 
*END

*D_NET *114 0.000190643
*CONN
*I *1941:D I *D sky130_fd_sc_hd__dfrtp_1
*I *1603:Y O *D sky130_fd_sc_hd__o21ai_0
*CAP
1 *1941:D 9.53217e-05
2 *1603:Y 9.53217e-05
*RES
1 *1603:Y *1941:D 29.3303 
*END

*D_NET *115 0.00052522
*CONN
*I *1940:D I *D sky130_fd_sc_hd__dfrtp_1
*I *1605:Y O *D sky130_fd_sc_hd__o21ai_0
*CAP
1 *1940:D 0.000223507
2 *1605:Y 0.000223507
3 *1940:D *1605:A1 2.22974e-05
4 *1940:D *1605:A2 4.96492e-05
5 *1940:D *450:56 0
6 *1940:D *652:10 0
7 *1940:D *1110:436 6.25883e-06
*RES
1 *1605:Y *1940:D 31.5781 
*END

*D_NET *116 0.000448065
*CONN
*I *1939:D I *D sky130_fd_sc_hd__dfrtp_1
*I *1607:Y O *D sky130_fd_sc_hd__o21ai_0
*CAP
1 *1939:D 4.75358e-05
2 *1607:Y 4.75358e-05
3 *1939:D *1607:B1 8.98868e-05
4 *1939:D *1939:RESET_B 0.000263107
*RES
1 *1607:Y *1939:D 21.4401 
*END

*D_NET *117 0.00241703
*CONN
*I *1938:D I *D sky130_fd_sc_hd__dfrtp_1
*I *1609:Y O *D sky130_fd_sc_hd__o21ai_0
*CAP
1 *1938:D 0
2 *1609:Y 0.000885932
3 *117:14 0.000885932
4 *117:14 *1194:A 0
5 *117:14 *1522:A2 5.65046e-05
6 *117:14 *1606:A 8.76221e-06
7 *117:14 *1608:A 1.25964e-05
8 *117:14 *1609:A2 0.000203959
9 *117:14 *1787:A2 0
10 *117:14 *1938:CLK 0.000212554
11 *117:14 *1969:CLK 2.44579e-05
12 *117:14 *1113:441 0
13 *1969:D *117:14 0.000126335
*RES
1 *1609:Y *117:14 41.4712 
2 *117:14 *1938:D 9.24915 
*END

*D_NET *118 0.000555405
*CONN
*I *1937:D I *D sky130_fd_sc_hd__dfrtp_1
*I *1611:Y O *D sky130_fd_sc_hd__o21ai_0
*CAP
1 *1937:D 0.000217605
2 *1611:Y 0.000217605
3 *1937:D *1610:A 6.12686e-06
4 *1937:D *1611:B1 4.30017e-06
5 *1937:D *2145:A 1.03594e-05
6 *1937:D *185:154 3.16954e-05
7 *1937:D *185:178 6.77131e-05
8 *1937:D *1143:10 0
*RES
1 *1611:Y *1937:D 32.5452 
*END

*D_NET *119 0.000565941
*CONN
*I *1936:D I *D sky130_fd_sc_hd__dfrtp_1
*I *1613:Y O *D sky130_fd_sc_hd__o21ai_0
*CAP
1 *1936:D 0.000142646
2 *1613:Y 0.000142646
3 *1936:D *1613:B1 6.49694e-05
4 *1936:D *1936:CLK 0.00021568
*RES
1 *1613:Y *1936:D 22.5493 
*END

*D_NET *120 0.000190325
*CONN
*I *1935:D I *D sky130_fd_sc_hd__dfrtp_1
*I *1615:Y O *D sky130_fd_sc_hd__o21ai_0
*CAP
1 *1935:D 7.93549e-05
2 *1615:Y 7.93549e-05
3 *1935:D *1614:B 1.03594e-05
4 *1935:D *185:337 2.12562e-05
5 *1935:D *1106:235 0
*RES
1 *1615:Y *1935:D 29.3303 
*END

*D_NET *121 0.000634774
*CONN
*I *1934:D I *D sky130_fd_sc_hd__dfrtp_1
*I *1617:Y O *D sky130_fd_sc_hd__o21ai_0
*CAP
1 *1934:D 0.000232997
2 *1617:Y 0.000232997
3 *1934:D *1235:B 7.34948e-06
4 *1934:D *1533:B 1.80887e-05
5 *1934:D *1617:A2 1.61631e-05
6 *1934:D *726:14 0
7 *1934:D *998:12 0.000127179
*RES
1 *1617:Y *1934:D 32.1327 
*END

*D_NET *122 0.0002495
*CONN
*I *1933:D I *D sky130_fd_sc_hd__dfrtp_1
*I *1619:Y O *D sky130_fd_sc_hd__o21ai_0
*CAP
1 *1933:D 7.62637e-05
2 *1619:Y 7.62637e-05
3 *1933:D *1619:B1 7.34948e-06
4 *1933:D *1964:CLK 9.82896e-06
5 *1933:D *1129:14 7.97944e-05
*RES
1 *1619:Y *1933:D 20.8855 
*END

*D_NET *123 0.000791706
*CONN
*I *1932:D I *D sky130_fd_sc_hd__dfrtp_1
*I *1621:Y O *D sky130_fd_sc_hd__o21ai_0
*CAP
1 *1932:D 0.000317418
2 *1621:Y 0.000317418
3 *1932:D *1621:B1 7.48633e-05
4 *1932:D *1963:RESET_B 8.20064e-05
5 *1932:D *1132:39 0
*RES
1 *1621:Y *1932:D 35.6264 
*END

*D_NET *124 0.000362392
*CONN
*I *1931:D I *D sky130_fd_sc_hd__dfrtp_1
*I *1623:Y O *D sky130_fd_sc_hd__o21ai_0
*CAP
1 *1931:D 0.000146698
2 *1623:Y 0.000146698
3 *1931:D *1623:B1 6.39465e-05
4 *1931:D *1713:A 5.04829e-06
*RES
1 *1623:Y *1931:D 22.1876 
*END

*D_NET *125 0.000618785
*CONN
*I *1930:D I *D sky130_fd_sc_hd__dfrtp_1
*I *1625:Y O *D sky130_fd_sc_hd__o21ai_0
*CAP
1 *1930:D 0.00015961
2 *1625:Y 0.00015961
3 *1930:D *1625:A1 0.000130777
4 *1930:D *1625:A2 4.16236e-05
5 *1930:D *1922:D 0.000127164
*RES
1 *1625:Y *1930:D 31.5781 
*END

*D_NET *126 0.000709598
*CONN
*I *1929:D I *D sky130_fd_sc_hd__dfrtp_1
*I *1627:Y O *D sky130_fd_sc_hd__o21ai_0
*CAP
1 *1929:D 0.000256603
2 *1627:Y 0.000256603
3 *1929:D *1626:A 0.000168313
4 *1929:D *1626:B 2.80783e-05
5 *1929:D *388:81 0
6 *1929:D *1129:8 0
*RES
1 *1627:Y *1929:D 32.2721 
*END

*D_NET *127 0.000937393
*CONN
*I *1928:D I *D sky130_fd_sc_hd__dfrtp_1
*I *1629:Y O *D sky130_fd_sc_hd__o21ai_0
*CAP
1 *1928:D 0.000327719
2 *1629:Y 0.000327719
3 *1928:D *1554:A2 6.36477e-05
4 *1928:D *1628:B 2.1588e-05
5 *1928:D *1928:RESET_B 0.00011777
6 *1928:D *185:65 7.89491e-05
*RES
1 *1629:Y *1928:D 35.4898 
*END

*D_NET *128 0.000160405
*CONN
*I *1927:D I *D sky130_fd_sc_hd__dfrtp_1
*I *1631:Y O *D sky130_fd_sc_hd__o21ai_0
*CAP
1 *1927:D 7.85605e-05
2 *1631:Y 7.85605e-05
3 *1927:D *1927:RESET_B 3.28433e-06
4 *1927:D *185:329 0
*RES
1 *1631:Y *1927:D 29.3303 
*END

*D_NET *129 0.00126219
*CONN
*I *1926:D I *D sky130_fd_sc_hd__dfrtp_1
*I *1633:Y O *D sky130_fd_sc_hd__o21ai_0
*CAP
1 *1926:D 0.00028622
2 *1633:Y 0.00028622
3 *1926:D *1520:A2 0.000183943
4 *1926:D *1541:A1 0.000213449
5 *1926:D *788:14 0.000292359
6 *1957:D *1926:D 0
*RES
1 *1633:Y *1926:D 35.4548 
*END

*D_NET *130 0.000878523
*CONN
*I *1925:D I *D sky130_fd_sc_hd__dfrtp_1
*I *1635:Y O *D sky130_fd_sc_hd__o21ai_0
*CAP
1 *1925:D 0.000371005
2 *1635:Y 0.000371005
3 *1925:D *1635:A1 6.97525e-05
4 *1925:D *458:105 2.2778e-05
5 *1925:D *778:22 4.39835e-05
*RES
1 *1635:Y *1925:D 33.9359 
*END

*D_NET *131 0.000364316
*CONN
*I *1924:D I *D sky130_fd_sc_hd__dfrtp_1
*I *1637:Y O *D sky130_fd_sc_hd__o21ai_0
*CAP
1 *1924:D 0.000141901
2 *1637:Y 0.000141901
3 *1924:D *1574:A2 1.37566e-05
4 *1924:D *1637:A2 5.85936e-05
5 *1924:D *1924:CLK 8.16394e-06
6 *1924:D *598:376 0
*RES
1 *1637:Y *1924:D 30.9913 
*END

*D_NET *132 0.000466803
*CONN
*I *1923:D I *D sky130_fd_sc_hd__dfrtp_1
*I *1639:Y O *D sky130_fd_sc_hd__o21ai_0
*CAP
1 *1923:D 0.000233402
2 *1639:Y 0.000233402
3 *1923:D *1580:A2 0
4 *1923:D *1923:RESET_B 0
5 *1923:D *1129:61 0
6 *1923:D *1143:143 0
*RES
1 *1639:Y *1923:D 33.0676 
*END

*D_NET *133 0.00130736
*CONN
*I *1922:D I *D sky130_fd_sc_hd__dfrtp_1
*I *1641:Y O *D sky130_fd_sc_hd__o21ai_0
*CAP
1 *1922:D 0.000377795
2 *1641:Y 0.000377795
3 *1922:D *1625:A1 7.83775e-05
4 *1922:D *1625:A2 0.000163784
5 *1922:D *1922:RESET_B 6.3657e-05
6 *1922:D *1953:RESET_B 0
7 *1922:D *185:191 0.000118792
8 *1930:D *1922:D 0.000127164
*RES
1 *1641:Y *1922:D 37.9757 
*END

*D_NET *134 0.00135711
*CONN
*I *2050:D I *D sky130_fd_sc_hd__dfrtp_1
*I *1650:Y O *D sky130_fd_sc_hd__a31oi_1
*CAP
1 *2050:D 0.000399022
2 *1650:Y 0.000399022
3 *2050:D axi_lite_o[35] 1.46079e-05
4 *2050:D *1237:A1 1.71187e-05
5 *2050:D *1645:A 0.000139817
6 *2050:D *2105:CLK 1.45799e-05
7 *2050:D *207:22 7.26606e-05
8 *2050:D *209:6 8.43687e-05
9 *2050:D *1028:10 0.000103401
10 *2050:D *1135:52 0.000112509
*RES
1 *1650:Y *2050:D 38.7768 
*END

*D_NET *135 0.000256685
*CONN
*I *1921:D I *D sky130_fd_sc_hd__dfrtp_1
*I *1653:X O *D sky130_fd_sc_hd__mux2_1
*CAP
1 *1921:D 0.000108096
2 *1653:X 0.000108096
3 *1921:D *1270:A 8.70662e-06
4 *1921:D *1653:A0 3.17869e-05
*RES
1 *1653:X *1921:D 30.0537 
*END

*D_NET *136 0.00101433
*CONN
*I *1920:D I *D sky130_fd_sc_hd__dfrtp_1
*I *1654:X O *D sky130_fd_sc_hd__mux2_1
*CAP
1 *1920:D 0.000437563
2 *1654:X 0.000437563
3 *1920:D *714:12 0.000139202
*RES
1 *1654:X *1920:D 36.564 
*END

*D_NET *137 0.00039411
*CONN
*I *1919:D I *D sky130_fd_sc_hd__dfrtp_1
*I *1655:X O *D sky130_fd_sc_hd__mux2_1
*CAP
1 *1919:D 0.000109171
2 *1655:X 0.000109171
3 *1919:D *1919:CLK 7.86847e-05
4 *1919:D *2538:A 1.8398e-05
5 *1919:D *1154:10 7.86847e-05
*RES
1 *1655:X *1919:D 30.7718 
*END

*D_NET *138 0.00212687
*CONN
*I *1918:D I *D sky130_fd_sc_hd__dfrtp_1
*I *1660:Y O *D sky130_fd_sc_hd__nand2_1
*CAP
1 *1918:D 0.000711017
2 *1660:Y 0.000711017
3 *1918:D *1269:A 2.19224e-05
4 *1918:D *1269:B 8.07651e-05
5 *1918:D *1270:A 1.5243e-05
6 *1918:D *1270:B 7.34948e-06
7 *1918:D *1271:A2 0.000149244
8 *1918:D *1907:D 8.04542e-05
9 *1918:D *2049:CLK 5.49195e-05
10 *1918:D *1138:58 0.000154471
11 *1918:D *1138:71 4.05509e-05
12 *1918:D *1138:84 9.99157e-05
*RES
1 *1660:Y *1918:D 45.0112 
*END

*D_NET *139 0.00142928
*CONN
*I *1917:D I *D sky130_fd_sc_hd__dfrtp_1
*I *1663:Y O *D sky130_fd_sc_hd__nand2_1
*CAP
1 *1917:D 0.000460992
2 *1663:Y 0.000460992
3 *1917:D *1254:A3 0
4 *1917:D *1666:A 0.000122378
5 *1917:D *1916:D 6.92705e-05
6 *1917:D *425:14 9.82896e-06
7 *1917:D *793:11 0.000305813
8 *1917:D *1110:890 0
*RES
1 *1663:Y *1917:D 38.3615 
*END

*D_NET *140 0.000753026
*CONN
*I *1916:D I *D sky130_fd_sc_hd__dfrtp_1
*I *1666:Y O *D sky130_fd_sc_hd__nand2_1
*CAP
1 *1916:D 0.000142414
2 *1666:Y 0.000142414
3 *1916:D *1874:A 0.000116986
4 *1916:D *425:14 0.00010051
5 *1916:D *1051:12 6.08467e-05
6 *1916:D *1154:10 0.000120584
7 *1917:D *1916:D 6.92705e-05
*RES
1 *1666:Y *1916:D 32.6874 
*END

*D_NET *141 0.000919066
*CONN
*I *2047:D I *D sky130_fd_sc_hd__dfrtp_1
*I *1668:X O *D sky130_fd_sc_hd__mux2_1
*CAP
1 *2047:D 0.000318602
2 *1668:X 0.000318602
3 *2047:D *1307:A 3.34802e-05
4 *2047:D *2076:RESET_B 3.25776e-05
5 *2047:D *475:8 0.000121769
6 *2047:D *763:12 0
7 *2047:D *1110:45 9.40339e-05
*RES
1 *1668:X *2047:D 36.564 
*END

*D_NET *142 0.00100923
*CONN
*I *2046:D I *D sky130_fd_sc_hd__dfrtp_1
*I *1669:X O *D sky130_fd_sc_hd__mux2_1
*CAP
1 *2046:D 0.000501918
2 *1669:X 0.000501918
3 *2046:D *1352:A 0
4 *2046:D *2078:RESET_B 0
5 *2046:D *522:24 5.39635e-06
*RES
1 *1669:X *2046:D 36.564 
*END

*D_NET *143 0.00120719
*CONN
*I *2045:D I *D sky130_fd_sc_hd__dfrtp_1
*I *1670:X O *D sky130_fd_sc_hd__mux2_1
*CAP
1 *2045:D 0.000394726
2 *1670:X 0.000394726
3 *2045:D *1670:A0 0
4 *2045:D *1670:S 0.000137455
5 *2045:D *2045:RESET_B 6.50727e-05
6 *2045:D *2045:CLK 3.14978e-05
7 *2045:D *2118:D 5.88662e-05
8 *2045:D *2124:D 0.000124844
*RES
1 *1670:X *2045:D 40.0197 
*END

*D_NET *144 0.000436639
*CONN
*I *2043:D I *D sky130_fd_sc_hd__dfrtp_1
*I *1672:Y O *D sky130_fd_sc_hd__o21ai_0
*CAP
1 *2043:D 0.000103927
2 *1672:Y 0.000103927
3 *2043:D *1672:B1 6.27782e-05
4 *2043:D *2047:RESET_B 0.00011815
5 *2043:D *2069:RESET_B 4.78554e-05
*RES
1 *1672:Y *2043:D 30.4689 
*END

*D_NET *145 0.00063747
*CONN
*I *2042:D I *D sky130_fd_sc_hd__dfrtp_1
*I *1674:Y O *D sky130_fd_sc_hd__o21ai_0
*CAP
1 *2042:D 0.000214665
2 *1674:Y 0.000214665
3 *2042:D *1298:A1 0.000196623
4 *2042:D *1674:B1 1.15174e-05
5 *2042:D *224:79 0
*RES
1 *1674:Y *2042:D 33.3757 
*END

*D_NET *146 0.000302476
*CONN
*I *2041:D I *D sky130_fd_sc_hd__dfrtp_1
*I *1676:Y O *D sky130_fd_sc_hd__o21ai_0
*CAP
1 *2041:D 8.70377e-05
2 *1676:Y 8.70377e-05
3 *2041:D *2042:RESET_B 0
4 *2041:D *1113:68 0.000102525
5 *2041:D *1123:14 2.58757e-05
*RES
1 *1676:Y *2041:D 30.0537 
*END

*D_NET *147 0.00109641
*CONN
*I *2037:D I *D sky130_fd_sc_hd__dfrtp_1
*I *1809:Y O *D sky130_fd_sc_hd__o21ai_0
*CAP
1 *2037:D 0.000247811
2 *1809:Y 0.000247811
3 *2037:D *1737:B 0.000129489
4 *2037:D *1742:B1 5.80872e-05
5 *2037:D *1809:A1 0.000176017
6 *2037:D *2037:CLK 7.16754e-05
7 *2037:D *2124:RESET_B 0.000165521
8 *2037:D *787:14 0
*RES
1 *1809:Y *2037:D 35.7307 
*END

*D_NET *148 0.00158977
*CONN
*I *2038:D I *D sky130_fd_sc_hd__dfrtp_1
*I *1813:Y O *D sky130_fd_sc_hd__o21ai_0
*CAP
1 *2038:D 0.000621327
2 *1813:Y 0.000621327
3 *2038:D *1683:A 0.00025718
4 *2038:D *1685:A2 0
5 *2038:D *2123:RESET_B 4.12636e-05
6 *2038:D *864:8 2.49791e-05
7 *2038:D *1125:18 2.3695e-05
*RES
1 *1813:Y *2038:D 38.7852 
*END

*D_NET *149 0.000558895
*CONN
*I *2039:D I *D sky130_fd_sc_hd__dfrtp_1
*I *1823:Y O *D sky130_fd_sc_hd__o21ai_0
*CAP
1 *2039:D 0.000226081
2 *1823:Y 0.000226081
3 *2039:D *1726:A2 9.78334e-05
4 *2039:D *1823:A2 8.89955e-06
*RES
1 *1823:Y *2039:D 31.7175 
*END

*D_NET *150 0.000746486
*CONN
*I *2040:D I *D sky130_fd_sc_hd__dfrtp_1
*I *1828:Y O *D sky130_fd_sc_hd__o21ai_0
*CAP
1 *2040:D 0.00022861
2 *1828:Y 0.00022861
3 *2040:D *1766:B 7.28567e-06
4 *2040:D *1828:A1 2.58757e-05
5 *2040:D *1828:A2 0.000114271
6 *2040:D *291:10 9.78191e-05
7 *2040:D *777:8 4.40158e-05
*RES
1 *1828:Y *2040:D 32.2721 
*END

*D_NET *151 0.00229097
*CONN
*I *2044:D I *D sky130_fd_sc_hd__dfrtp_1
*I *1832:Y O *D sky130_fd_sc_hd__o21ai_0
*CAP
1 *2044:D 0.000831418
2 *1832:Y 0.000831418
3 *2044:D *1320:B 3.00829e-05
4 *2044:D *1321:B1 1.4106e-05
5 *2044:D *1895:A 0
6 *2044:D *1896:B1 0
7 *2044:D *2081:RESET_B 0
8 *2044:D *2081:CLK 6.00814e-05
9 *2044:D *2084:CLK 0
10 *2044:D *224:46 5.85259e-05
11 *2044:D *224:55 0.000114271
12 *2044:D *340:10 2.99797e-05
13 *2044:D *1107:77 0
14 *2044:D *1107:138 0
15 *2044:D *1141:35 5.38612e-06
16 *2044:D *1142:10 0.000296579
17 *2044:D *1142:27 1.91246e-05
*RES
1 *1832:Y *2044:D 45.981 
*END

*D_NET *152 0.00054095
*CONN
*I *2048:D I *D sky130_fd_sc_hd__dfrtp_1
*I *1835:X O *D sky130_fd_sc_hd__mux2_1
*CAP
1 *2048:D 0.00018743
2 *1835:X 0.00018743
3 *2048:D *2044:RESET_B 0.000166091
*RES
1 *1835:X *2048:D 31.1629 
*END

*D_NET *153 0.000489541
*CONN
*I *1915:D I *D sky130_fd_sc_hd__dfrtp_1
*I *1838:Y O *D sky130_fd_sc_hd__nand2_1
*CAP
1 *1915:D 0.000116975
2 *1838:Y 0.000116975
3 *1915:D *1836:A 0.000107502
4 *1915:D *1920:RESET_B 6.64392e-05
5 *1915:D *217:8 8.97566e-06
6 *1915:D *217:27 7.26748e-05
*RES
1 *1838:Y *1915:D 31.2994 
*END

*D_NET *154 0.00020376
*CONN
*I *1914:D I *D sky130_fd_sc_hd__dfrtp_1
*I *1840:Y O *D sky130_fd_sc_hd__o21ai_0
*CAP
1 *1914:D 7.24466e-05
2 *1840:Y 7.24466e-05
3 *1914:D *1261:A1 5.88662e-05
*RES
1 *1840:Y *1914:D 29.7455 
*END

*D_NET *155 0.00148857
*CONN
*I *2049:D I *D sky130_fd_sc_hd__dfrtp_1
*I *1841:X O *D sky130_fd_sc_hd__xor2_1
*CAP
1 *2049:D 0.000595637
2 *1841:X 0.000595637
3 *2049:D *1841:A 4.33748e-05
4 *2049:D *1841:B 0.00016386
5 *2049:D *2049:CLK 2.58616e-05
6 *2049:D *957:10 6.41964e-05
*RES
1 *1841:X *2049:D 32.7251 
*END

*D_NET *156 0.000903673
*CONN
*I *2051:D I *D sky130_fd_sc_hd__dfrtp_1
*I *1843:Y O *D sky130_fd_sc_hd__a21oi_1
*CAP
1 *2051:D 0.000322299
2 *1843:Y 0.000322299
3 *2051:D *1643:A2 0
4 *2051:D *1650:A3 3.20264e-05
5 *2051:D *1843:B1 5.23435e-05
6 *2051:D *2051:RESET_B 4.89195e-05
7 *2051:D *186:10 0.000116661
8 *2051:D *422:10 1.77537e-06
9 *2051:D *425:20 7.34948e-06
10 *2051:D *1029:25 0
*RES
1 *1843:Y *2051:D 37.1158 
*END

*D_NET *157 0.000466083
*CONN
*I *2052:D I *D sky130_fd_sc_hd__dfrtp_1
*I *1845:Y O *D sky130_fd_sc_hd__nand2_1
*CAP
1 *2052:D 0.00011021
2 *1845:Y 0.00011021
3 *2052:D *2052:RESET_B 0.000164843
4 *2052:D *2052:CLK 7.34948e-06
5 *2052:D *717:10 5.68225e-06
6 *2052:D *751:12 3.77804e-05
7 *2052:D *1110:739 3.00073e-05
*RES
1 *1845:Y *2052:D 31.1629 
*END

*D_NET *158 0.00148861
*CONN
*I *1913:D I *D sky130_fd_sc_hd__dfrtp_1
*I *1847:Y O *D sky130_fd_sc_hd__o21ai_0
*CAP
1 *1913:D 0.000605635
2 *1847:Y 0.000605635
3 *1913:D *1482:A 0
4 *1913:D *1484:A 0
5 *1913:D *1847:A1 6.91176e-05
6 *1913:D *1847:A2 9.27159e-05
7 *1913:D *1133:16 0.000115505
*RES
1 *1847:Y *1913:D 39.337 
*END

*D_NET *159 0.000506258
*CONN
*I *1912:D I *D sky130_fd_sc_hd__dfrtp_1
*I *1848:Y O *D sky130_fd_sc_hd__o21ai_0
*CAP
1 *1912:D 0.000139698
2 *1848:Y 0.000139698
3 *1912:D *1851:B 0.000128094
4 *1912:D *184:40 1.53954e-05
5 *1912:D *984:10 3.55179e-05
6 *1912:D *1111:414 4.78554e-05
*RES
1 *1848:Y *1912:D 31.4065 
*END

*D_NET *160 0.00129818
*CONN
*I *1911:D I *D sky130_fd_sc_hd__dfrtp_1
*I *1850:Y O *D sky130_fd_sc_hd__nand2_1
*CAP
1 *1911:D 0.00042954
2 *1850:Y 0.00042954
3 *1911:D *1588:B 0.000139684
4 *1911:D *1850:B 3.00829e-05
5 *1911:D *2056:RESET_B 3.64637e-05
6 *1911:D *2056:CLK 4.24488e-05
7 *1911:D *458:148 0.000138334
8 *1911:D *1133:10 1.07549e-05
9 *1911:D *1133:12 4.13313e-05
*RES
1 *1850:Y *1911:D 36.7033 
*END

*D_NET *161 0.00233137
*CONN
*I *1910:D I *D sky130_fd_sc_hd__dfrtp_1
*I *1852:Y O *D sky130_fd_sc_hd__nand2_1
*CAP
1 *1910:D 0.000719933
2 *1852:Y 0.000719933
3 *1910:D *1588:A 1.41976e-05
4 *1910:D *1846:A 0
5 *1910:D *1847:B1 0.000380638
6 *1910:D *1850:A 0.000134976
7 *1910:D *1910:CLK 9.56834e-05
8 *1910:D *183:39 0.000168307
9 *1910:D *184:10 9.76996e-05
10 *1910:D *1113:906 0
11 *1910:D *1133:16 0
*RES
1 *1852:Y *1910:D 46.064 
*END

*D_NET *162 0.000963199
*CONN
*I *2053:D I *D sky130_fd_sc_hd__dfrtp_1
*I *1853:X O *D sky130_fd_sc_hd__xor2_1
*CAP
1 *2053:D 0.000382457
2 *1853:X 0.000382457
3 *2053:D *2054:RESET_B 0
4 *2053:D *1110:442 0
5 *2053:D *1136:10 0.000198285
*RES
1 *1853:X *2053:D 36.1515 
*END

*D_NET *163 0.00272456
*CONN
*I *2055:D I *D sky130_fd_sc_hd__dfrtp_1
*I *1857:Y O *D sky130_fd_sc_hd__a31oi_1
*CAP
1 *2055:D 0.000733701
2 *1857:Y 0.000733701
3 *2055:D *1724:A 0
4 *2055:D *1857:B1 2.65667e-05
5 *2055:D *2104:D 5.62448e-05
6 *2055:D *733:12 0.00107327
7 *2055:D *1135:10 2.30999e-05
8 *2055:D *1135:12 2.68162e-05
9 *2055:D *1135:20 5.11638e-05
*RES
1 *1857:Y *2055:D 49.852 
*END

*D_NET *164 0.000386125
*CONN
*I *2056:D I *D sky130_fd_sc_hd__dfrtp_1
*I *1859:Y O *D sky130_fd_sc_hd__nor2_1
*CAP
1 *2056:D 0.000158427
2 *1859:Y 0.000158427
3 *2056:D *1859:B 6.92705e-05
4 *2056:D *596:21 0
5 *2056:D *899:30 0
*RES
1 *1859:Y *2056:D 30.6083 
*END

*D_NET *165 0.00150692
*CONN
*I *1909:D I *D sky130_fd_sc_hd__dfrtp_1
*I *1862:Y O *D sky130_fd_sc_hd__nand2_1
*CAP
1 *1909:D 0.000546429
2 *1862:Y 0.000546429
3 *1909:D *1862:A 5.04829e-06
4 *1909:D *1864:A1 7.74853e-06
5 *1909:D *1864:B1 1.48017e-05
6 *1909:D *2061:D 9.75356e-05
7 *1909:D *425:14 7.66066e-05
8 *1909:D *714:12 0.00018851
9 *1909:D *1051:12 2.38092e-05
10 *1909:D *1105:62 0
*RES
1 *1862:Y *1909:D 41.8523 
*END

*D_NET *166 0.00118039
*CONN
*I *1908:D I *D sky130_fd_sc_hd__dfrtp_1
*I *1864:Y O *D sky130_fd_sc_hd__o21ai_0
*CAP
1 *1908:D 0.000375355
2 *1864:Y 0.000375355
3 *1908:D *1264:A2 0.00017419
4 *1908:D *1860:A 0
5 *1908:D *1864:A1 0.000169733
6 *1908:D *1865:B 0
7 *1908:D *1908:CLK 7.58194e-05
8 *1908:D *436:150 9.94284e-06
*RES
1 *1864:Y *1908:D 37.2874 
*END

*D_NET *167 0.0018567
*CONN
*I *2057:D I *D sky130_fd_sc_hd__dfrtp_1
*I *1865:X O *D sky130_fd_sc_hd__xor2_1
*CAP
1 *2057:D 0.000537435
2 *1865:X 0.000537435
3 *2057:D *1246:A 0
4 *2057:D *1422:A 0
5 *2057:D *1423:B 0.0002212
6 *2057:D *1861:A 0.000307836
7 *2057:D *2057:RESET_B 0
8 *2057:D *462:28 6.46815e-05
9 *2057:D *691:22 0.0001425
10 *2057:D *1115:24 1.59362e-06
11 *2005:D *2057:D 4.40158e-05
12 *2031:D *2057:D 0
*RES
1 *1865:X *2057:D 43.757 
*END

*D_NET *168 0.000479917
*CONN
*I *2059:D I *D sky130_fd_sc_hd__dfrtp_1
*I *1867:X O *D sky130_fd_sc_hd__xor2_1
*CAP
1 *2059:D 0.000154053
2 *1867:X 0.000154053
3 *2059:D *1867:B 0.000171811
*RES
1 *1867:X *2059:D 31.854 
*END

*D_NET *169 0.00110596
*CONN
*I *2060:D I *D sky130_fd_sc_hd__dfrtp_1
*I *1869:Y O *D sky130_fd_sc_hd__nor2_1
*CAP
1 *2060:D 0.00047488
2 *1869:Y 0.00047488
3 *2060:D *1279:A 2.03343e-05
4 *2060:D *2528:A 0
5 *2060:D *1140:21 0
6 *2009:D *2060:D 0.000135866
*RES
1 *1869:Y *2060:D 39.192 
*END

*D_NET *170 0.000954813
*CONN
*I *1907:D I *D sky130_fd_sc_hd__dfrtp_1
*I *1873:Y O *D sky130_fd_sc_hd__a31oi_1
*CAP
1 *1907:D 0.00032413
2 *1873:Y 0.00032413
3 *1907:D *1786:A2 0.000155993
4 *1907:D *1907:CLK 5.04829e-06
5 *1907:D *2036:CLK 6.50586e-05
6 *1907:D *1138:84 0
7 *1918:D *1907:D 8.04542e-05
*RES
1 *1873:Y *1907:D 36.5934 
*END

*D_NET *171 0.00176524
*CONN
*I *2061:D I *D sky130_fd_sc_hd__dfrtp_1
*I *1874:Y O *D sky130_fd_sc_hd__xnor2_1
*CAP
1 *2061:D 0.000561754
2 *1874:Y 0.000561754
3 *2061:D *1874:A 1.05294e-05
4 *2061:D *714:12 0.000533669
5 *1909:D *2061:D 9.75356e-05
*RES
1 *1874:Y *2061:D 42.1338 
*END

*D_NET *172 0.00108175
*CONN
*I *2063:D I *D sky130_fd_sc_hd__dfrtp_1
*I *1879:Y O *D sky130_fd_sc_hd__a32oi_1
*CAP
1 *2063:D 0.00045846
2 *1879:Y 0.00045846
3 *2063:D *1879:A3 0.000164829
*RES
1 *1879:Y *2063:D 29.3975 
*END

*D_NET *173 0.000868608
*CONN
*I *2064:D I *D sky130_fd_sc_hd__dfrtp_1
*I *1881:Y O *D sky130_fd_sc_hd__nor2_1
*CAP
1 *2064:D 0.000400978
2 *1881:Y 0.000400978
3 *2064:D *1881:B 6.50586e-05
4 *2064:D *2487:A 0
5 *2064:D *1110:914 0
6 *2064:D *1137:28 1.59362e-06
*RES
1 *1881:Y *2064:D 34.2118 
*END

*D_NET *174 0.000446709
*CONN
*I *2065:D I *D sky130_fd_sc_hd__dfrtp_1
*I *1883:Y O *D sky130_fd_sc_hd__o21ai_0
*CAP
1 *2065:D 9.23746e-05
2 *1883:Y 9.23746e-05
3 *2065:D *1238:A 0.000127179
4 *2065:D *1883:A2 2.41274e-06
5 *2065:D *2054:CLK 0.000127179
6 *2065:D *1095:20 5.18899e-06
*RES
1 *1883:Y *2065:D 30.4689 
*END

*D_NET *175 0.00329545
*CONN
*I *2069:D I *D sky130_fd_sc_hd__dfrtp_1
*I *1884:X O *D sky130_fd_sc_hd__mux2_1
*CAP
1 *2069:D 0
2 *1884:X 0.00100551
3 *175:12 0.00100551
4 *175:12 *1292:A2 0.000195984
5 *175:12 *1561:A 0.000114659
6 *175:12 *2047:RESET_B 7.44124e-05
7 *175:12 *224:38 8.1778e-05
8 *175:12 *772:10 0.000369862
9 *175:12 *910:121 0.000327716
10 *175:12 *1107:416 4.29646e-05
11 *175:12 *1137:14 7.20028e-05
12 *175:12 *1137:16 5.04829e-06
13 *175:12 *1142:167 0
*RES
1 *1884:X *175:12 48.4899 
2 *175:12 *2069:D 9.24915 
*END

*D_NET *176 0.00196776
*CONN
*I *2073:D I *D sky130_fd_sc_hd__dfrtp_1
*I *1888:Y O *D sky130_fd_sc_hd__a31oi_1
*CAP
1 *2073:D 0.000604596
2 *1888:Y 0.000604596
3 *2073:D *1860:A 2.02035e-05
4 *2073:D *1888:A1 2.19092e-05
5 *2073:D *1888:B1 2.48716e-05
6 *2073:D *2494:A 0.000211938
7 *2073:D *475:8 2.26179e-06
8 *2073:D *1112:132 8.51202e-05
9 *2073:D *1112:153 0.000133813
10 *2073:D *1115:24 0.000115075
11 *2073:D *1115:76 0.000143375
*RES
1 *1888:Y *2073:D 43.208 
*END

*D_NET *177 0.000645079
*CONN
*I *2077:D I *D sky130_fd_sc_hd__dfrtp_1
*I *1892:Y O *D sky130_fd_sc_hd__a21oi_1
*CAP
1 *2077:D 0.000152566
2 *1892:Y 0.000152566
3 *2077:D *374:16 0.000112361
4 *2077:D *436:88 1.80404e-05
5 *2077:D *436:90 1.69758e-05
6 *2077:D *436:94 1.56426e-05
7 *2077:D *1107:149 9.43419e-05
8 *2077:D *1107:160 8.25851e-05
*RES
1 *1892:Y *2077:D 32.2693 
*END

*D_NET *178 0.000499757
*CONN
*I *2081:D I *D sky130_fd_sc_hd__dfrtp_1
*I *1896:Y O *D sky130_fd_sc_hd__a31oi_1
*CAP
1 *2081:D 0.00012602
2 *1896:Y 0.00012602
3 *2081:D *2081:CLK 9.75356e-05
4 *2081:D *343:10 0.000107496
5 *2081:D *1142:10 4.26859e-05
*RES
1 *1896:Y *2081:D 30.6083 
*END

*D_NET *179 0.000183421
*CONN
*I *2085:D I *D sky130_fd_sc_hd__dfrtp_1
*I *1898:Y O *D sky130_fd_sc_hd__o21ai_0
*CAP
1 *2085:D 7.09723e-05
2 *1898:Y 7.09723e-05
3 *2085:D *224:68 4.14765e-05
4 *2085:D *847:16 0
*RES
1 *1898:Y *2085:D 29.3303 
*END

*D_NET *180 0.00044846
*CONN
*I *1584:C1 I *D sky130_fd_sc_hd__a311oi_1
*I *1583:Y O *D sky130_fd_sc_hd__nor2_1
*CAP
1 *1584:C1 0.000109802
2 *1583:Y 0.000109802
3 *1584:C1 *1583:A 6.08467e-05
4 *1584:C1 *457:55 1.07248e-05
5 *1584:C1 *458:195 0.000116971
6 *1584:C1 *611:53 4.03125e-05
*RES
1 *1583:Y *1584:C1 30.4689 
*END

*D_NET *181 0.00170073
*CONN
*I *1641:A2 I *D sky130_fd_sc_hd__o21ai_0
*I *1586:A2 I *D sky130_fd_sc_hd__o21ai_0
*I *1584:Y O *D sky130_fd_sc_hd__a311oi_1
*CAP
1 *1641:A2 3.6675e-05
2 *1586:A2 0.000265036
3 *1584:Y 0.00034371
4 *181:10 0.00064542
5 *1641:A2 *1625:A1 2.41274e-06
6 *1641:A2 *185:191 1.19705e-05
7 *1641:A2 *661:10 4.85806e-05
8 *181:10 *1578:A2 1.19705e-05
9 *181:10 *1578:A3 7.50991e-05
10 *181:10 *1625:A1 1.43698e-05
11 *181:10 *457:59 3.39487e-05
12 *181:10 *661:10 0.000211539
*RES
1 *1584:Y *181:10 17.9299 
2 *181:10 *1586:A2 24.2337 
3 *181:10 *1641:A2 10.5513 
*END

*D_NET *182 0.000671211
*CONN
*I *1586:B1 I *D sky130_fd_sc_hd__o21ai_0
*I *1585:Y O *D sky130_fd_sc_hd__nand2_1
*CAP
1 *1586:B1 0.000113661
2 *1585:Y 0.000113661
3 *1586:B1 *1585:B 3.00829e-05
4 *1586:B1 *1586:A1 0.000413806
*RES
1 *1585:Y *1586:B1 23.1039 
*END

*D_NET *183 0.0193749
*CONN
*I *1589:A2 I *D sky130_fd_sc_hd__o21ai_0
*I *1595:A2 I *D sky130_fd_sc_hd__o21ai_0
*I *1598:A2 I *D sky130_fd_sc_hd__o21ai_0
*I *1594:A2 I *D sky130_fd_sc_hd__o21ai_0
*I *1597:A2 I *D sky130_fd_sc_hd__o21ai_0
*I *1592:A2 I *D sky130_fd_sc_hd__o21ai_0
*I *1596:A2 I *D sky130_fd_sc_hd__o21ai_0
*I *1599:A2 I *D sky130_fd_sc_hd__o21ai_0
*I *1590:A2 I *D sky130_fd_sc_hd__o21ai_0
*I *1600:A I *D sky130_fd_sc_hd__lpflow_clkinvkapwr_1
*I *1591:A2 I *D sky130_fd_sc_hd__o21ai_0
*I *1593:A2 I *D sky130_fd_sc_hd__o21ai_0
*I *1848:A2 I *D sky130_fd_sc_hd__o21ai_0
*I *1847:A2 I *D sky130_fd_sc_hd__o21ai_0
*I *1588:B I *D sky130_fd_sc_hd__nand2_4
*I *1587:Y O *D sky130_fd_sc_hd__nor2_4
*CAP
1 *1589:A2 0
2 *1595:A2 0
3 *1598:A2 0.000256244
4 *1594:A2 0
5 *1597:A2 5.47307e-05
6 *1592:A2 1.98947e-05
7 *1596:A2 0.000120807
8 *1599:A2 4.67054e-05
9 *1590:A2 0
10 *1600:A 0.00105158
11 *1591:A2 0
12 *1593:A2 7.68926e-05
13 *1848:A2 0.000136992
14 *1847:A2 0.000143254
15 *1588:B 0.000634893
16 *1587:Y 0
17 *183:168 0.000363912
18 *183:155 0.000434879
19 *183:142 0.000495052
20 *183:138 0.000623161
21 *183:125 0.00076444
22 *183:121 0.000545281
23 *183:106 0.00072981
24 *183:95 0.0007136
25 *183:78 0.00159258
26 *183:67 0.000412908
27 *183:52 0.000524317
28 *183:39 0.000708174
29 *183:4 0.000429846
30 *1588:B *1484:B 5.93657e-05
31 *1588:B *1587:A 0
32 *1588:B *1588:A 4.24629e-05
33 *1588:B *597:10 4.24629e-05
34 *1588:B *1133:12 0.00017666
35 *1588:B *1133:16 0.000386367
36 *1592:A2 *1592:A1 6.08467e-05
37 *1592:A2 *1111:603 2.16355e-05
38 *1593:A2 *1225:B 0.00011818
39 *1593:A2 *1226:A2 1.49188e-05
40 *1593:A2 *1226:B1 4.89898e-06
41 *1593:A2 *2169:A 0.000310264
42 *1593:A2 *413:10 6.30445e-05
43 *1593:A2 *1111:400 3.03798e-05
44 *1596:A2 axi_lite_o[3] 0.000109427
45 *1596:A2 *1229:B1 7.66391e-06
46 *1596:A2 *1596:A1 3.45819e-05
47 *1596:A2 *415:8 0
48 *1597:A2 *1184:A 0
49 *1597:A2 *1597:B1 9.18559e-06
50 *1597:A2 *1944:RESET_B 0.000171273
51 *1597:A2 *1947:RESET_B 0
52 *1598:A2 *1183:B1 4.61271e-05
53 *1598:A2 *1498:B 5.37077e-05
54 *1598:A2 *1598:A1 0.00016195
55 *1598:A2 *1598:B1 0.000199716
56 *1598:A2 *184:147 1.79196e-05
57 *1598:A2 *1012:8 7.26606e-05
58 *1598:A2 *1111:582 0
59 *1599:A2 *1192:A 2.44243e-05
60 *1599:A2 *1193:A1 0
61 *1599:A2 *1193:B1 1.3808e-05
62 *1599:A2 *1599:A1 6.27718e-05
63 *1599:A2 *1111:343 7.75118e-05
64 *1600:A *1492:A 0.000297592
65 *1600:A *1951:RESET_B 7.28567e-06
66 *1600:A *598:535 0.000283966
67 *1600:A *1017:12 4.89251e-05
68 *1847:A2 *1847:A1 6.50586e-05
69 *1847:A2 *1847:B1 6.50586e-05
70 *1848:A2 *1848:A1 6.46815e-05
71 *1848:A2 *1851:B 1.02917e-05
72 *1848:A2 *184:27 0.000112367
73 *1848:A2 *1111:414 3.56119e-05
74 *183:39 *1588:A 8.71641e-05
75 *183:39 *1849:A 0.000325601
76 *183:39 *1851:A 1.88422e-05
77 *183:39 *1851:B 0.000110458
78 *183:39 *1852:A 2.99287e-05
79 *183:39 *1852:B 7.64551e-05
80 *183:39 *1905:B 2.91871e-05
81 *183:39 *1906:B1 6.08467e-05
82 *183:39 *184:10 2.58616e-05
83 *183:39 *597:10 0.00016195
84 *183:52 *1225:B 1.44611e-05
85 *183:52 *1851:B 1.30094e-05
86 *183:52 *1912:CLK 0.000305585
87 *183:52 *598:686 0.000155293
88 *183:52 *1111:400 1.12605e-05
89 *183:52 *1111:414 1.94615e-05
90 *183:52 *1113:880 1.8906e-05
91 *183:67 *1225:B 4.52469e-05
92 *183:67 *1591:B1 1.01116e-05
93 *183:67 *1014:8 2.04806e-05
94 *183:67 *1111:379 3.44412e-06
95 *183:67 *1111:392 0
96 *183:67 *1113:880 3.1218e-05
97 *183:78 *1948:CLK 9.78191e-05
98 *183:78 *1111:366 2.44579e-05
99 *183:78 *1111:379 4.50318e-05
100 *183:95 *1951:RESET_B 2.23373e-05
101 *183:95 *184:68 0.000107388
102 *183:95 *1017:12 5.04829e-06
103 *183:95 *1111:366 3.99993e-05
104 *183:95 *1132:88 0
105 *183:106 *1945:CLK 0
106 *183:106 *184:68 5.22654e-06
107 *183:106 *184:77 0.000132069
108 *183:106 *1132:88 0
109 *183:121 axi_lite_o[14] 0.000103531
110 *183:121 axi_lite_o[18] 9.43892e-05
111 *183:121 *1503:B 0
112 *183:121 *184:96 0.000115746
113 *183:121 *184:107 1.98828e-05
114 *183:121 *1111:339 0
115 *183:125 *1228:A 9.54356e-05
116 *183:125 *1228:B 8.36586e-06
117 *183:125 *1503:B 8.22196e-05
118 *183:125 *184:107 6.57817e-05
119 *183:138 axi_lite_o[3] 5.06165e-06
120 *183:138 *1228:A 5.23577e-05
121 *183:138 *1228:B 4.39919e-05
122 *183:138 *1231:A 1.2693e-05
123 *183:138 *184:113 0
124 *183:138 *184:119 1.07248e-05
125 *183:138 *598:578 0
126 *183:138 *1113:797 0.000118604
127 *183:138 *1128:16 0
128 *183:138 *1128:67 0
129 *183:142 axi_lite_o[8] 0.000135592
130 *183:142 *1231:A 0.000122083
131 *183:142 *184:119 0.00014091
132 *183:142 *1128:67 2.21765e-05
133 *183:142 *1128:80 5.68225e-06
134 *183:155 axi_lite_o[8] 0.000164091
135 *183:155 *1947:CLK 0.000340851
136 *183:155 *184:119 1.37566e-05
137 *183:155 *184:130 0.00020921
138 *183:155 *184:147 8.82202e-05
139 *183:155 *1111:582 0
140 *183:155 *1128:80 1.19381e-05
141 *183:168 *184:147 5.50603e-05
142 *183:168 *1111:582 0
143 *1910:D *183:39 0.000168307
144 *1911:D *1588:B 0.000139684
145 *1913:D *1847:A2 9.27159e-05
146 *1944:D *1597:A2 1.84293e-05
147 *1945:D *1596:A2 1.41976e-05
148 *1945:D *183:106 0.000196969
149 *1945:D *183:121 6.51863e-05
150 *1949:D *183:155 6.11447e-06
151 *1950:D *183:67 0.000122518
152 *1951:D *183:95 9.32891e-05
*RES
1 *1587:Y *183:4 9.24915 
2 *183:4 *1588:B 29.6642 
3 *183:4 *1847:A2 13.8548 
4 *1588:B *183:39 26.6015 
5 *183:39 *1848:A2 17.6896 
6 *183:39 *183:52 8.06078 
7 *183:52 *1593:A2 17.9931 
8 *183:52 *183:67 6.39977 
9 *183:67 *1591:A2 13.7491 
10 *183:67 *183:78 10.0693 
11 *183:78 *1600:A 27.6234 
12 *183:78 *183:95 12.1806 
13 *183:95 *1590:A2 13.7491 
14 *183:95 *183:106 10.0393 
15 *183:106 *1599:A2 15.6059 
16 *183:106 *183:121 8.37832 
17 *183:121 *183:125 6.71732 
18 *183:125 *1596:A2 16.7151 
19 *183:125 *183:138 10.9675 
20 *183:138 *183:142 7.13257 
21 *183:142 *1592:A2 14.4725 
22 *183:142 *183:155 11.7003 
23 *183:155 *1597:A2 16.1605 
24 *183:155 *183:168 2.6625 
25 *183:168 *1594:A2 13.7491 
26 *183:168 *1598:A2 22.3968 
27 *183:138 *1595:A2 13.7491 
28 *183:121 *1589:A2 13.7491 
*END

*D_NET *184 0.0164275
*CONN
*I *1596:B1 I *D sky130_fd_sc_hd__o21ai_0
*I *1595:B1 I *D sky130_fd_sc_hd__o21ai_0
*I *1598:B1 I *D sky130_fd_sc_hd__o21ai_0
*I *1594:B1 I *D sky130_fd_sc_hd__o21ai_0
*I *1597:B1 I *D sky130_fd_sc_hd__o21ai_0
*I *1592:B1 I *D sky130_fd_sc_hd__o21ai_0
*I *1589:B1 I *D sky130_fd_sc_hd__o21ai_0
*I *1599:B1 I *D sky130_fd_sc_hd__o21ai_0
*I *1590:B1 I *D sky130_fd_sc_hd__o21ai_0
*I *1591:B1 I *D sky130_fd_sc_hd__o21ai_0
*I *1593:B1 I *D sky130_fd_sc_hd__o21ai_0
*I *1848:B1 I *D sky130_fd_sc_hd__o21ai_0
*I *1847:B1 I *D sky130_fd_sc_hd__o21ai_0
*I *1588:Y O *D sky130_fd_sc_hd__nand2_4
*CAP
1 *1596:B1 6.67261e-05
2 *1595:B1 0
3 *1598:B1 0.000219991
4 *1594:B1 0
5 *1597:B1 0.000209285
6 *1592:B1 1.41955e-05
7 *1589:B1 0
8 *1599:B1 2.11838e-05
9 *1590:B1 0
10 *1591:B1 0.000224578
11 *1593:B1 1.26312e-05
12 *1848:B1 2.12792e-05
13 *1847:B1 0.000297205
14 *1588:Y 0.000109696
15 *184:147 0.000352822
16 *184:130 0.000545055
17 *184:119 0.000423932
18 *184:113 0.000576249
19 *184:107 0.000651971
20 *184:96 0.000513806
21 *184:77 0.000524868
22 *184:68 0.00058795
23 *184:51 0.000780821
24 *184:40 0.000605978
25 *184:27 0.000901219
26 *184:10 0.000867458
27 *1591:B1 *1111:392 7.13655e-06
28 *1592:B1 *1592:A1 2.58616e-05
29 *1592:B1 *1111:603 6.27718e-05
30 *1593:B1 *2169:A 2.65831e-05
31 *1593:B1 *413:10 6.50727e-05
32 *1596:B1 *1596:A1 6.27718e-05
33 *1597:B1 *1184:A 0
34 *1597:B1 *1944:RESET_B 6.44964e-06
35 *1598:B1 *1183:B1 0.00016195
36 *1598:B1 *1598:A1 3.96696e-05
37 *1598:B1 *1943:RESET_B 0.000186765
38 *1598:B1 *1113:840 7.40306e-05
39 *1599:B1 *1193:A1 5.04829e-06
40 *1599:B1 *1599:A1 6.27782e-05
41 *1599:B1 *1111:343 2.16355e-05
42 *1847:B1 *1847:A1 7.97319e-05
43 *1847:B1 *1133:16 0
44 *184:10 *1588:A 6.27718e-05
45 *184:10 *1850:A 1.59966e-05
46 *184:27 *1848:A1 3.35367e-05
47 *184:27 *1850:B 0.000408847
48 *184:27 *2056:RESET_B 2.41827e-05
49 *184:27 *1111:414 0.000112361
50 *184:40 *1226:A2 2.04806e-05
51 *184:40 *1226:B1 0.000123582
52 *184:40 *1735:B1 6.46815e-05
53 *184:40 *1848:A1 1.51202e-05
54 *184:40 *1851:B 3.21615e-05
55 *184:40 *1111:414 0.00018579
56 *184:40 *1113:880 0
57 *184:51 *1224:A 1.32509e-05
58 *184:51 *1111:392 9.93931e-05
59 *184:51 *1113:880 0
60 *184:68 *1209:A 0
61 *184:68 *1220:B1 0.000141189
62 *184:68 *1111:349 1.07248e-05
63 *184:68 *1111:392 2.25583e-07
64 *184:68 *1113:749 0
65 *184:77 *1111:349 0.000500467
66 *184:96 axi_lite_o[18] 5.04829e-06
67 *184:96 *1945:RESET_B 0
68 *184:96 *1113:959 0
69 *184:107 axi_lite_o[3] 8.36586e-06
70 *184:107 *1228:A 4.217e-05
71 *184:107 *1952:RESET_B 8.75441e-06
72 *184:113 axi_lite_o[3] 1.18245e-05
73 *184:113 *1232:A1 8.62625e-06
74 *184:113 *1232:B1 0.000111708
75 *184:113 *1595:A1 3.58044e-05
76 *184:113 *1952:RESET_B 7.30901e-05
77 *184:113 *1011:14 0
78 *184:113 *1113:797 0.000432181
79 *184:119 *1232:B1 6.50727e-05
80 *184:119 *1595:A1 3.14978e-05
81 *184:119 *2170:A 7.40248e-05
82 *184:119 *1113:797 4.09322e-05
83 *184:119 *1113:807 2.87279e-05
84 *184:130 *2170:A 0.000303483
85 *184:130 *1113:818 0.000178474
86 *184:147 *1113:818 7.27172e-05
87 *184:147 *1113:840 3.17266e-05
88 *1597:A2 *1597:B1 9.18559e-06
89 *1598:A2 *1598:B1 0.000199716
90 *1598:A2 *184:147 1.79196e-05
91 *1847:A2 *1847:B1 6.50586e-05
92 *1848:A2 *184:27 0.000112367
93 *1910:D *1847:B1 0.000380638
94 *1910:D *184:10 9.76996e-05
95 *1912:D *184:40 1.53954e-05
96 *1942:D *184:96 9.96962e-05
97 *1945:D *1596:B1 7.01935e-06
98 *1945:D *184:77 0.000218636
99 *1945:D *184:96 0.000353132
100 *1945:D *184:107 0.000330575
101 *1946:D *184:119 0.000127179
102 *1947:D *184:147 9.60216e-05
103 *1948:D *184:51 0.000299937
104 *1948:D *184:68 0.000151204
105 *183:39 *184:10 2.58616e-05
106 *183:67 *1591:B1 1.01116e-05
107 *183:95 *184:68 0.000107388
108 *183:106 *184:68 5.22654e-06
109 *183:106 *184:77 0.000132069
110 *183:121 *184:96 0.000115746
111 *183:121 *184:107 1.98828e-05
112 *183:125 *184:107 6.57817e-05
113 *183:138 *184:113 0
114 *183:138 *184:119 1.07248e-05
115 *183:142 *184:119 0.00014091
116 *183:155 *184:119 1.37566e-05
117 *183:155 *184:130 0.00020921
118 *183:155 *184:147 8.82202e-05
119 *183:168 *184:147 5.50603e-05
*RES
1 *1588:Y *184:10 17.135 
2 *184:10 *1847:B1 22.9755 
3 *184:10 *184:27 16.3155 
4 *184:27 *1848:B1 9.82786 
5 *184:27 *184:40 15.6391 
6 *184:40 *1593:B1 14.4725 
7 *184:40 *184:51 6.6074 
8 *184:51 *1591:B1 21.2977 
9 *184:51 *184:68 10.7599 
10 *184:68 *1590:B1 13.7491 
11 *184:68 *184:77 9.72179 
12 *184:77 *1599:B1 14.4725 
13 *184:77 *184:96 17.264 
14 *184:96 *1589:B1 13.7491 
15 *184:96 *184:107 7.54782 
16 *184:107 *184:113 16.3303 
17 *184:113 *184:119 12.0384 
18 *184:119 *1592:B1 14.4725 
19 *184:119 *184:130 8.89128 
20 *184:130 *1597:B1 17.125 
21 *184:130 *184:147 5.64254 
22 *184:147 *1594:B1 13.7491 
23 *184:147 *1598:B1 22.3968 
24 *184:113 *1595:B1 9.24915 
25 *184:107 *1596:B1 15.2053 
*END

*D_NET *185 0.0433257
*CONN
*I *1620:A I *D sky130_fd_sc_hd__nand2_1
*I *1621:A1 I *D sky130_fd_sc_hd__o21ai_0
*I *1628:A I *D sky130_fd_sc_hd__nand2_1
*I *1629:A1 I *D sky130_fd_sc_hd__o21ai_0
*I *1638:A I *D sky130_fd_sc_hd__nand2_1
*I *1607:A1 I *D sky130_fd_sc_hd__o21ai_0
*I *1608:A I *D sky130_fd_sc_hd__nand2_1
*I *1609:A1 I *D sky130_fd_sc_hd__o21ai_0
*I *1606:A I *D sky130_fd_sc_hd__nand2_1
*I *1630:A I *D sky130_fd_sc_hd__nand2_1
*I *1631:A1 I *D sky130_fd_sc_hd__o21ai_0
*I *1614:A I *D sky130_fd_sc_hd__nand2_1
*I *1615:A1 I *D sky130_fd_sc_hd__o21ai_0
*I *1626:A I *D sky130_fd_sc_hd__nand2_1
*I *1627:A1 I *D sky130_fd_sc_hd__o21ai_0
*I *1619:A1 I *D sky130_fd_sc_hd__o21ai_0
*I *1618:A I *D sky130_fd_sc_hd__nand2_1
*I *1622:A I *D sky130_fd_sc_hd__nand2_1
*I *1617:A1 I *D sky130_fd_sc_hd__o21ai_0
*I *1616:A I *D sky130_fd_sc_hd__nand2_1
*I *1632:A I *D sky130_fd_sc_hd__nand2_1
*I *1633:A1 I *D sky130_fd_sc_hd__o21ai_0
*I *1623:A1 I *D sky130_fd_sc_hd__o21ai_0
*I *1624:A I *D sky130_fd_sc_hd__nand2_1
*I *1640:A I *D sky130_fd_sc_hd__nand2_1
*I *1641:A1 I *D sky130_fd_sc_hd__o21ai_0
*I *1625:A1 I *D sky130_fd_sc_hd__o21ai_0
*I *1639:A1 I *D sky130_fd_sc_hd__o21ai_0
*I *1610:A I *D sky130_fd_sc_hd__nand2_1
*I *1611:A1 I *D sky130_fd_sc_hd__o21ai_0
*I *1634:A I *D sky130_fd_sc_hd__nand2_1
*I *1635:A1 I *D sky130_fd_sc_hd__o21ai_0
*I *1613:A1 I *D sky130_fd_sc_hd__o21ai_0
*I *1636:A I *D sky130_fd_sc_hd__nand2_1
*I *1604:A I *D sky130_fd_sc_hd__nand2_1
*I *1637:A1 I *D sky130_fd_sc_hd__o21ai_0
*I *1605:A1 I *D sky130_fd_sc_hd__o21ai_0
*I *1612:A I *D sky130_fd_sc_hd__nand2_1
*I *1602:A I *D sky130_fd_sc_hd__nand2_1
*I *1603:A1 I *D sky130_fd_sc_hd__o21ai_0
*I *1600:Y O *D sky130_fd_sc_hd__lpflow_clkinvkapwr_1
*CAP
1 *1620:A 3.49821e-05
2 *1621:A1 0
3 *1628:A 0.000217593
4 *1629:A1 0
5 *1638:A 0.000211864
6 *1607:A1 0.000178948
7 *1608:A 0.000145179
8 *1609:A1 0
9 *1606:A 0.000163803
10 *1630:A 0.000273184
11 *1631:A1 0
12 *1614:A 0
13 *1615:A1 0.000147436
14 *1626:A 0.000113049
15 *1627:A1 0
16 *1619:A1 9.95037e-07
17 *1618:A 1.92394e-05
18 *1622:A 0
19 *1617:A1 0.00012884
20 *1616:A 7.61146e-05
21 *1632:A 1.21092e-05
22 *1633:A1 0.000539766
23 *1623:A1 6.8422e-05
24 *1624:A 0
25 *1640:A 2.06324e-05
26 *1641:A1 2.06324e-05
27 *1625:A1 0.000306585
28 *1639:A1 0
29 *1610:A 0.000120205
30 *1611:A1 0
31 *1634:A 1.14631e-05
32 *1635:A1 6.04345e-05
33 *1613:A1 1.09091e-05
34 *1636:A 0
35 *1604:A 0.000118524
36 *1637:A1 0
37 *1605:A1 9.46363e-05
38 *1612:A 0
39 *1602:A 0.000186458
40 *1603:A1 0
41 *1600:Y 0.000237919
42 *185:474 0.000241003
43 *185:436 0.000222558
44 *185:407 0.000358333
45 *185:387 0.000147436
46 *185:369 0.000262751
47 *185:345 0.000435234
48 *185:337 0.00100511
49 *185:335 0.000994399
50 *185:329 0.000861172
51 *185:325 0.000385832
52 *185:323 0.000310536
53 *185:316 0.000841634
54 *185:304 0.00122954
55 *185:278 0.000437151
56 *185:267 0.000244306
57 *185:252 0.000796836
58 *185:250 0.000717269
59 *185:237 0.000586168
60 *185:228 0.00065681
61 *185:191 0.000480377
62 *185:189 0.000244783
63 *185:187 0.000383066
64 *185:185 0.000387421
65 *185:178 0.000429249
66 *185:156 0.000120205
67 *185:154 0.000836581
68 *185:141 0.000570735
69 *185:128 0.000865933
70 *185:120 0.000825456
71 *185:91 0.000139803
72 *185:77 0.000422692
73 *185:73 0.000808681
74 *185:67 0.000656527
75 *185:65 0.00111246
76 *185:54 0.000887382
77 *185:34 0.000454802
78 *185:28 0.000647806
79 *185:18 0.000397614
80 *185:12 0.000380104
81 *1602:A *1188:A 2.68991e-05
82 *1602:A *1602:B 5.11945e-05
83 *1602:A *1603:A2 2.58616e-05
84 *1602:A *1603:B1 2.99287e-05
85 *1604:A *1197:B 7.09666e-06
86 *1604:A *1636:B 5.03545e-06
87 *1604:A *777:8 0.000228247
88 *1604:A *1111:23 0
89 *1605:A1 *1605:B1 4.66889e-05
90 *1605:A1 *1110:436 0.000112361
91 *1606:A *1194:A 7.67214e-05
92 *1606:A *1522:A2 0.000134676
93 *1606:A *1609:A2 0.000129406
94 *1606:A *1969:CLK 0.000123025
95 *1606:A *388:16 0.000143041
96 *1607:A1 *1517:A1 0
97 *1607:A1 *1607:A2 0.00011815
98 *1607:A1 *1113:323 2.02035e-05
99 *1607:A1 *1113:333 0.000312156
100 *1608:A *1608:B 0.000109872
101 *1608:A *1609:A2 4.94594e-05
102 *1608:A *1609:B1 0.00014804
103 *1610:A *1610:B 2.82809e-05
104 *1610:A *1611:A2 2.65831e-05
105 *1610:A *1611:B1 0.000122378
106 *1610:A *638:10 0.000369413
107 *1613:A1 *1613:A2 6.3657e-05
108 *1613:A1 *1936:CLK 6.3657e-05
109 *1615:A1 *1614:B 0.000110458
110 *1615:A1 *1615:A2 4.03096e-05
111 *1615:A1 *1615:B1 4.66889e-05
112 *1615:A1 *598:324 3.5063e-05
113 *1616:A *1233:B 0
114 *1616:A *1616:B 5.14953e-05
115 *1616:A *598:266 0.000208627
116 *1617:A1 *1617:B1 5.04734e-05
117 *1617:A1 *1934:CLK 2.32233e-05
118 *1617:A1 *598:266 4.99937e-05
119 *1618:A *1618:B 1.53047e-05
120 *1618:A *1619:A2 9.10079e-05
121 *1618:A *1619:B1 1.16726e-05
122 *1619:A1 *1618:B 1.04993e-06
123 *1619:A1 *1619:A2 7.21184e-07
124 *1620:A *1620:B 4.31603e-06
125 *1623:A1 *1623:A2 6.27718e-05
126 *1623:A1 *1713:A 6.27718e-05
127 *1623:A1 *458:262 7.51131e-05
128 *1623:A1 *598:232 6.08467e-05
129 *1623:A1 *632:6 5.12085e-05
130 *1625:A1 *1578:A1 0
131 *1625:A1 *1578:C1 2.68928e-05
132 *1625:A1 *1625:A2 9.402e-05
133 *1625:A1 *1953:RESET_B 0
134 *1626:A *1626:B 0.000138219
135 *1626:A *1627:A2 2.29888e-05
136 *1626:A *1627:B1 2.29454e-05
137 *1626:A *785:8 6.01997e-06
138 *1628:A *1554:A2 1.41291e-05
139 *1628:A *1629:B1 0.000273845
140 *1628:A *1928:RESET_B 3.7351e-05
141 *1628:A *598:77 6.41655e-05
142 *1630:A *1557:B1 0.000350688
143 *1630:A *1630:B 2.54755e-05
144 *1630:A *1631:B1 0.000579533
145 *1630:A *1705:B 1.09551e-05
146 *1632:A *1559:B 7.86825e-06
147 *1632:A *1632:B 7.86825e-06
148 *1633:A1 *1560:A2 1.36862e-05
149 *1633:A1 *2507:A 7.74939e-05
150 *1633:A1 *458:253 0.000311267
151 *1633:A1 *788:14 7.64213e-06
152 *1633:A1 *1143:151 5.20047e-05
153 *1634:A *1634:B 2.04534e-05
154 *1635:A1 *1635:B1 6.27718e-05
155 *1635:A1 *778:22 5.62568e-05
156 *1638:A *1638:B 9.57511e-05
157 *1638:A *1639:A2 2.08274e-05
158 *1638:A *388:220 7.36563e-05
159 *185:12 axi_lite_o[5] 0.000102003
160 *185:12 *1620:B 2.85139e-05
161 *185:12 *1963:RESET_B 0
162 *185:12 *960:10 2.22788e-05
163 *185:12 *1113:487 0
164 *185:18 axi_lite_o[5] 0.000505823
165 *185:18 *1620:B 1.41291e-05
166 *185:18 *1621:B1 0.000375027
167 *185:18 *784:14 3.23492e-05
168 *185:28 *1702:A 3.40703e-05
169 *185:28 *1704:B 0.000148129
170 *185:28 *1941:CLK 0.000106322
171 *185:28 *598:77 0
172 *185:28 *784:14 0.000316238
173 *185:28 *992:16 0
174 *185:28 *1132:39 7.84205e-05
175 *185:34 *1188:A 5.31465e-05
176 *185:34 *1612:B 0.000122844
177 *185:34 *1702:A 8.74896e-05
178 *185:34 *1941:CLK 3.21048e-05
179 *185:54 *1612:B 0.00025821
180 *185:65 *1612:B 2.90025e-05
181 *185:65 *1613:B1 1.83294e-06
182 *185:65 *1628:B 2.1091e-05
183 *185:65 *1702:B 3.61531e-05
184 *185:65 *1113:255 0.000159977
185 *185:67 *1528:A2 2.1667e-05
186 *185:67 *1131:19 0
187 *185:67 *1131:21 0
188 *185:73 *1528:A2 0.000163492
189 *185:73 *1967:CLK 6.27782e-05
190 *185:73 *388:165 0.000450157
191 *185:77 *1605:B1 2.82593e-05
192 *185:77 *1637:B1 0.000195007
193 *185:120 *640:18 2.81678e-06
194 *185:120 *1131:19 0
195 *185:128 *1635:B1 2.86829e-05
196 *185:128 *1928:RESET_B 0.000105191
197 *185:128 *1955:RESET_B 9.53368e-05
198 *185:128 *2142:A 0.000113968
199 *185:128 *598:370 0
200 *185:128 *611:136 9.7563e-05
201 *185:128 *611:146 0.000445038
202 *185:128 *778:18 4.0752e-05
203 *185:128 *1113:170 0
204 *185:128 *1113:174 0
205 *185:141 *1634:B 8.83607e-05
206 *185:141 *1635:B1 0.000236427
207 *185:141 *778:22 8.92339e-05
208 *185:154 *1525:A2 1.42919e-05
209 *185:154 *1611:A2 6.31213e-05
210 *185:154 *1634:B 2.30636e-05
211 *185:154 *1720:A 4.66889e-05
212 *185:154 *1968:CLK 5.04423e-06
213 *185:154 *388:125 0.000207204
214 *185:154 *628:22 4.0143e-05
215 *185:154 *1143:10 0
216 *185:154 *1143:12 0
217 *185:178 *1580:A2 9.04726e-06
218 *185:178 *1639:B1 1.24817e-05
219 *185:178 *1732:A 7.74525e-05
220 *185:178 *2145:A 1.35317e-05
221 *185:178 *628:22 2.24484e-05
222 *185:178 *1130:94 0
223 *185:178 *1143:143 0
224 *185:187 *1639:A2 6.77815e-05
225 *185:187 *1640:B 0.000113968
226 *185:187 *661:10 8.32712e-05
227 *185:189 *1640:B 0.000317679
228 *185:189 *661:10 4.98867e-05
229 *185:191 *1640:B 0.00011818
230 *185:191 *1641:B1 0.00013863
231 *185:191 *661:10 2.56212e-05
232 *185:228 *1697:A 0.000204623
233 *185:228 *1730:B 1.09738e-05
234 *185:228 *1954:CLK 0.000139435
235 *185:228 *969:8 7.11201e-05
236 *185:228 *1023:10 0.000156823
237 *185:237 *1541:A2 0.000154849
238 *185:237 *1697:A 0.000317087
239 *185:237 *598:217 0.000553696
240 *185:237 *598:228 0.000321023
241 *185:237 *598:258 2.03171e-05
242 *185:237 *969:8 2.99643e-05
243 *185:237 *994:12 0.000188892
244 *185:237 *1023:10 1.07248e-05
245 *185:237 *1124:14 0
246 *185:250 *1541:A2 2.30436e-05
247 *185:250 *598:258 4.00002e-05
248 *185:252 *458:253 0.000111879
249 *185:252 *1143:151 8.886e-05
250 *185:278 *1559:B 3.62398e-05
251 *185:278 *1632:B 6.31272e-05
252 *185:278 *1934:CLK 5.2531e-05
253 *185:278 *598:266 8.01546e-06
254 *185:304 *1143:151 0.000118311
255 *185:316 *1517:A1 0
256 *185:316 *1623:B1 0.000107535
257 *185:316 *1931:RESET_B 1.72432e-05
258 *185:316 *959:10 0.000160047
259 *185:316 *1113:323 9.13221e-05
260 *185:323 *1969:CLK 2.58616e-05
261 *185:329 *1927:RESET_B 0
262 *185:329 *1969:CLK 0.000201442
263 *185:335 *1557:A1 0.000277502
264 *185:335 *1631:A2 7.34948e-06
265 *185:335 *598:332 0
266 *185:335 *642:22 2.41483e-05
267 *185:335 *1106:235 0
268 *185:337 *1614:B 2.10465e-05
269 *185:337 *2510:A 0
270 *185:337 *598:167 0
271 *185:337 *1106:235 0
272 *185:337 *1111:172 0
273 *185:337 *1129:8 0
274 *185:337 *1143:223 0
275 *185:345 *1618:B 7.67452e-05
276 *185:345 *1619:B1 4.80635e-06
277 *185:345 *1627:A2 7.57062e-05
278 *185:345 *1964:CLK 1.77537e-06
279 *185:345 *388:212 0
280 *185:345 *598:167 0
281 *185:345 *638:12 0.000126655
282 *185:345 *1129:8 0
283 *185:345 *1129:14 0
284 *185:369 *1627:A2 0.000456573
285 *185:407 *1557:B1 1.00937e-05
286 *185:407 *1631:A2 2.41483e-05
287 *185:436 *1609:A2 6.08467e-05
288 *185:436 *1969:CLK 2.16355e-05
289 *185:474 *1928:RESET_B 1.13979e-05
290 *1641:A2 *1625:A1 2.41274e-06
291 *1641:A2 *185:191 1.19705e-05
292 *1922:D *1625:A1 7.83775e-05
293 *1922:D *185:191 0.000118792
294 *1925:D *1635:A1 6.97525e-05
295 *1927:D *185:329 0
296 *1928:D *185:65 7.89491e-05
297 *1929:D *1626:A 0.000168313
298 *1930:D *1625:A1 0.000130777
299 *1935:D *185:337 2.12562e-05
300 *1937:D *1610:A 6.12686e-06
301 *1937:D *185:154 3.16954e-05
302 *1937:D *185:178 6.77131e-05
303 *1940:D *1605:A1 2.22974e-05
304 *1956:D *185:128 0.000103412
305 *1958:D *185:335 0.000127164
306 *1968:D *185:154 4.0508e-05
307 *1981:D *185:12 0
308 *117:14 *1606:A 8.76221e-06
309 *117:14 *1608:A 1.25964e-05
310 *181:10 *1625:A1 1.43698e-05
*RES
1 *1600:Y *185:12 24.6812 
2 *185:12 *185:18 7.01694 
3 *185:18 *185:28 15.3 
4 *185:28 *185:34 12.593 
5 *185:34 *1603:A1 9.24915 
6 *185:34 *1602:A 14.4576 
7 *185:28 *185:54 7.44181 
8 *185:54 *1612:A 9.24915 
9 *185:54 *185:65 17.3041 
10 *185:65 *185:67 4.32351 
11 *185:67 *185:73 16.6202 
12 *185:73 *185:77 7.95736 
13 *185:77 *1605:A1 12.191 
14 *185:77 *1637:A1 9.24915 
15 *185:73 *185:91 0.578717 
16 *185:91 *1604:A 22.1574 
17 *185:91 *1636:A 9.24915 
18 *185:67 *1613:A1 14.4725 
19 *185:65 *185:120 7.1625 
20 *185:120 *185:128 29.2887 
21 *185:128 *1635:A1 11.6364 
22 *185:128 *185:141 5.35313 
23 *185:141 *1634:A 9.82786 
24 *185:141 *185:154 16.609 
25 *185:154 *185:156 4.5 
26 *185:156 *1611:A1 9.24915 
27 *185:156 *1610:A 15.4824 
28 *185:154 *185:178 14.637 
29 *185:178 *1639:A1 9.24915 
30 *185:178 *185:185 0.578717 
31 *185:185 *185:187 4.60562 
32 *185:187 *185:189 3.49641 
33 *185:189 *185:191 5.71483 
34 *185:191 *1625:A1 26.6503 
35 *185:191 *1641:A1 9.82786 
36 *185:189 *1640:A 9.82786 
37 *185:187 *185:228 11.8036 
38 *185:228 *1624:A 13.7491 
39 *185:228 *185:237 19.6878 
40 *185:237 *1623:A1 16.691 
41 *185:237 *185:250 4.16265 
42 *185:250 *185:252 0.738297 
43 *185:252 *1633:A1 18.6938 
44 *185:252 *185:267 3.36879 
45 *185:267 *1632:A 14.1278 
46 *185:267 *185:278 6.19214 
47 *185:278 *1616:A 16.7151 
48 *185:278 *1617:A1 17.9749 
49 *185:250 *185:304 4.48953 
50 *185:304 *185:316 17.4576 
51 *185:316 *1622:A 9.24915 
52 *185:316 *185:323 5.71483 
53 *185:323 *185:325 4.5 
54 *185:325 *185:329 10.8998 
55 *185:329 *185:335 18.964 
56 *185:335 *185:337 9.72179 
57 *185:337 *185:345 15.5239 
58 *185:345 *1618:A 11.0154 
59 *185:345 *1619:A1 9.44205 
60 *185:337 *185:369 9.66022 
61 *185:369 *1627:A1 9.24915 
62 *185:369 *1626:A 13.903 
63 *185:335 *185:387 4.5 
64 *185:387 *1615:A1 13.903 
65 *185:387 *1614:A 9.24915 
66 *185:329 *185:407 2.41132 
67 *185:407 *1631:A1 9.24915 
68 *185:407 *1630:A 19.8831 
69 *185:325 *1606:A 20.5642 
70 *185:323 *185:436 1.8326 
71 *185:436 *1609:A1 9.24915 
72 *185:436 *1608:A 14.6264 
73 *185:304 *1607:A1 19.9413 
74 *185:185 *1638:A 14.9881 
75 *185:120 *185:474 0.723396 
76 *185:474 *1629:A1 9.24915 
77 *185:474 *1628:A 15.9767 
78 *185:18 *1621:A1 9.24915 
79 *185:12 *1620:A 10.2378 
*END

*D_NET *187 0.00039889
*CONN
*I *1603:B1 I *D sky130_fd_sc_hd__o21ai_0
*I *1602:Y O *D sky130_fd_sc_hd__nand2_1
*CAP
1 *1603:B1 0.000151261
2 *1602:Y 0.000151261
3 *1603:B1 *1188:A 6.64392e-05
4 *1603:B1 *1972:RESET_B 0
5 *1602:A *1603:B1 2.99287e-05
*RES
1 *1602:Y *1603:B1 30.5178 
*END

*D_NET *188 0.00142042
*CONN
*I *1605:B1 I *D sky130_fd_sc_hd__o21ai_0
*I *1604:Y O *D sky130_fd_sc_hd__nand2_1
*CAP
1 *1605:B1 0.00059338
2 *1604:Y 0.00059338
3 *1605:B1 *1197:B 1.00846e-05
4 *1605:B1 *1637:B1 4.67141e-05
5 *1605:B1 *1924:CLK 0
6 *1605:B1 *598:376 7.04109e-05
7 *1605:B1 *968:8 3.14978e-05
8 *1605:A1 *1605:B1 4.66889e-05
9 *185:77 *1605:B1 2.82593e-05
*RES
1 *1604:Y *1605:B1 38.3433 
*END

*D_NET *189 0.00141573
*CONN
*I *1607:B1 I *D sky130_fd_sc_hd__o21ai_0
*I *1606:Y O *D sky130_fd_sc_hd__nand2_1
*CAP
1 *1607:B1 0.000459911
2 *1606:Y 0.000459911
3 *1607:B1 *1518:B 0.000210059
4 *1607:B1 *1939:RESET_B 6.71544e-05
5 *1607:B1 *388:10 1.41976e-05
6 *1607:B1 *1113:441 0.000114606
7 *1939:D *1607:B1 8.98868e-05
*RES
1 *1606:Y *1607:B1 32.7492 
*END

*D_NET *190 0.000327547
*CONN
*I *1609:B1 I *D sky130_fd_sc_hd__o21ai_0
*I *1608:Y O *D sky130_fd_sc_hd__nand2_1
*CAP
1 *1609:B1 8.97532e-05
2 *1608:Y 8.97532e-05
3 *1608:A *1609:B1 0.00014804
*RES
1 *1608:Y *1609:B1 20.9096 
*END

*D_NET *191 0.000183334
*CONN
*I *1611:B1 I *D sky130_fd_sc_hd__o21ai_0
*I *1610:Y O *D sky130_fd_sc_hd__nand2_1
*CAP
1 *1611:B1 1.91131e-05
2 *1610:Y 1.91131e-05
3 *1611:B1 *1610:B 1.84293e-05
4 *1610:A *1611:B1 0.000122378
5 *1937:D *1611:B1 4.30017e-06
*RES
1 *1610:Y *1611:B1 19.7763 
*END

*D_NET *192 0.0014435
*CONN
*I *1613:B1 I *D sky130_fd_sc_hd__o21ai_0
*I *1612:Y O *D sky130_fd_sc_hd__nand2_1
*CAP
1 *1613:B1 0.000466722
2 *1612:Y 0.000466722
3 *1613:B1 *1612:B 2.58757e-05
4 *1613:B1 *1702:B 4.89392e-05
5 *1613:B1 *1936:CLK 0.00021568
6 *1613:B1 *1111:65 2.98969e-05
7 *1613:B1 *1113:255 0.000122858
8 *1936:D *1613:B1 6.49694e-05
9 *185:65 *1613:B1 1.83294e-06
*RES
1 *1612:Y *1613:B1 38.9568 
*END

*D_NET *193 0.000130755
*CONN
*I *1615:B1 I *D sky130_fd_sc_hd__o21ai_0
*I *1614:Y O *D sky130_fd_sc_hd__nand2_1
*CAP
1 *1615:B1 4.20331e-05
2 *1614:Y 4.20331e-05
3 *1615:A1 *1615:B1 4.66889e-05
*RES
1 *1614:Y *1615:B1 19.7763 
*END

*D_NET *194 0.00048945
*CONN
*I *1617:B1 I *D sky130_fd_sc_hd__o21ai_0
*I *1616:Y O *D sky130_fd_sc_hd__nand2_1
*CAP
1 *1617:B1 0.000112887
2 *1616:Y 0.000112887
3 *1617:B1 *1534:B1 0
4 *1617:B1 *1616:B 6.50586e-05
5 *1617:B1 *1926:RESET_B 0
6 *1617:B1 *1934:CLK 0.000148144
7 *1617:A1 *1617:B1 5.04734e-05
*RES
1 *1616:Y *1617:B1 30.8842 
*END

*D_NET *195 0.00058086
*CONN
*I *1619:B1 I *D sky130_fd_sc_hd__o21ai_0
*I *1618:Y O *D sky130_fd_sc_hd__nand2_1
*CAP
1 *1619:B1 0.000165954
2 *1618:Y 0.000165954
3 *1619:B1 *1618:B 1.75155e-06
4 *1619:B1 *1619:A2 0.000153494
5 *1619:B1 *1964:CLK 6.9879e-05
6 *1618:A *1619:B1 1.16726e-05
7 *1933:D *1619:B1 7.34948e-06
8 *185:345 *1619:B1 4.80635e-06
*RES
1 *1618:Y *1619:B1 22.4529 
*END

*D_NET *196 0.000624936
*CONN
*I *1621:B1 I *D sky130_fd_sc_hd__o21ai_0
*I *1620:Y O *D sky130_fd_sc_hd__nand2_1
*CAP
1 *1621:B1 7.17741e-05
2 *1620:Y 7.17741e-05
3 *1621:B1 *1620:B 3.14978e-05
4 *1932:D *1621:B1 7.48633e-05
5 *185:18 *1621:B1 0.000375027
*RES
1 *1620:Y *1621:B1 22.5493 
*END

*D_NET *197 0.00198558
*CONN
*I *1623:B1 I *D sky130_fd_sc_hd__o21ai_0
*I *1622:Y O *D sky130_fd_sc_hd__nand2_1
*CAP
1 *1623:B1 0.000851246
2 *1622:Y 0.000851246
3 *1623:B1 *1623:A2 4.76161e-06
4 *1623:B1 *1931:RESET_B 0.000106842
5 *1931:D *1623:B1 6.39465e-05
6 *185:316 *1623:B1 0.000107535
*RES
1 *1622:Y *1623:B1 32.6045 
*END

*D_NET *198 0.000495203
*CONN
*I *1625:B1 I *D sky130_fd_sc_hd__o21ai_0
*I *1624:Y O *D sky130_fd_sc_hd__nand2_1
*CAP
1 *1625:B1 0.000234318
2 *1624:Y 0.000234318
3 *1625:B1 *1624:B 2.65667e-05
*RES
1 *1624:Y *1625:B1 24.2131 
*END

*D_NET *199 0.00023326
*CONN
*I *1627:B1 I *D sky130_fd_sc_hd__o21ai_0
*I *1626:Y O *D sky130_fd_sc_hd__nand2_1
*CAP
1 *1627:B1 1.325e-05
2 *1626:Y 1.325e-05
3 *1627:B1 *1626:B 0.000183815
4 *1626:A *1627:B1 2.29454e-05
*RES
1 *1626:Y *1627:B1 19.7763 
*END

*D_NET *200 0.00055588
*CONN
*I *1629:B1 I *D sky130_fd_sc_hd__o21ai_0
*I *1628:Y O *D sky130_fd_sc_hd__nand2_1
*CAP
1 *1629:B1 4.02475e-05
2 *1628:Y 4.02475e-05
3 *1629:B1 *1554:A2 3.8122e-05
4 *1629:B1 *1928:RESET_B 0.000163418
5 *1628:A *1629:B1 0.000273845
*RES
1 *1628:Y *1629:B1 21.4401 
*END

*D_NET *201 0.000947217
*CONN
*I *1631:B1 I *D sky130_fd_sc_hd__o21ai_0
*I *1630:Y O *D sky130_fd_sc_hd__nand2_1
*CAP
1 *1631:B1 0.000150374
2 *1630:Y 0.000150374
3 *1631:B1 *1630:B 6.69353e-05
4 *1630:A *1631:B1 0.000579533
*RES
1 *1630:Y *1631:B1 24.7677 
*END

*D_NET *202 0.00111096
*CONN
*I *1633:B1 I *D sky130_fd_sc_hd__o21ai_0
*I *1632:Y O *D sky130_fd_sc_hd__nand2_1
*CAP
1 *1633:B1 0.000134484
2 *1632:Y 0.000134484
3 *1633:B1 *1541:A1 6.43652e-05
4 *1633:B1 *1560:A1 0.000460071
5 *1633:B1 *1560:B1 0.000317556
*RES
1 *1632:Y *1633:B1 25.3464 
*END

*D_NET *203 0.00103762
*CONN
*I *1635:B1 I *D sky130_fd_sc_hd__o21ai_0
*I *1634:Y O *D sky130_fd_sc_hd__nand2_1
*CAP
1 *1635:B1 0.000284261
2 *1634:Y 0.000284261
3 *1635:B1 *611:136 1.21985e-05
4 *1635:B1 *778:22 0.000111352
5 *1635:B1 *1113:170 1.76624e-05
6 *1635:A1 *1635:B1 6.27718e-05
7 *185:128 *1635:B1 2.86829e-05
8 *185:141 *1635:B1 0.000236427
*RES
1 *1634:Y *1635:B1 33.6894 
*END

*D_NET *204 0.000558032
*CONN
*I *1637:B1 I *D sky130_fd_sc_hd__o21ai_0
*I *1636:Y O *D sky130_fd_sc_hd__nand2_1
*CAP
1 *1637:B1 0.000158155
2 *1636:Y 0.000158155
3 *1605:B1 *1637:B1 4.67141e-05
4 *185:77 *1637:B1 0.000195007
*RES
1 *1636:Y *1637:B1 23.6585 
*END

*D_NET *205 0.000693725
*CONN
*I *1639:B1 I *D sky130_fd_sc_hd__o21ai_0
*I *1638:Y O *D sky130_fd_sc_hd__nand2_1
*CAP
1 *1639:B1 0.000208263
2 *1638:Y 0.000208263
3 *1639:B1 *388:220 0.000264716
4 *185:178 *1639:B1 1.24817e-05
*RES
1 *1638:Y *1639:B1 31.4416 
*END

*D_NET *206 0.000390141
*CONN
*I *1641:B1 I *D sky130_fd_sc_hd__o21ai_0
*I *1640:Y O *D sky130_fd_sc_hd__nand2_1
*CAP
1 *1641:B1 5.80767e-05
2 *1640:Y 5.80767e-05
3 *1641:B1 *661:10 0.000135357
4 *185:191 *1641:B1 0.00013863
*RES
1 *1640:Y *1641:B1 21.9947 
*END

*D_NET *207 0.00194355
*CONN
*I *1646:A I *D sky130_fd_sc_hd__nand2_4
*I *1644:A I *D sky130_fd_sc_hd__or2_0
*I *1645:B I *D sky130_fd_sc_hd__nand3_1
*I *1642:Y O *D sky130_fd_sc_hd__clkinv_1
*CAP
1 *1646:A 0.000134936
2 *1644:A 0
3 *1645:B 0.000164074
4 *1642:Y 0.00034916
5 *207:22 0.000320022
6 *1645:B *1645:A 0.000159038
7 *1645:B *2105:CLK 0.000102403
8 *1645:B *1029:33 7.01935e-06
9 *1645:B *1135:62 0.000159032
10 *1646:A *1237:A1 7.22413e-05
11 *1646:A *1643:A2 6.13051e-05
12 *1646:A *208:10 6.72059e-05
13 *1646:A *1029:12 0.000109427
14 *207:22 *1237:A1 6.00269e-05
15 *207:22 *1645:A 3.02163e-05
16 *207:22 *2105:CLK 6.97525e-05
17 *207:22 *208:10 5.03545e-06
18 *2050:D *207:22 7.26606e-05
*RES
1 *1642:Y *1645:B 23.6585 
2 *1642:Y *207:22 18.2442 
3 *207:22 *1644:A 13.7491 
4 *207:22 *1646:A 18.6595 
*END

*D_NET *208 0.00226769
*CONN
*I *1644:B I *D sky130_fd_sc_hd__or2_0
*I *1645:A I *D sky130_fd_sc_hd__nand3_1
*I *1643:Y O *D sky130_fd_sc_hd__a21oi_1
*CAP
1 *1644:B 0
2 *1645:A 0.000154174
3 *1643:Y 0.00036269
4 *208:10 0.000516865
5 *1645:A *2105:CLK 8.95297e-05
6 *1645:A *748:10 4.88661e-05
7 *208:10 *1237:A1 0
8 *208:10 *1237:B1 6.66393e-05
9 *208:10 *1643:A1 1.31764e-05
10 *208:10 *1643:A2 0.00043316
11 *208:10 *1643:B1 7.34948e-06
12 *208:10 *1856:A 0
13 *208:10 *748:10 2.48232e-05
14 *208:10 *1025:22 2.19131e-05
15 *208:10 *1029:12 0.000127194
16 *1645:B *1645:A 0.000159038
17 *1646:A *208:10 6.72059e-05
18 *2050:D *1645:A 0.000139817
19 *207:22 *1645:A 3.02163e-05
20 *207:22 *208:10 5.03545e-06
*RES
1 *1643:Y *208:10 26.6886 
2 *208:10 *1645:A 19.49 
3 *208:10 *1644:B 13.7491 
*END

*D_NET *209 0.00142342
*CONN
*I *1650:A1 I *D sky130_fd_sc_hd__a31oi_1
*I *1649:B I *D sky130_fd_sc_hd__nor2_1
*I *1644:X O *D sky130_fd_sc_hd__or2_0
*CAP
1 *1650:A1 0
2 *1649:B 0.00021278
3 *1644:X 0.000219258
4 *209:6 0.000432038
5 *1649:B *1649:A 8.62625e-06
6 *1649:B *1650:A2 0.000148017
7 *1649:B *213:10 7.34948e-06
8 *1649:B *748:10 7.65987e-05
9 *1649:B *789:26 3.13173e-05
10 *1649:B *1029:33 0.000164842
11 *209:6 *1650:B1 3.82228e-05
12 *2050:D *209:6 8.43687e-05
*RES
1 *1644:X *209:6 14.4094 
2 *209:6 *1649:B 25.3723 
3 *209:6 *1650:A1 9.24915 
*END

*D_NET *210 0.000628812
*CONN
*I *1650:A2 I *D sky130_fd_sc_hd__a31oi_1
*I *1842:B1 I *D sky130_fd_sc_hd__o21ai_0
*I *1645:Y O *D sky130_fd_sc_hd__nand3_1
*CAP
1 *1650:A2 8.84629e-05
2 *1842:B1 4.26184e-05
3 *1645:Y 2.81218e-05
4 *210:6 0.000159203
5 *1650:A2 *213:23 4.39459e-05
6 *1650:A2 *1029:33 1.22289e-05
7 *1842:B1 *1842:A1 3.32158e-05
8 *1842:B1 *1029:33 2.53191e-05
9 *210:6 *1029:33 4.76794e-05
10 *1649:B *1650:A2 0.000148017
*RES
1 *1645:Y *210:6 9.97254 
2 *210:6 *1842:B1 10.5513 
3 *210:6 *1650:A2 21.3269 
*END

*D_NET *211 0.00305796
*CONN
*I *1650:A3 I *D sky130_fd_sc_hd__a31oi_1
*I *1652:B I *D sky130_fd_sc_hd__nor2_2
*I *1656:B I *D sky130_fd_sc_hd__nor2_2
*I *1844:A I *D sky130_fd_sc_hd__nand2_1
*I *1647:Y O *D sky130_fd_sc_hd__nand2_4
*CAP
1 *1650:A3 0.000298575
2 *1652:B 1.22255e-05
3 *1656:B 7.25498e-05
4 *1844:A 0.000289922
5 *1647:Y 0
6 *211:21 0.000204182
7 *211:17 0.000551595
8 *211:4 0.000423535
9 *1650:A3 *1650:B1 3.86349e-05
10 *1650:A3 *1843:A1 9.95542e-06
11 *1650:A3 *1843:B1 9.98271e-05
12 *1650:A3 *213:10 3.83055e-05
13 *1650:A3 *213:23 2.16488e-05
14 *1652:B *1652:A 4.65954e-06
15 *1656:B *1652:A 5.58909e-05
16 *1656:B *1656:A 2.1249e-05
17 *1656:B *215:8 0.000169728
18 *1656:B *216:14 6.82736e-05
19 *1844:A *1647:B 3.14978e-05
20 *1844:A *1844:B 0.000101415
21 *1844:A *1845:B 0
22 *211:17 *213:10 2.25812e-05
23 *211:17 *1030:12 0
24 *211:21 *1651:A 0.000106698
25 *211:21 *1652:A 5.27149e-05
26 *211:21 *1030:12 9.62212e-05
27 *2051:D *1650:A3 3.20264e-05
28 *186:10 *1650:A3 0.000146097
29 *186:10 *211:17 8.79472e-05
*RES
1 *1647:Y *211:4 9.24915 
2 *211:4 *1844:A 16.6519 
3 *211:4 *211:17 8.40826 
4 *211:17 *211:21 7.99641 
5 *211:21 *1656:B 12.7697 
6 *211:21 *1652:B 9.82786 
7 *211:17 *1650:A3 23.2542 
*END

*D_NET *212 0.000476843
*CONN
*I *1649:A I *D sky130_fd_sc_hd__nor2_1
*I *1648:Y O *D sky130_fd_sc_hd__inv_1
*CAP
1 *1649:A 0.000115841
2 *1648:Y 0.000115841
3 *1649:A *1647:A 0.000196797
4 *1649:A *789:26 3.9739e-05
5 *1649:B *1649:A 8.62625e-06
*RES
1 *1648:Y *1649:A 31.1615 
*END

*D_NET *213 0.00167146
*CONN
*I *1650:B1 I *D sky130_fd_sc_hd__a31oi_1
*I *1843:A2 I *D sky130_fd_sc_hd__a21oi_1
*I *1842:A2 I *D sky130_fd_sc_hd__o21ai_0
*I *1649:Y O *D sky130_fd_sc_hd__nor2_1
*CAP
1 *1650:B1 0.00012267
2 *1843:A2 0
3 *1842:A2 0
4 *1649:Y 0.000221276
5 *213:23 0.000279035
6 *213:10 0.00037764
7 *1650:B1 *1843:A1 0.00021377
8 *213:10 *789:26 2.9287e-05
9 *213:10 *1030:12 7.72722e-05
10 *213:23 *1843:B1 0.000139817
11 *1649:B *213:10 7.34948e-06
12 *1650:A2 *213:23 4.39459e-05
13 *1650:A3 *1650:B1 3.86349e-05
14 *1650:A3 *213:10 3.83055e-05
15 *1650:A3 *213:23 2.16488e-05
16 *209:6 *1650:B1 3.82228e-05
17 *211:17 *213:10 2.25812e-05
*RES
1 *1649:Y *213:10 19.49 
2 *213:10 *1842:A2 13.7491 
3 *213:10 *213:23 9.14105 
4 *213:23 *1843:A2 9.24915 
5 *213:23 *1650:B1 13.3484 
*END

*D_NET *214 0.000595673
*CONN
*I *1652:A I *D sky130_fd_sc_hd__nor2_2
*I *1651:Y O *D sky130_fd_sc_hd__inv_1
*CAP
1 *1652:A 5.31214e-05
2 *1651:Y 5.31214e-05
3 *1652:A *1651:A 6.54015e-05
4 *1652:A *1656:A 1.41976e-05
5 *1652:A *216:14 0
6 *1652:A *1030:23 0.000296566
7 *1652:B *1652:A 4.65954e-06
8 *1656:B *1652:A 5.58909e-05
9 *211:21 *1652:A 5.27149e-05
*RES
1 *1651:Y *1652:A 22.2961 
*END

*D_NET *215 0.0057538
*CONN
*I *1653:S I *D sky130_fd_sc_hd__mux2_1
*I *1840:A2 I *D sky130_fd_sc_hd__o21ai_0
*I *1839:A I *D sky130_fd_sc_hd__nand2_1
*I *1655:S I *D sky130_fd_sc_hd__mux2_1
*I *1654:S I *D sky130_fd_sc_hd__mux2_1
*I *1652:Y O *D sky130_fd_sc_hd__nor2_2
*CAP
1 *1653:S 0.000117561
2 *1840:A2 0
3 *1839:A 1.90605e-05
4 *1655:S 0
5 *1654:S 0.000284236
6 *1652:Y 0.000230939
7 *215:20 0.000567401
8 *215:18 0.000348418
9 *215:16 0.000533779
10 *215:8 0.000836087
11 *1653:S *1658:A 0.0001195
12 *1653:S *1660:B 0.000148017
13 *1653:S *1845:A 0.000177627
14 *1653:S *751:12 7.15669e-05
15 *1654:S *1662:A 0.000384336
16 *1654:S *1663:B 5.54743e-05
17 *1654:S *1665:B 0.000205317
18 *1654:S *1666:B 0.000521716
19 *1654:S *793:11 1.87269e-05
20 *1654:S *954:8 1.06049e-05
21 *1839:A *1840:B1 0
22 *215:8 *216:14 0.000174672
23 *215:16 *1259:A 3.31287e-05
24 *215:16 *1840:B1 3.30646e-05
25 *215:16 *1845:A 0.000217587
26 *215:16 *1845:B 0.000111722
27 *215:16 *444:10 8.50286e-05
28 *215:16 *751:12 9.28672e-05
29 *215:18 *1840:B1 3.8122e-05
30 *215:20 *1655:A1 2.41274e-06
31 *215:20 *1837:B 5.28741e-05
32 *215:20 *1839:B 6.64392e-05
33 *215:20 *1840:B1 2.57847e-05
34 *1656:B *215:8 0.000169728
*RES
1 *1652:Y *215:8 17.8002 
2 *215:8 *215:16 18.584 
3 *215:16 *215:18 1.278 
4 *215:18 *215:20 7.37864 
5 *215:20 *1654:S 31.7082 
6 *215:20 *1655:S 9.24915 
7 *215:18 *1839:A 9.82786 
8 *215:16 *1840:A2 9.24915 
9 *215:8 *1653:S 19.3184 
*END

*D_NET *216 0.00485972
*CONN
*I *1659:A I *D sky130_fd_sc_hd__nand2_1
*I *1657:A I *D sky130_fd_sc_hd__clkinv_1
*I *1837:A I *D sky130_fd_sc_hd__nand2_1
*I *1662:A I *D sky130_fd_sc_hd__nand2_1
*I *1665:A I *D sky130_fd_sc_hd__nand2_1
*I *1656:Y O *D sky130_fd_sc_hd__nor2_2
*CAP
1 *1659:A 0.000185223
2 *1657:A 0
3 *1837:A 1.97721e-05
4 *1662:A 0.000227668
5 *1665:A 3.44373e-05
6 *1656:Y 0.000364341
7 *216:55 0.000247619
8 *216:22 0.000490965
9 *216:18 0.00083391
10 *216:14 0.00101202
11 *1659:A *1660:B 1.03403e-05
12 *1659:A *217:8 9.44631e-06
13 *1659:A *217:51 2.99673e-05
14 *1662:A *1663:B 2.16355e-05
15 *1662:A *1836:B 5.52417e-05
16 *1662:A *954:8 6.49514e-05
17 *1837:A *1837:B 4.65954e-06
18 *216:14 *1259:A 1.14407e-05
19 *216:14 *1656:A 0.000168621
20 *216:14 *1914:RESET_B 5.37479e-05
21 *216:18 *1838:B 9.94284e-06
22 *216:22 *1836:B 0.00011818
23 *216:22 *1837:B 8.49565e-06
24 *216:22 *1838:A 0.000120962
25 *216:22 *1838:B 2.99287e-05
26 *216:55 *1915:RESET_B 9.89271e-05
27 *216:55 *717:10 0
28 *1652:A *216:14 0
29 *1654:S *1662:A 0.000384336
30 *1656:B *216:14 6.82736e-05
31 *215:8 *216:14 0.000174672
*RES
1 *1656:Y *216:14 17.9781 
2 *216:14 *216:18 8.51196 
3 *216:18 *216:22 6.29355 
4 *216:22 *1665:A 9.97254 
5 *216:22 *1662:A 25.7876 
6 *216:18 *1837:A 9.82786 
7 *216:14 *216:55 10.832 
8 *216:55 *1657:A 9.24915 
9 *216:55 *1659:A 13.3243 
*END

*D_NET *217 0.00735524
*CONN
*I *1658:A I *D sky130_fd_sc_hd__nand2_1
*I *1845:A I *D sky130_fd_sc_hd__nand2_1
*I *1664:A I *D sky130_fd_sc_hd__nand2_1
*I *1661:A I *D sky130_fd_sc_hd__nand2_1
*I *1836:A I *D sky130_fd_sc_hd__nand2_1
*I *1657:Y O *D sky130_fd_sc_hd__clkinv_1
*CAP
1 *1658:A 0.000310347
2 *1845:A 0.000221323
3 *1664:A 0.000184348
4 *1661:A 2.14992e-05
5 *1836:A 0.000232978
6 *1657:Y 0
7 *217:51 0.000722077
8 *217:27 0.000438493
9 *217:8 0.00123178
10 *217:4 0.000956561
11 *1658:A *1660:B 0.000241633
12 *1658:A *1110:731 0.000118485
13 *1658:A *1110:733 0.000297797
14 *1658:A *1110:735 0.000266261
15 *1661:A *1661:B 6.3657e-05
16 *1664:A *1254:A3 7.93849e-05
17 *1664:A *1260:B 1.39717e-06
18 *1664:A *1664:B 1.07248e-05
19 *1664:A *1666:A 1.41976e-05
20 *1664:A *425:14 6.08467e-05
21 *1664:A *1091:26 7.60041e-05
22 *1836:A *1836:B 0
23 *1836:A *1838:A 0.000155072
24 *1845:A *1845:B 6.50727e-05
25 *1845:A *751:12 8.62321e-06
26 *1845:A *1110:735 0.000207203
27 *1845:A *1110:739 0.000242134
28 *217:8 *1915:RESET_B 4.01715e-05
29 *217:8 *1920:RESET_B 3.63704e-05
30 *217:8 *952:14 6.27782e-05
31 *217:27 *1245:A2 5.18062e-06
32 *217:27 *1254:A3 2.90531e-05
33 *217:27 *1260:B 4.01386e-06
34 *217:27 *1838:A 0.000107643
35 *217:27 *954:8 3.80007e-05
36 *217:51 *1660:B 6.08467e-05
37 *1653:S *1658:A 0.0001195
38 *1653:S *1845:A 0.000177627
39 *1659:A *217:8 9.44631e-06
40 *1659:A *217:51 2.99673e-05
41 *1915:D *1836:A 0.000107502
42 *1915:D *217:8 8.97566e-06
43 *1915:D *217:27 7.26748e-05
44 *215:16 *1845:A 0.000217587
*RES
1 *1657:Y *217:4 9.24915 
2 *217:4 *217:8 15.7609 
3 *217:8 *1836:A 19.5382 
4 *217:8 *217:27 6.47305 
5 *217:27 *1661:A 14.4725 
6 *217:27 *1664:A 18.3808 
7 *217:4 *217:51 7.44181 
8 *217:51 *1845:A 22.5333 
9 *217:51 *1658:A 26.6952 
*END

*D_NET *218 0.000439947
*CONN
*I *1660:A I *D sky130_fd_sc_hd__nand2_1
*I *1658:Y O *D sky130_fd_sc_hd__nand2_1
*CAP
1 *1660:A 0.000139347
2 *1658:Y 0.000139347
3 *1660:A *1269:A 0.000161254
*RES
1 *1658:Y *1660:A 21.3195 
*END

*D_NET *219 0.00187091
*CONN
*I *1660:B I *D sky130_fd_sc_hd__nand2_1
*I *1659:Y O *D sky130_fd_sc_hd__nand2_1
*CAP
1 *1660:B 0.000352404
2 *1659:Y 0.000352404
3 *1660:B *751:12 0.000705265
4 *1653:S *1660:B 0.000148017
5 *1658:A *1660:B 0.000241633
6 *1659:A *1660:B 1.03403e-05
7 *217:51 *1660:B 6.08467e-05
*RES
1 *1659:Y *1660:B 41.9594 
*END

*D_NET *220 0.000679624
*CONN
*I *1663:A I *D sky130_fd_sc_hd__nand2_1
*I *1661:Y O *D sky130_fd_sc_hd__nand2_1
*CAP
1 *1663:A 0.000180437
2 *1661:Y 0.000180437
3 *1663:A *1245:B1 0.000113968
4 *1663:A *1254:A3 0.000143047
5 *1663:A *1663:B 6.17339e-05
*RES
1 *1661:Y *1663:A 31.9934 
*END

*D_NET *221 0.000882985
*CONN
*I *1663:B I *D sky130_fd_sc_hd__nand2_1
*I *1662:Y O *D sky130_fd_sc_hd__nand2_1
*CAP
1 *1663:B 0.000277459
2 *1662:Y 0.000277459
3 *1663:B *1245:A2 4.39919e-05
4 *1663:B *1254:A3 2.29383e-05
5 *1663:B *1666:B 5.29763e-05
6 *1663:B *954:8 6.93171e-05
7 *1654:S *1663:B 5.54743e-05
8 *1662:A *1663:B 2.16355e-05
9 *1663:A *1663:B 6.17339e-05
*RES
1 *1662:Y *1663:B 34.7608 
*END

*D_NET *222 0.000553061
*CONN
*I *1666:A I *D sky130_fd_sc_hd__nand2_1
*I *1664:Y O *D sky130_fd_sc_hd__nand2_1
*CAP
1 *1666:A 0.000148438
2 *1664:Y 0.000148438
3 *1666:A *425:14 0.00011961
4 *1664:A *1666:A 1.41976e-05
5 *1917:D *1666:A 0.000122378
*RES
1 *1664:Y *1666:A 23.1521 
*END

*D_NET *223 0.00175327
*CONN
*I *1666:B I *D sky130_fd_sc_hd__nand2_1
*I *1665:Y O *D sky130_fd_sc_hd__nand2_1
*CAP
1 *1666:B 0.000239298
2 *1665:Y 0.000239298
3 *1666:B *793:11 0.000699985
4 *1654:S *1666:B 0.000521716
5 *1663:B *1666:B 5.29763e-05
*RES
1 *1665:Y *1666:B 40.1268 
*END

*D_NET *224 0.0164315
*CONN
*I *1668:S I *D sky130_fd_sc_hd__mux2_1
*I *1676:A2 I *D sky130_fd_sc_hd__o21ai_0
*I *1674:A2 I *D sky130_fd_sc_hd__o21ai_0
*I *1670:S I *D sky130_fd_sc_hd__mux2_1
*I *1669:S I *D sky130_fd_sc_hd__mux2_1
*I *1673:A I *D sky130_fd_sc_hd__nand2_1
*I *1675:A I *D sky130_fd_sc_hd__nand2_1
*I *1835:S I *D sky130_fd_sc_hd__mux2_1
*I *1831:A I *D sky130_fd_sc_hd__nand2_1
*I *1832:A2 I *D sky130_fd_sc_hd__o21ai_0
*I *1671:A I *D sky130_fd_sc_hd__nand2_1
*I *1672:A2 I *D sky130_fd_sc_hd__o21ai_0
*I *1667:Y O *D sky130_fd_sc_hd__nor4_4
*CAP
1 *1668:S 0
2 *1676:A2 0
3 *1674:A2 2.40776e-05
4 *1670:S 0.001147
5 *1669:S 0
6 *1673:A 0.000340421
7 *1675:A 0
8 *1835:S 0
9 *1831:A 1.52494e-05
10 *1832:A2 0
11 *1671:A 3.23835e-05
12 *1672:A2 0
13 *1667:Y 0.000573808
14 *224:117 0.00223549
15 *224:98 0.0016091
16 *224:90 0.000319643
17 *224:81 0.000150066
18 *224:79 0.000536471
19 *224:68 0.00118627
20 *224:55 0.000813913
21 *224:46 0.000493451
22 *224:38 0.000793686
23 *224:21 0.000508071
24 *224:12 0.000635072
25 *1670:S *1351:A1 0
26 *1670:S *1669:A0 5.52748e-05
27 *1670:S *1670:A1 1.43848e-05
28 *1670:S *2118:D 0.000141641
29 *1670:S *2504:A 0
30 *1670:S *522:24 0
31 *1670:S *910:12 1.15766e-05
32 *1670:S *1121:10 0
33 *1670:S *1121:18 0
34 *1670:S *1122:22 3.0676e-05
35 *1671:A *1291:A 4.87301e-05
36 *1671:A *1671:B 1.59756e-05
37 *1671:A *1672:B1 0.000114584
38 *1673:A *1297:B 6.40849e-05
39 *1673:A *1298:B1 1.13282e-05
40 *1673:A *1342:A 0
41 *1673:A *1673:B 4.47578e-05
42 *1673:A *1674:B1 2.57847e-05
43 *1673:A *2042:CLK 0
44 *1831:A *1831:B 1.05106e-05
45 *224:12 *1278:A 5.50522e-06
46 *224:12 *1284:A1 0
47 *224:12 *1286:B 5.47516e-05
48 *224:12 *1286:C 5.80222e-05
49 *224:12 *1667:A 6.06764e-05
50 *224:12 *1672:A1 0.000159032
51 *224:12 *1672:B1 3.96696e-05
52 *224:12 *2047:RESET_B 1.75816e-05
53 *224:12 *2069:RESET_B 0.000143161
54 *224:12 *2489:A 2.82242e-05
55 *224:12 *2492:A 0
56 *224:12 *839:10 0
57 *224:12 *1137:12 0
58 *224:21 *1672:A1 3.32903e-05
59 *224:21 *1672:B1 0.000210427
60 *224:21 *2047:RESET_B 2.97245e-05
61 *224:38 *1292:A2 0.000141928
62 *224:38 *1347:A1 0.000249578
63 *224:38 *1552:B2 7.02865e-05
64 *224:38 *2084:RESET_B 9.11429e-05
65 *224:38 *2084:CLK 0
66 *224:38 *763:14 1.43848e-05
67 *224:46 *1320:A 3.6928e-05
68 *224:46 *1832:A1 6.27782e-05
69 *224:46 *2076:RESET_B 0
70 *224:46 *2084:CLK 0.000244385
71 *224:46 *340:10 3.96696e-05
72 *224:55 *1831:B 6.3657e-05
73 *224:55 *1832:A1 1.88422e-05
74 *224:55 *1897:B 9.94284e-06
75 *224:55 *340:10 1.55915e-05
76 *224:68 *1549:B2 0
77 *224:68 *1561:A 3.19445e-05
78 *224:68 *1564:A1 2.77625e-06
79 *224:68 *1835:A1 7.72654e-05
80 *224:68 *1884:S 0.000365784
81 *224:68 *1897:B 8.98997e-05
82 *224:68 *1898:A1 6.46815e-05
83 *224:68 *1898:A2 1.88563e-05
84 *224:68 *1898:B1 7.92757e-06
85 *224:68 *2085:RESET_B 0
86 *224:68 *847:16 0
87 *224:68 *1107:94 7.14368e-05
88 *224:79 *1674:A1 0
89 *224:79 *1675:B 0
90 *224:79 *2042:RESET_B 0
91 *224:79 *2048:RESET_B 0.000113244
92 *224:79 *2083:RESET_B 2.01653e-05
93 *224:79 *1113:68 0.000218372
94 *224:81 *1676:A1 6.50586e-05
95 *224:81 *1676:B1 2.41483e-05
96 *224:90 *1303:A 1.61631e-05
97 *224:90 *1674:B1 2.82583e-05
98 *224:90 *1676:A1 1.03434e-05
99 *224:90 *1676:B1 1.41291e-05
100 *224:98 *1298:A1 3.59597e-05
101 *224:98 *1303:A 0.000270995
102 *224:98 *1674:B1 2.23259e-05
103 *224:117 *1304:B1 0
104 *224:117 *1325:A 6.85892e-05
105 *224:117 *1342:A 0
106 *224:117 *1351:A1 0.000309468
107 *224:117 *1669:A0 1.67663e-05
108 *224:117 *2074:RESET_B 0
109 *2042:D *224:79 0
110 *2044:D *224:46 5.85259e-05
111 *2044:D *224:55 0.000114271
112 *2045:D *1670:S 0.000137455
113 *2067:D *224:117 0
114 *2083:D *1673:A 0.000130777
115 *2084:D *224:38 0
116 *2085:D *224:68 4.14765e-05
117 *175:12 *224:38 8.1778e-05
*RES
1 *1667:Y *224:12 34.3713 
2 *224:12 *1672:A2 9.24915 
3 *224:12 *224:21 2.96592 
4 *224:21 *1671:A 11.1059 
5 *224:21 *224:38 22.0845 
6 *224:38 *224:46 20.9696 
7 *224:46 *1832:A2 9.24915 
8 *224:46 *224:55 3.52053 
9 *224:55 *1831:A 9.82786 
10 *224:55 *224:68 23.9526 
11 *224:68 *1835:S 13.7491 
12 *224:68 *224:79 18.3743 
13 *224:79 *224:81 1.278 
14 *224:81 *1675:A 9.24915 
15 *224:81 *224:90 3.52053 
16 *224:90 *224:98 9.53028 
17 *224:98 *1673:A 23.0585 
18 *224:98 *224:117 30.5171 
19 *224:117 *1669:S 9.24915 
20 *224:117 *1670:S 46.0631 
21 *224:90 *1674:A2 9.82786 
22 *224:79 *1676:A2 9.24915 
23 *224:38 *1668:S 9.24915 
*END

*D_NET *225 0.000843969
*CONN
*I *1672:B1 I *D sky130_fd_sc_hd__o21ai_0
*I *1671:Y O *D sky130_fd_sc_hd__nand2_1
*CAP
1 *1672:B1 0.000201395
2 *1671:Y 0.000201395
3 *1672:B1 *1291:A 1.37189e-05
4 *1671:A *1672:B1 0.000114584
5 *2043:D *1672:B1 6.27782e-05
6 *224:12 *1672:B1 3.96696e-05
7 *224:21 *1672:B1 0.000210427
*RES
1 *1671:Y *1672:B1 24.2372 
*END

*D_NET *226 0.00155797
*CONN
*I *1674:B1 I *D sky130_fd_sc_hd__o21ai_0
*I *1673:Y O *D sky130_fd_sc_hd__nand2_1
*CAP
1 *1674:B1 0.000564693
2 *1673:Y 0.000564693
3 *1674:B1 *1298:A1 0.000167482
4 *1674:B1 *1674:A1 8.91956e-05
5 *1674:B1 *1676:A1 0
6 *1674:B1 *1676:B1 0
7 *1674:B1 *2042:CLK 8.40246e-05
8 *1673:A *1674:B1 2.57847e-05
9 *2042:D *1674:B1 1.15174e-05
10 *224:90 *1674:B1 2.82583e-05
11 *224:98 *1674:B1 2.23259e-05
*RES
1 *1673:Y *1674:B1 39.6692 
*END

*D_NET *227 0.000429068
*CONN
*I *1676:B1 I *D sky130_fd_sc_hd__o21ai_0
*I *1675:Y O *D sky130_fd_sc_hd__nand2_1
*CAP
1 *1676:B1 0.000128071
2 *1675:Y 0.000128071
3 *1676:B1 *1676:A1 0.000134648
4 *1676:B1 *2132:A 0
5 *1674:B1 *1676:B1 0
6 *224:81 *1676:B1 2.41483e-05
7 *224:90 *1676:B1 1.41291e-05
*RES
1 *1675:Y *1676:B1 22.0188 
*END

*D_NET *228 0.000268297
*CONN
*I *1679:A I *D sky130_fd_sc_hd__nand2_1
*I *1677:Y O *D sky130_fd_sc_hd__nand2_1
*CAP
1 *1679:A 8.00597e-05
2 *1677:Y 8.00597e-05
3 *1679:A *1680:A 6.63276e-05
4 *1679:A *1681:A 3.44412e-06
5 *1679:A *1111:305 3.84056e-05
*RES
1 *1677:Y *1679:A 30.1608 
*END

*D_NET *229 0.000249419
*CONN
*I *1679:B I *D sky130_fd_sc_hd__nand2_1
*I *1678:Y O *D sky130_fd_sc_hd__nand2_1
*CAP
1 *1679:B 3.81229e-05
2 *1678:Y 3.81229e-05
3 *1679:B axi_lite_o[18] 0.000115934
4 *1679:B *1536:B 1.05504e-05
5 *1679:B *1132:37 4.66889e-05
*RES
1 *1678:Y *1679:B 20.355 
*END

*D_NET *230 0.000298121
*CONN
*I *1682:A I *D sky130_fd_sc_hd__nand2_1
*I *1680:Y O *D sky130_fd_sc_hd__nand2_1
*CAP
1 *1682:A 0.000114645
2 *1680:Y 0.000114645
3 *1682:A *1680:A 2.53191e-05
4 *1682:A *1682:B 1.48383e-05
5 *1682:A *2173:A 1.41976e-05
6 *1682:A *1113:559 1.44764e-05
*RES
1 *1680:Y *1682:A 21.4883 
*END

*D_NET *231 0.000865137
*CONN
*I *1682:B I *D sky130_fd_sc_hd__nand2_1
*I *1681:Y O *D sky130_fd_sc_hd__nand2_1
*CAP
1 *1682:B 0.000158687
2 *1681:Y 0.000158687
3 *1682:B *1680:A 0.000154161
4 *1682:B *996:14 0.000101177
5 *1682:B *1113:559 0.000277588
6 *1682:A *1682:B 1.48383e-05
*RES
1 *1681:Y *1682:B 33.676 
*END

*D_NET *232 0.000448979
*CONN
*I *1813:A1 I *D sky130_fd_sc_hd__o21ai_0
*I *1685:A2 I *D sky130_fd_sc_hd__o21ai_1
*I *1683:Y O *D sky130_fd_sc_hd__inv_1
*CAP
1 *1813:A1 2.61329e-05
2 *1685:A2 8.33169e-05
3 *1683:Y 1.60793e-05
4 *232:6 0.000125529
5 *1685:A2 *726:14 0.000113295
6 *1813:A1 *1683:A 4.66492e-05
7 *232:6 *1683:A 3.79772e-05
8 *2038:D *1685:A2 0
*RES
1 *1683:Y *232:6 9.69524 
2 *232:6 *1685:A2 20.4964 
3 *232:6 *1813:A1 9.97254 
*END

*D_NET *233 0.000227742
*CONN
*I *1685:B1 I *D sky130_fd_sc_hd__o21ai_1
*I *1684:Y O *D sky130_fd_sc_hd__nand2_1
*CAP
1 *1685:B1 2.00351e-05
2 *1684:Y 2.00351e-05
3 *1685:B1 *1684:B 6.63816e-05
4 *1685:B1 *1685:A1 0.000114271
5 *1685:B1 *776:16 7.01935e-06
*RES
1 *1684:Y *1685:B1 19.7763 
*END

*D_NET *234 0.0014351
*CONN
*I *1711:A I *D sky130_fd_sc_hd__nor2_1
*I *1717:C I *D sky130_fd_sc_hd__nor3_1
*I *1825:B1 I *D sky130_fd_sc_hd__a21oi_1
*I *1692:A I *D sky130_fd_sc_hd__nor2_1
*I *1686:X O *D sky130_fd_sc_hd__xor2_1
*CAP
1 *1711:A 0
2 *1717:C 0.000156005
3 *1825:B1 0
4 *1692:A 0
5 *1686:X 7.64652e-05
6 *234:25 0.000299843
7 *234:19 0.000192324
8 *234:8 0.000124951
9 *1717:C *1826:A 8.66674e-05
10 *234:8 *1692:B 3.30646e-05
11 *234:8 *1711:B 3.75603e-05
12 *234:19 *1692:B 0.000183814
13 *234:19 *1711:B 6.38629e-05
14 *234:19 *1824:B 1.09551e-05
15 *234:25 *1826:A 0.000169582
16 *234:25 *238:12 0
*RES
1 *1686:X *234:8 11.6605 
2 *234:8 *1692:A 9.24915 
3 *234:8 *234:19 2.99004 
4 *234:19 *234:25 8.31055 
5 *234:25 *1825:B1 13.7491 
6 *234:25 *1717:C 17.6574 
7 *234:19 *1711:A 9.24915 
*END

*D_NET *235 0.000300472
*CONN
*I *1691:A I *D sky130_fd_sc_hd__nor2_1
*I *1687:Y O *D sky130_fd_sc_hd__inv_1
*CAP
1 *1691:A 2.81942e-05
2 *1687:Y 2.81942e-05
3 *1691:A *1687:A 5.67111e-05
4 *1691:A *1691:B 0.000165411
5 *1691:A *1710:A2 0
6 *1691:A *252:8 2.19616e-05
*RES
1 *1687:Y *1691:A 20.6323 
*END

*D_NET *236 0.000593609
*CONN
*I *1690:A I *D sky130_fd_sc_hd__nor2_1
*I *1825:A1 I *D sky130_fd_sc_hd__a21oi_1
*I *1688:Y O *D sky130_fd_sc_hd__inv_1
*CAP
1 *1690:A 0.000107641
2 *1825:A1 0.000134252
3 *1688:Y 0
4 *236:4 0.000241893
5 *1690:A *1688:A 1.13461e-05
6 *1690:A *1825:A2 1.04731e-05
7 *1690:A *238:12 6.27718e-05
8 *1825:A1 *1688:A 1.92281e-05
9 *1825:A1 *1825:A2 6.003e-06
*RES
1 *1688:Y *236:4 9.24915 
2 *236:4 *1825:A1 11.3591 
3 *236:4 *1690:A 12.5165 
*END

*D_NET *237 0.002131
*CONN
*I *1825:A2 I *D sky130_fd_sc_hd__a21oi_1
*I *1690:B I *D sky130_fd_sc_hd__nor2_1
*I *1715:B I *D sky130_fd_sc_hd__nor2_1
*I *1689:Y O *D sky130_fd_sc_hd__nand3_1
*CAP
1 *1825:A2 0.000191027
2 *1690:B 5.70452e-05
3 *1715:B 0.00010684
4 *1689:Y 0.000358608
5 *237:25 0.000347842
6 *237:12 0.000565217
7 *1690:B *1688:A 2.86829e-05
8 *1715:B *1717:A 7.01935e-06
9 *1715:B *1717:B 2.07087e-05
10 *1825:A2 *1688:A 9.68194e-05
11 *237:12 *1689:B 1.32043e-05
12 *237:12 *1716:A1 0.000109421
13 *237:12 *1717:B 3.96512e-05
14 *237:12 *899:30 5.46384e-06
15 *237:25 *1688:A 0.000134943
16 *237:25 *901:10 3.20264e-05
17 *1690:A *1825:A2 1.04731e-05
18 *1825:A1 *1825:A2 6.003e-06
*RES
1 *1689:Y *237:12 26.3506 
2 *237:12 *1715:B 11.6605 
3 *237:12 *237:25 7.57775 
4 *237:25 *1690:B 15.1659 
5 *237:25 *1825:A2 17.5349 
*END

*D_NET *238 0.00109143
*CONN
*I *1691:B I *D sky130_fd_sc_hd__nor2_1
*I *1710:B1 I *D sky130_fd_sc_hd__a21oi_1
*I *1690:Y O *D sky130_fd_sc_hd__nor2_1
*CAP
1 *1691:B 0.000228176
2 *1710:B1 0
3 *1690:Y 0.000141059
4 *238:12 0.000369235
5 *1691:B *1687:A 2.11937e-05
6 *1691:B *1692:B 6.41655e-05
7 *1691:B *1710:A2 3.01683e-06
8 *1691:B *239:8 2.93844e-05
9 *1691:B *252:8 7.02172e-06
10 *238:12 *898:47 0
11 *1690:A *238:12 6.27718e-05
12 *1691:A *1691:B 0.000165411
13 *234:25 *238:12 0
*RES
1 *1690:Y *238:12 20.8045 
2 *238:12 *1710:B1 9.24915 
3 *238:12 *1691:B 14.3129 
*END

*D_NET *239 0.00118502
*CONN
*I *1692:B I *D sky130_fd_sc_hd__nor2_1
*I *1824:A I *D sky130_fd_sc_hd__nor2_1
*I *1691:Y O *D sky130_fd_sc_hd__nor2_1
*CAP
1 *1692:B 0.000316489
2 *1824:A 0
3 *1691:Y 3.33523e-05
4 *239:8 0.000349841
5 *1692:B *1711:B 1.41291e-05
6 *1692:B *252:8 1.71154e-05
7 *239:8 *1687:A 0
8 *239:8 *1824:B 1.64789e-05
9 *239:8 *252:8 0.000127184
10 *1691:B *1692:B 6.41655e-05
11 *1691:B *239:8 2.93844e-05
12 *234:8 *1692:B 3.30646e-05
13 *234:19 *1692:B 0.000183814
*RES
1 *1691:Y *239:8 11.1059 
2 *239:8 *1824:A 9.24915 
3 *239:8 *1692:B 15.832 
*END

*D_NET *240 0.000246488
*CONN
*I *1695:A I *D sky130_fd_sc_hd__nand2_1
*I *1693:Y O *D sky130_fd_sc_hd__nand2_1
*CAP
1 *1695:A 4.11951e-05
2 *1693:Y 4.11951e-05
3 *1695:A *388:30 4.9827e-05
4 *1695:A *618:10 0.000114271
*RES
1 *1693:Y *1695:A 20.355 
*END

*D_NET *241 0.000829835
*CONN
*I *1695:B I *D sky130_fd_sc_hd__nand2_1
*I *1694:Y O *D sky130_fd_sc_hd__nand2_1
*CAP
1 *1695:B 0.000196426
2 *1694:Y 0.000196426
3 *1695:B *1622:B 1.55391e-05
4 *1695:B *1693:B 3.87797e-05
5 *1695:B *1694:A 6.92705e-05
6 *1695:B *959:10 9.05084e-06
7 *1695:B *1106:235 0.000304343
*RES
1 *1694:Y *1695:B 33.791 
*END

*D_NET *242 0.000907533
*CONN
*I *1698:A I *D sky130_fd_sc_hd__nand2_1
*I *1696:Y O *D sky130_fd_sc_hd__nand2_1
*CAP
1 *1698:A 0.000273407
2 *1696:Y 0.000273407
3 *1698:A *1580:A1 0.000146655
4 *1698:A *1696:A 6.50727e-05
5 *1698:A *598:217 4.91625e-05
6 *1698:A *969:8 9.98296e-05
*RES
1 *1696:Y *1698:A 35.1761 
*END

*D_NET *243 0.000196431
*CONN
*I *1698:B I *D sky130_fd_sc_hd__nand2_1
*I *1697:Y O *D sky130_fd_sc_hd__nand2_1
*CAP
1 *1698:B 7.94527e-05
2 *1697:Y 7.94527e-05
3 *1698:B *1529:A2 9.33736e-06
4 *1698:B *1545:B 7.62098e-06
5 *1698:B *1697:A 2.0567e-05
*RES
1 *1697:Y *1698:B 20.355 
*END

*D_NET *244 0.000581222
*CONN
*I *1701:A I *D sky130_fd_sc_hd__nand2_1
*I *1699:Y O *D sky130_fd_sc_hd__nand2_1
*CAP
1 *1701:A 0.00016432
2 *1699:Y 0.00016432
3 *1701:A axi_lite_o[4] 0.000109421
4 *1701:A *388:83 0.000143161
*RES
1 *1699:Y *1701:A 31.4388 
*END

*D_NET *245 0.000203944
*CONN
*I *1701:B I *D sky130_fd_sc_hd__nand2_1
*I *1700:Y O *D sky130_fd_sc_hd__nand2_1
*CAP
1 *1701:B 0.000101972
2 *1700:Y 0.000101972
*RES
1 *1700:Y *1701:B 20.9096 
*END

*D_NET *246 0.000415759
*CONN
*I *1704:A I *D sky130_fd_sc_hd__nand2_1
*I *1702:Y O *D sky130_fd_sc_hd__nand2_1
*CAP
1 *1704:A 0.000172038
2 *1702:Y 0.000172038
3 *1704:A *2138:A 2.41274e-06
4 *1704:A *598:77 6.92705e-05
*RES
1 *1702:Y *1704:A 22.5734 
*END

*D_NET *247 0.000465984
*CONN
*I *1704:B I *D sky130_fd_sc_hd__nand2_1
*I *1703:Y O *D sky130_fd_sc_hd__nand2_1
*CAP
1 *1704:B 0.000111101
2 *1703:Y 0.000111101
3 *1704:B *1702:A 3.67528e-06
4 *1704:B *598:77 2.692e-05
5 *1704:B *784:14 6.50586e-05
6 *1704:B *1111:65 0
7 *185:28 *1704:B 0.000148129
*RES
1 *1703:Y *1704:B 30.8842 
*END

*D_NET *248 0.00050607
*CONN
*I *1707:A I *D sky130_fd_sc_hd__nand2_1
*I *1705:Y O *D sky130_fd_sc_hd__nand2_1
*CAP
1 *1707:A 9.52786e-05
2 *1705:Y 9.52786e-05
3 *1707:A *1705:A 1.03403e-05
4 *1707:A *388:79 0.000152586
5 *1707:A *1127:73 0.000152586
*RES
1 *1705:Y *1707:A 30.8842 
*END

*D_NET *249 0.000288401
*CONN
*I *1707:B I *D sky130_fd_sc_hd__nand2_1
*I *1706:Y O *D sky130_fd_sc_hd__nand2_1
*CAP
1 *1707:B 9.77924e-05
2 *1706:Y 9.77924e-05
3 *1707:B *1706:B 0
4 *1707:B *598:614 9.28161e-05
*RES
1 *1706:Y *1707:B 21.4642 
*END

*D_NET *250 0.000689825
*CONN
*I *1710:A1 I *D sky130_fd_sc_hd__a21oi_1
*I *1708:X O *D sky130_fd_sc_hd__or2_0
*CAP
1 *1710:A1 0.000243204
2 *1708:X 0.000243204
3 *1710:A1 *1708:A 2.20702e-05
4 *1710:A1 *1708:B 0.000118166
5 *1710:A1 *898:23 6.31809e-05
*RES
1 *1708:X *1710:A1 32.548 
*END

*D_NET *251 0.000188508
*CONN
*I *1710:A2 I *D sky130_fd_sc_hd__a21oi_1
*I *1709:Y O *D sky130_fd_sc_hd__nand2_1
*CAP
1 *1710:A2 7.39848e-05
2 *1709:Y 7.39848e-05
3 *1710:A2 *1687:A 3.75217e-05
4 *1691:A *1710:A2 0
5 *1691:B *1710:A2 3.01683e-06
*RES
1 *1709:Y *1710:A2 20.355 
*END

*D_NET *252 0.000979964
*CONN
*I *1824:B I *D sky130_fd_sc_hd__nor2_1
*I *1711:B I *D sky130_fd_sc_hd__nor2_1
*I *1710:Y O *D sky130_fd_sc_hd__a21oi_1
*CAP
1 *1824:B 5.49495e-06
2 *1711:B 5.08796e-05
3 *1710:Y 0.00017913
4 *252:8 0.000235505
5 *1711:B *1826:A 4.33819e-05
6 *252:8 *1687:A 0.00013314
7 *252:8 *1826:A 1.61631e-05
8 *1691:A *252:8 2.19616e-05
9 *1691:B *252:8 7.02172e-06
10 *1692:B *1711:B 1.41291e-05
11 *1692:B *252:8 1.71154e-05
12 *234:8 *1711:B 3.75603e-05
13 *234:19 *1711:B 6.38629e-05
14 *234:19 *1824:B 1.09551e-05
15 *239:8 *1824:B 1.64789e-05
16 *239:8 *252:8 0.000127184
*RES
1 *1710:Y *252:8 14.9881 
2 *252:8 *1711:B 11.6605 
3 *252:8 *1824:B 9.82786 
*END

*D_NET *253 0.00033256
*CONN
*I *1714:A I *D sky130_fd_sc_hd__nand2_1
*I *1712:Y O *D sky130_fd_sc_hd__nand2_1
*CAP
1 *1714:A 8.12227e-05
2 *1712:Y 8.12227e-05
3 *1714:A *1713:B 7.92757e-06
4 *1714:A *388:30 6.86692e-05
5 *1714:A *618:10 9.3518e-05
*RES
1 *1712:Y *1714:A 21.4642 
*END

*D_NET *254 0.000285356
*CONN
*I *1714:B I *D sky130_fd_sc_hd__nand2_1
*I *1713:Y O *D sky130_fd_sc_hd__nand2_1
*CAP
1 *1714:B 6.39076e-05
2 *1713:Y 6.39076e-05
3 *1714:B *1233:A 1.03594e-05
4 *1714:B *1713:B 7.26606e-05
5 *1714:B *598:258 1.79484e-05
6 *1714:B *722:12 4.62129e-05
7 *1714:B *838:39 1.03594e-05
*RES
1 *1713:Y *1714:B 29.7455 
*END

*D_NET *255 0.000112889
*CONN
*I *1717:A I *D sky130_fd_sc_hd__nor3_1
*I *1715:Y O *D sky130_fd_sc_hd__nor2_1
*CAP
1 *1717:A 3.63243e-05
2 *1715:Y 3.63243e-05
3 *1717:A *1717:B 3.3221e-05
4 *1715:B *1717:A 7.01935e-06
*RES
1 *1715:Y *1717:A 19.8004 
*END

*D_NET *256 0.000875751
*CONN
*I *1717:B I *D sky130_fd_sc_hd__nor3_1
*I *1716:Y O *D sky130_fd_sc_hd__a21oi_1
*CAP
1 *1717:B 0.000391085
2 *1716:Y 0.000391085
3 *1715:B *1717:B 2.07087e-05
4 *1717:A *1717:B 3.3221e-05
5 *237:12 *1717:B 3.96512e-05
*RES
1 *1716:Y *1717:B 24.7918 
*END

*D_NET *257 0.000406641
*CONN
*I *1720:A I *D sky130_fd_sc_hd__nand2_1
*I *1718:Y O *D sky130_fd_sc_hd__nand2_1
*CAP
1 *1720:A 9.29244e-05
2 *1718:Y 9.29244e-05
3 *1720:A *1968:CLK 7.93392e-05
4 *1720:A *2141:A 6.46815e-05
5 *1968:D *1720:A 3.00829e-05
6 *185:154 *1720:A 4.66889e-05
*RES
1 *1718:Y *1720:A 22.0188 
*END

*D_NET *258 0.000489739
*CONN
*I *1720:B I *D sky130_fd_sc_hd__nand2_1
*I *1719:Y O *D sky130_fd_sc_hd__nand2_1
*CAP
1 *1720:B 0.000190338
2 *1719:Y 0.000190338
3 *1720:B *388:125 5.03545e-06
4 *1720:B *388:131 5.50879e-05
5 *1720:B *630:10 4.89392e-05
*RES
1 *1719:Y *1720:B 31.4388 
*END

*D_NET *259 0.000262231
*CONN
*I *1723:A I *D sky130_fd_sc_hd__nand2_1
*I *1721:Y O *D sky130_fd_sc_hd__nand2_1
*CAP
1 *1723:A 5.03088e-05
2 *1721:Y 5.03088e-05
3 *1723:A *1721:B 3.25906e-05
4 *1723:A *1723:B 1.64789e-05
5 *1723:A *2142:A 0.000107496
6 *1723:A *1111:46 5.04829e-06
*RES
1 *1721:Y *1723:A 20.355 
*END

*D_NET *260 0.000199769
*CONN
*I *1723:B I *D sky130_fd_sc_hd__nand2_1
*I *1722:Y O *D sky130_fd_sc_hd__nand2_1
*CAP
1 *1723:B 5.24213e-05
2 *1722:Y 5.24213e-05
3 *1723:B *1573:B 7.32658e-06
4 *1723:B *1722:A 1.09551e-05
5 *1723:B *1111:23 3.00829e-05
6 *1723:B *1111:46 3.00829e-05
7 *1723:A *1723:B 1.64789e-05
*RES
1 *1722:Y *1723:B 20.355 
*END

*D_NET *261 0.00155139
*CONN
*I *1726:A2 I *D sky130_fd_sc_hd__o21ai_1
*I *1823:A1 I *D sky130_fd_sc_hd__o21ai_0
*I *1724:Y O *D sky130_fd_sc_hd__inv_1
*CAP
1 *1726:A2 0.000320199
2 *1823:A1 0
3 *1724:Y 0.000189536
4 *261:10 0.000509735
5 *1726:A2 *1725:A 4.59001e-05
6 *1726:A2 *1725:B 0.00016195
7 *1726:A2 *1726:B1 0.000112367
8 *1726:A2 *1823:B1 8.06134e-05
9 *261:10 *1724:A 2.14494e-05
10 *261:10 *1823:B1 1.18084e-05
11 *261:10 *733:12 0
12 *261:10 *904:12 0
13 *2039:D *1726:A2 9.78334e-05
*RES
1 *1724:Y *261:10 17.4123 
2 *261:10 *1823:A1 13.7491 
3 *261:10 *1726:A2 23.2301 
*END

*D_NET *262 0.000382428
*CONN
*I *1726:B1 I *D sky130_fd_sc_hd__o21ai_1
*I *1725:Y O *D sky130_fd_sc_hd__nand2_1
*CAP
1 *1726:B1 0.00010718
2 *1725:Y 0.00010718
3 *1726:B1 *777:8 5.57012e-05
4 *1726:A2 *1726:B1 0.000112367
*RES
1 *1725:Y *1726:B1 29.7778 
*END

*D_NET *263 0.000264423
*CONN
*I *1729:A I *D sky130_fd_sc_hd__nand2_1
*I *1727:Y O *D sky130_fd_sc_hd__nand2_1
*CAP
1 *1729:A 3.66588e-05
2 *1727:Y 3.66588e-05
3 *1729:A *1727:A 1.61631e-05
4 *1729:A *1727:B 3.68307e-05
5 *1729:A *1729:B 1.64789e-05
6 *1729:A *2143:A 0.000113968
7 *1729:A *388:220 7.66391e-06
*RES
1 *1727:Y *1729:A 20.355 
*END

*D_NET *264 0.000259667
*CONN
*I *1729:B I *D sky130_fd_sc_hd__nand2_1
*I *1728:Y O *D sky130_fd_sc_hd__nand2_1
*CAP
1 *1729:B 8.67179e-05
2 *1728:Y 8.67179e-05
3 *1729:B *1638:B 6.97525e-05
4 *1729:A *1729:B 1.64789e-05
*RES
1 *1728:Y *1729:B 20.9096 
*END

*D_NET *265 0.000767195
*CONN
*I *1732:A I *D sky130_fd_sc_hd__nand2_1
*I *1730:Y O *D sky130_fd_sc_hd__nand2_1
*CAP
1 *1732:A 0.000301953
2 *1730:Y 0.000301953
3 *1732:A *388:220 6.27718e-05
4 *1732:A *661:10 2.30636e-05
5 *185:178 *1732:A 7.74525e-05
*RES
1 *1730:Y *1732:A 34.3456 
*END

*D_NET *266 0.000336172
*CONN
*I *1732:B I *D sky130_fd_sc_hd__nand2_1
*I *1731:Y O *D sky130_fd_sc_hd__nand2_1
*CAP
1 *1732:B 4.89883e-05
2 *1731:Y 4.89883e-05
3 *1732:B *1731:A 3.48445e-05
4 *1732:B *1937:CLK 0.000112367
5 *1732:B *1954:CLK 6.27718e-05
6 *1732:B *598:145 2.8212e-05
*RES
1 *1731:Y *1732:B 20.9096 
*END

*D_NET *267 0.00107195
*CONN
*I *1735:A2 I *D sky130_fd_sc_hd__o21ai_0
*I *1848:A1 I *D sky130_fd_sc_hd__o21ai_0
*I *1733:Y O *D sky130_fd_sc_hd__inv_1
*CAP
1 *1735:A2 1.59594e-05
2 *1848:A1 0.000228924
3 *1733:Y 5.85528e-05
4 *267:6 0.000303436
5 *1848:A1 *1734:A 6.46815e-05
6 *1848:A1 *1735:B1 4.61271e-05
7 *267:6 *1733:A 4.87237e-05
8 *267:6 *1735:B1 5.31465e-05
9 *267:6 *2156:A 0.000139065
10 *1848:A2 *1848:A1 6.46815e-05
11 *184:27 *1848:A1 3.35367e-05
12 *184:40 *1848:A1 1.51202e-05
*RES
1 *1733:Y *267:6 11.9137 
2 *267:6 *1848:A1 15.7597 
3 *267:6 *1735:A2 9.82786 
*END

*D_NET *268 0.000384996
*CONN
*I *1735:B1 I *D sky130_fd_sc_hd__o21ai_0
*I *1734:Y O *D sky130_fd_sc_hd__nand2_1
*CAP
1 *1735:B1 6.97135e-05
2 *1734:Y 6.97135e-05
3 *1735:B1 *1734:A 6.27718e-05
4 *1735:B1 *1111:414 1.88422e-05
5 *1848:A1 *1735:B1 4.61271e-05
6 *184:40 *1735:B1 6.46815e-05
7 *267:6 *1735:B1 5.31465e-05
*RES
1 *1734:Y *1735:B1 21.4401 
*END

*D_NET *269 0.00197816
*CONN
*I *1809:A1 I *D sky130_fd_sc_hd__o21ai_0
*I *1738:A2 I *D sky130_fd_sc_hd__o21ai_1
*I *1736:Y O *D sky130_fd_sc_hd__inv_1
*CAP
1 *1809:A1 0.000364234
2 *1738:A2 4.6973e-05
3 *1736:Y 0.000231707
4 *269:12 0.000642915
5 *1738:A2 *1558:B2 5.04829e-06
6 *1738:A2 *837:25 9.75148e-06
7 *1809:A1 *1738:B1 5.89592e-05
8 *1809:A1 *1742:B1 0.000190042
9 *1809:A1 *1808:B 2.71182e-05
10 *1809:A1 *1809:A2 2.74378e-05
11 *1809:A1 *1809:B1 2.29891e-05
12 *1809:A1 *837:25 6.78364e-06
13 *269:12 *1558:B2 8.36551e-05
14 *269:12 *1737:B 2.3339e-05
15 *269:12 *2037:CLK 6.11872e-05
16 *2037:D *1809:A1 0.000176017
*RES
1 *1736:Y *269:12 22.3304 
2 *269:12 *1738:A2 9.97254 
3 *269:12 *1809:A1 27.674 
*END

*D_NET *270 0.000346069
*CONN
*I *1738:B1 I *D sky130_fd_sc_hd__o21ai_1
*I *1737:Y O *D sky130_fd_sc_hd__nand2_1
*CAP
1 *1738:B1 7.00409e-05
2 *1737:Y 7.00409e-05
3 *1738:B1 *1737:B 0.000107496
4 *1738:B1 *837:25 3.95326e-05
5 *1809:A1 *1738:B1 5.89592e-05
*RES
1 *1737:Y *1738:B1 20.8855 
*END

*D_NET *271 0.000223265
*CONN
*I *1740:B I *D sky130_fd_sc_hd__nor2_1
*I *1739:Y O *D sky130_fd_sc_hd__nor2_1
*CAP
1 *1740:B 4.53391e-05
2 *1739:Y 4.53391e-05
3 *1740:B *482:21 1.05504e-05
4 *1740:B *848:29 9.62198e-05
5 *1740:B *910:63 2.58169e-05
*RES
1 *1739:Y *1740:B 20.355 
*END

*D_NET *272 0.00197485
*CONN
*I *1742:A2 I *D sky130_fd_sc_hd__a21oi_1
*I *1740:Y O *D sky130_fd_sc_hd__nor2_1
*CAP
1 *1742:A2 0.000616617
2 *1740:Y 0.000616617
3 *1742:A2 *1532:A2 0.000114584
4 *1742:A2 *1544:A2 9.94284e-06
5 *1742:A2 *1555:A1 2.35113e-05
6 *1742:A2 *1555:B1 5.0187e-05
7 *1742:A2 *1555:B2 0.000147742
8 *1742:A2 *1742:B1 0.000124242
9 *1742:A2 *1751:A1 3.74935e-05
10 *1742:A2 *2125:CLK 9.04668e-05
11 *1742:A2 *611:70 1.13359e-05
12 *1742:A2 *611:91 1.47291e-05
13 *1742:A2 *637:31 0
14 *1742:A2 *848:29 0.000117376
*RES
1 *1740:Y *1742:A2 42.8222 
*END

*D_NET *273 0.00260888
*CONN
*I *1742:B1 I *D sky130_fd_sc_hd__a21oi_1
*I *1741:Y O *D sky130_fd_sc_hd__a211oi_1
*CAP
1 *1742:B1 0.00067079
2 *1741:Y 0.00067079
3 *1742:B1 *1532:A2 0.000108506
4 *1742:B1 *1742:A1 0.00011502
5 *1742:B1 *1807:B1 5.50111e-05
6 *1742:B1 *1807:C1 6.27718e-05
7 *1742:B1 *323:10 0.000491736
8 *1742:B1 *787:14 0
9 *1742:B1 *790:22 6.18826e-05
10 *1742:A2 *1742:B1 0.000124242
11 *1809:A1 *1742:B1 0.000190042
12 *2037:D *1742:B1 5.80872e-05
*RES
1 *1741:Y *1742:B1 47.9502 
*END

*D_NET *274 0.000263444
*CONN
*I *1745:A I *D sky130_fd_sc_hd__nand2_1
*I *1743:Y O *D sky130_fd_sc_hd__nand2_1
*CAP
1 *1745:A 0.000114173
2 *1743:Y 0.000114173
3 *1745:A *1603:A2 0
4 *1745:A *1744:A 1.79672e-05
5 *1745:A *1111:65 1.71317e-05
*RES
1 *1743:Y *1745:A 30.1608 
*END

*D_NET *275 0.000222941
*CONN
*I *1745:B I *D sky130_fd_sc_hd__nand2_1
*I *1744:Y O *D sky130_fd_sc_hd__nand2_1
*CAP
1 *1745:B 5.1995e-05
2 *1744:Y 5.1995e-05
3 *1745:B *1527:B 3.01683e-06
4 *1745:B *1972:CLK 0.000115934
*RES
1 *1744:Y *1745:B 20.355 
*END

*D_NET *276 0.000201484
*CONN
*I *1748:A I *D sky130_fd_sc_hd__nand2_1
*I *1746:Y O *D sky130_fd_sc_hd__nand2_1
*CAP
1 *1748:A 5.93683e-05
2 *1746:Y 5.93683e-05
3 *1748:A *1746:B 6.23026e-05
4 *1748:A *1111:172 7.62098e-06
5 *1748:A *1111:181 1.28242e-05
*RES
1 *1746:Y *1748:A 20.355 
*END

*D_NET *277 0.000249685
*CONN
*I *1748:B I *D sky130_fd_sc_hd__nand2_1
*I *1747:Y O *D sky130_fd_sc_hd__nand2_1
*CAP
1 *1748:B 9.90738e-05
2 *1747:Y 9.90738e-05
3 *1748:B *1746:B 1.52796e-05
4 *1748:B *1747:B 2.58985e-05
5 *1748:B *1111:172 1.03594e-05
*RES
1 *1747:Y *1748:B 30.0631 
*END

*D_NET *278 0.000977512
*CONN
*I *1750:B I *D sky130_fd_sc_hd__nor2_1
*I *1749:Y O *D sky130_fd_sc_hd__nor2_1
*CAP
1 *1750:B 0.00034825
2 *1749:Y 0.00034825
3 *1750:B *1749:A 0
4 *1750:B *1751:A2 0
5 *1750:B *611:64 0.000201649
6 *1750:B *634:6 9.44631e-06
7 *1750:B *642:16 6.9916e-05
*RES
1 *1749:Y *1750:B 37.113 
*END

*D_NET *279 0.000201563
*CONN
*I *1752:A2 I *D sky130_fd_sc_hd__a21oi_1
*I *1750:Y O *D sky130_fd_sc_hd__nor2_1
*CAP
1 *1752:A2 3.48057e-05
2 *1750:Y 3.48057e-05
3 *1752:A2 *1541:A2 6.4945e-06
4 *1752:A2 *644:16 4.78808e-05
5 *1752:A2 *788:8 1.55025e-05
6 *1752:A2 *849:16 6.20734e-05
*RES
1 *1750:Y *1752:A2 20.355 
*END

*D_NET *280 0.000632643
*CONN
*I *1752:B1 I *D sky130_fd_sc_hd__a21oi_1
*I *1751:Y O *D sky130_fd_sc_hd__a211oi_1
*CAP
1 *1752:B1 0.000107836
2 *1751:Y 0.000107836
3 *1752:B1 *1751:A2 0.000162583
4 *1752:B1 *458:206 0.000127194
5 *1752:B1 *776:18 2.6046e-05
6 *1752:B1 *776:22 0.000101148
*RES
1 *1751:Y *1752:B1 31.5781 
*END

*D_NET *281 0.000117007
*CONN
*I *1754:A I *D sky130_fd_sc_hd__clkinv_1
*I *1753:Y O *D sky130_fd_sc_hd__xnor2_1
*CAP
1 *1754:A 4.55656e-05
2 *1753:Y 4.55656e-05
3 *1754:A *867:18 2.58757e-05
*RES
1 *1753:Y *1754:A 19.2217 
*END

*D_NET *282 0.00372736
*CONN
*I *1763:B1 I *D sky130_fd_sc_hd__a21oi_1
*I *1776:B1 I *D sky130_fd_sc_hd__a21oi_1
*I *1775:B1 I *D sky130_fd_sc_hd__a21oi_1
*I *1762:A I *D sky130_fd_sc_hd__nor2_1
*I *1754:Y O *D sky130_fd_sc_hd__clkinv_1
*CAP
1 *1763:B1 0.000378935
2 *1776:B1 0.000257402
3 *1775:B1 6.316e-05
4 *1762:A 0
5 *1754:Y 0.000150551
6 *282:19 0.0005377
7 *282:8 0.000236207
8 *282:6 0.000548555
9 *1763:B1 *1760:A 6.5568e-05
10 *1763:B1 *1760:B 3.95928e-05
11 *1763:B1 *1761:A 6.08467e-05
12 *1763:B1 *1761:B 1.58551e-05
13 *1763:B1 *1762:B 1.87865e-05
14 *1763:B1 *288:6 7.85499e-05
15 *1775:B1 *2122:D 2.20583e-05
16 *1776:B1 cio_gpio_en_o[1] 0.000503562
17 *1776:B1 *2121:CLK 0
18 *1776:B1 *2122:D 0
19 *1776:B1 *1122:90 0
20 *282:6 *1762:B 7.00638e-05
21 *282:6 *2124:D 5.03013e-06
22 *282:6 *867:18 0.000209636
23 *282:8 *1762:B 1.02267e-05
24 *282:19 cio_gpio_en_o[1] 0.000409678
25 *282:19 *1736:A 3.52873e-06
26 *282:19 *1762:B 1.83992e-05
27 *282:19 *2122:D 0
28 *282:19 *867:10 2.34677e-05
29 *282:19 *1106:28 0
*RES
1 *1754:Y *282:6 13.3002 
2 *282:6 *282:8 0.578717 
3 *282:8 *1762:A 9.24915 
4 *282:8 *282:19 12.4537 
5 *282:19 *1775:B1 15.0271 
6 *282:19 *1776:B1 22.6404 
7 *282:6 *1763:B1 18.2916 
*END

*D_NET *283 0.00135127
*CONN
*I *1760:A I *D sky130_fd_sc_hd__nor2_1
*I *1764:A2 I *D sky130_fd_sc_hd__o31a_1
*I *1763:A1 I *D sky130_fd_sc_hd__a21oi_1
*I *1755:Y O *D sky130_fd_sc_hd__inv_1
*CAP
1 *1760:A 4.64702e-05
2 *1764:A2 0
3 *1763:A1 0.000139374
4 *1755:Y 0.000106296
5 *283:6 0.0001992
6 *1760:A *1760:B 0.000160362
7 *1763:A1 cio_gpio_o[0] 0.000138843
8 *1763:A1 *1764:A1 2.16355e-05
9 *1763:A1 *1764:A3 1.41976e-05
10 *1763:A1 *1807:A2 0.000107496
11 *1763:A1 *2123:D 5.51483e-06
12 *1763:A1 *790:22 0.00014244
13 *283:6 *1755:A 5.9197e-05
14 *283:6 *1764:A3 4.66492e-05
15 *283:6 *1807:A2 6.08467e-05
16 *283:6 *2123:D 3.71814e-05
17 *1763:B1 *1760:A 6.5568e-05
*RES
1 *1755:Y *283:6 12.4683 
2 *283:6 *1763:A1 22.1896 
3 *283:6 *1764:A2 9.24915 
4 *1763:A1 *1760:A 20.3309 
*END

*D_NET *284 0.00255061
*CONN
*I *1807:A2 I *D sky130_fd_sc_hd__o2111ai_1
*I *1758:A I *D sky130_fd_sc_hd__nor2_1
*I *1773:A I *D sky130_fd_sc_hd__nand2_1
*I *1756:Y O *D sky130_fd_sc_hd__inv_1
*CAP
1 *1807:A2 0.000313066
2 *1758:A 7.89471e-05
3 *1773:A 0
4 *1756:Y 1.82334e-05
5 *284:12 0.000204828
6 *284:6 0.00045718
7 *1758:A *1758:B 4.22033e-05
8 *1758:A *1759:A 1.03403e-05
9 *1758:A *863:14 0.000161172
10 *1807:A2 cio_gpio_o[0] 5.20716e-05
11 *1807:A2 *1764:A1 1.54577e-05
12 *1807:A2 *1764:B1 0.000240318
13 *1807:A2 *287:15 7.37562e-05
14 *1807:A2 *287:21 0.000143175
15 *1807:A2 *788:14 0
16 *1807:A2 *1125:31 1.47583e-05
17 *284:6 *1764:A1 1.10937e-05
18 *284:12 *1756:A 8.0516e-06
19 *284:12 *1774:B 0.000122098
20 *284:12 *1807:C1 5.88662e-05
21 *284:12 *285:12 2.04806e-05
22 *284:12 *790:22 0.00033617
23 *1763:A1 *1807:A2 0.000107496
24 *283:6 *1807:A2 6.08467e-05
*RES
1 *1756:Y *284:6 9.69524 
2 *284:6 *284:12 14.9845 
3 *284:12 *1773:A 9.24915 
4 *284:12 *1758:A 12.2392 
5 *284:6 *1807:A2 27.5907 
*END

*D_NET *285 0.000846912
*CONN
*I *1773:B I *D sky130_fd_sc_hd__nand2_1
*I *1758:B I *D sky130_fd_sc_hd__nor2_1
*I *1757:Y O *D sky130_fd_sc_hd__inv_1
*CAP
1 *1773:B 0
2 *1758:B 0.000114312
3 *1757:Y 0.000125819
4 *285:12 0.000240131
5 *1758:B *863:14 2.20702e-05
6 *285:12 *1756:A 0.000117754
7 *285:12 *1774:B 7.50872e-05
8 *285:12 *1775:A2 8.90544e-05
9 *1758:A *1758:B 4.22033e-05
10 *284:12 *285:12 2.04806e-05
*RES
1 *1757:Y *285:12 21.4971 
2 *285:12 *1758:B 12.2392 
3 *285:12 *1773:B 9.24915 
*END

*D_NET *286 0.000300961
*CONN
*I *1759:A I *D sky130_fd_sc_hd__clkinv_1
*I *1758:Y O *D sky130_fd_sc_hd__nor2_1
*CAP
1 *1759:A 9.27778e-05
2 *1758:Y 9.27778e-05
3 *1759:A cio_gpio_o[0] 7.50722e-05
4 *1759:A *863:14 2.99929e-05
5 *1758:A *1759:A 1.03403e-05
*RES
1 *1758:Y *1759:A 29.6384 
*END

*D_NET *287 0.002161
*CONN
*I *1764:A3 I *D sky130_fd_sc_hd__o31a_1
*I *1763:A2 I *D sky130_fd_sc_hd__a21oi_1
*I *1760:B I *D sky130_fd_sc_hd__nor2_1
*I *1774:A I *D sky130_fd_sc_hd__nand2_1
*I *1759:Y O *D sky130_fd_sc_hd__clkinv_1
*CAP
1 *1764:A3 3.35949e-05
2 *1763:A2 0
3 *1760:B 0.000137956
4 *1774:A 8.60914e-05
5 *1759:Y 0
6 *287:21 0.000225461
7 *287:15 0.000237654
8 *287:4 0.000202646
9 *1760:B *1764:B1 3.82228e-05
10 *1760:B *2123:CLK 3.13805e-06
11 *1760:B *288:6 1.55025e-05
12 *1760:B *290:6 2.57847e-05
13 *1764:A3 *1764:A1 3.5063e-05
14 *1764:A3 *2123:D 2.16355e-05
15 *1774:A *863:14 0.000207266
16 *287:15 cio_gpio_o[0] 0.00022878
17 *287:15 *2507:A 3.10576e-06
18 *287:15 *788:14 0
19 *287:15 *863:14 2.95757e-05
20 *287:21 cio_gpio_o[0] 0.000139817
21 *287:21 *1764:B1 1.19705e-05
22 *1760:A *1760:B 0.000160362
23 *1763:A1 *1764:A3 1.41976e-05
24 *1763:B1 *1760:B 3.95928e-05
25 *1807:A2 *287:15 7.37562e-05
26 *1807:A2 *287:21 0.000143175
27 *283:6 *1764:A3 4.66492e-05
*RES
1 *1759:Y *287:4 9.24915 
2 *287:4 *1774:A 11.6364 
3 *287:4 *287:15 8.82351 
4 *287:15 *287:21 7.8859 
5 *287:21 *1760:B 13.903 
6 *287:21 *1763:A2 9.24915 
7 *287:15 *1764:A3 15.0513 
*END

*D_NET *288 0.0011146
*CONN
*I *1772:A I *D sky130_fd_sc_hd__nand2_1
*I *1761:B I *D sky130_fd_sc_hd__nor2_1
*I *1760:Y O *D sky130_fd_sc_hd__nor2_1
*CAP
1 *1772:A 0.00012576
2 *1761:B 0.000125881
3 *1760:Y 0.000128437
4 *288:6 0.000380077
5 *1761:B *1761:A 2.16355e-05
6 *1761:B *1762:B 1.41976e-05
7 *1772:A *787:14 0.0002087
8 *1760:B *288:6 1.55025e-05
9 *1763:B1 *1761:B 1.58551e-05
10 *1763:B1 *288:6 7.85499e-05
*RES
1 *1760:Y *288:6 12.7456 
2 *288:6 *1761:B 12.0704 
3 *288:6 *1772:A 22.1574 
*END

*D_NET *289 0.000651924
*CONN
*I *1762:B I *D sky130_fd_sc_hd__nor2_1
*I *1761:Y O *D sky130_fd_sc_hd__nor2_1
*CAP
1 *1762:B 0.000258919
2 *1761:Y 0.000258919
3 *1762:B *2124:D 2.41274e-06
4 *1761:B *1762:B 1.41976e-05
5 *1763:B1 *1762:B 1.87865e-05
6 *282:6 *1762:B 7.00638e-05
7 *282:8 *1762:B 1.02267e-05
8 *282:19 *1762:B 1.83992e-05
*RES
1 *1761:Y *1762:B 23.5621 
*END

*D_NET *290 0.00136904
*CONN
*I *1764:B1 I *D sky130_fd_sc_hd__o31a_1
*I *1807:D1 I *D sky130_fd_sc_hd__o2111ai_1
*I *1763:Y O *D sky130_fd_sc_hd__a21oi_1
*CAP
1 *1764:B1 0.000301154
2 *1807:D1 6.12868e-05
3 *1763:Y 4.5782e-05
4 *290:6 0.000408223
5 *1764:B1 *2123:CLK 4.28856e-07
6 *1764:B1 *788:14 2.70061e-05
7 *1764:B1 *1125:31 5.91501e-05
8 *1807:D1 *1807:C1 3.17114e-05
9 *1807:D1 *790:22 0.000118002
10 *1760:B *1764:B1 3.82228e-05
11 *1760:B *290:6 2.57847e-05
12 *1807:A2 *1764:B1 0.000240318
13 *287:21 *1764:B1 1.19705e-05
*RES
1 *1763:Y *290:6 9.97254 
2 *290:6 *1807:D1 20.4964 
3 *290:6 *1764:B1 25.5145 
*END

*D_NET *291 0.00183559
*CONN
*I *1767:A2 I *D sky130_fd_sc_hd__o21ai_1
*I *1828:A1 I *D sky130_fd_sc_hd__o21ai_0
*I *1765:Y O *D sky130_fd_sc_hd__inv_1
*CAP
1 *1767:A2 0.000187025
2 *1828:A1 2.34978e-05
3 *1765:Y 0.000335184
4 *291:10 0.000545707
5 *1767:A2 *1766:B 0.000334641
6 *1767:A2 *611:152 4.05936e-05
7 *1767:A2 *777:8 7.91715e-05
8 *1767:A2 *840:18 1.91391e-05
9 *1828:A1 *1766:B 7.01935e-06
10 *291:10 *1765:A 1.94236e-05
11 *291:10 *777:8 0.00012049
12 *2040:D *1828:A1 2.58757e-05
13 *2040:D *291:10 9.78191e-05
*RES
1 *1765:Y *291:10 23.0865 
2 *291:10 *1828:A1 14.4725 
3 *291:10 *1767:A2 20.5642 
*END

*D_NET *292 0.000195857
*CONN
*I *1767:B1 I *D sky130_fd_sc_hd__o21ai_1
*I *1766:Y O *D sky130_fd_sc_hd__nand2_1
*CAP
1 *1767:B1 3.20691e-05
2 *1766:Y 3.20691e-05
3 *1767:B1 *1766:A 1.61631e-05
4 *1767:B1 *1766:B 6.08467e-05
5 *1767:B1 *778:18 4.31703e-05
6 *1767:B1 *840:22 1.15389e-05
*RES
1 *1766:Y *1767:B1 19.7763 
*END

*D_NET *293 0.000308727
*CONN
*I *1769:B I *D sky130_fd_sc_hd__nor2_1
*I *1768:Y O *D sky130_fd_sc_hd__nor2_1
*CAP
1 *1769:B 0.000109244
2 *1768:Y 0.000109244
3 *1769:B *1768:B 3.30997e-05
4 *1769:B *1770:A2 4.80635e-06
5 *1769:B *1771:A2 3.68307e-05
6 *1769:B *777:14 1.55033e-05
*RES
1 *1768:Y *1769:B 21.4642 
*END

*D_NET *294 0.000233449
*CONN
*I *1771:A2 I *D sky130_fd_sc_hd__a21oi_1
*I *1769:Y O *D sky130_fd_sc_hd__nor2_1
*CAP
1 *1771:A2 5.22369e-05
2 *1769:Y 5.22369e-05
3 *1771:A2 *1768:B 3.13805e-06
4 *1771:A2 *1771:A1 3.63169e-05
5 *1771:A2 *777:14 5.26896e-05
6 *1769:B *1771:A2 3.68307e-05
*RES
1 *1769:Y *1771:A2 20.355 
*END

*D_NET *295 0.000148699
*CONN
*I *1771:B1 I *D sky130_fd_sc_hd__a21oi_1
*I *1770:Y O *D sky130_fd_sc_hd__a211oi_1
*CAP
1 *1771:B1 1.04242e-05
2 *1770:Y 1.04242e-05
3 *1771:B1 *1770:A2 6.50727e-05
4 *1771:B1 *777:16 6.27782e-05
*RES
1 *1770:Y *1771:B1 19.2217 
*END

*D_NET *296 0.00202029
*CONN
*I *1776:A1 I *D sky130_fd_sc_hd__a21oi_1
*I *1775:A1 I *D sky130_fd_sc_hd__a21oi_1
*I *1772:Y O *D sky130_fd_sc_hd__nand2_1
*CAP
1 *1776:A1 0.000216831
2 *1775:A1 0
3 *1772:Y 0.000100266
4 *296:10 0.000317097
5 *1776:A1 cio_gpio_en_o[0] 0.000446939
6 *1776:A1 *1776:A2 6.08467e-05
7 *1776:A1 *2121:D 1.21461e-06
8 *1776:A1 *787:14 0.000457664
9 *296:10 cio_gpio_en_o[0] 0.000208915
10 *296:10 *1764:A1 5.20546e-06
11 *296:10 *787:14 0.000205317
*RES
1 *1772:Y *296:10 17.9655 
2 *296:10 *1775:A1 13.7491 
3 *296:10 *1776:A1 23.0879 
*END

*D_NET *297 0.00051503
*CONN
*I *1774:B I *D sky130_fd_sc_hd__nand2_1
*I *1773:Y O *D sky130_fd_sc_hd__nand2_1
*CAP
1 *1774:B 7.50336e-05
2 *1773:Y 7.50336e-05
3 *1774:B *1756:A 1.7286e-05
4 *1774:B *1757:A 1.61631e-05
5 *1774:B *1775:A2 6.50586e-05
6 *1774:B *863:14 6.92705e-05
7 *284:12 *1774:B 0.000122098
8 *285:12 *1774:B 7.50872e-05
*RES
1 *1773:Y *1774:B 30.4689 
*END

*D_NET *298 0.000705175
*CONN
*I *1775:A2 I *D sky130_fd_sc_hd__a21oi_1
*I *1774:Y O *D sky130_fd_sc_hd__nand2_1
*CAP
1 *1775:A2 0.000244366
2 *1774:Y 0.000244366
3 *1775:A2 *1757:A 6.23307e-05
4 *1774:B *1775:A2 6.50586e-05
5 *285:12 *1775:A2 8.90544e-05
*RES
1 *1774:Y *1775:A2 24.816 
*END

*D_NET *299 0.000905234
*CONN
*I *1790:A I *D sky130_fd_sc_hd__nor2_1
*I *1784:A1 I *D sky130_fd_sc_hd__a21oi_1
*I *1777:Y O *D sky130_fd_sc_hd__inv_1
*CAP
1 *1790:A 0.000118891
2 *1784:A1 0
3 *1777:Y 9.93081e-05
4 *299:12 0.000218199
5 *1790:A *1784:A2 0.000109421
6 *1790:A *305:15 6.27332e-05
7 *1790:A *309:10 4.58003e-05
8 *299:12 *1788:B1 6.28402e-05
9 *299:12 *872:18 3.8519e-05
10 *299:12 *877:29 0.000149522
*RES
1 *1777:Y *299:12 21.3577 
2 *299:12 *1784:A1 9.24915 
3 *299:12 *1790:A 13.3484 
*END

*D_NET *300 0.00121626
*CONN
*I *1780:A I *D sky130_fd_sc_hd__nor2_1
*I *1787:A1 I *D sky130_fd_sc_hd__a21oi_1
*I *1778:Y O *D sky130_fd_sc_hd__inv_1
*CAP
1 *1780:A 0
2 *1787:A1 0.000368877
3 *1778:Y 0.000117209
4 *300:8 0.000486086
5 *1787:A1 *1778:A 6.34773e-05
6 *1787:A1 *1787:A2 8.61429e-05
7 *1787:A1 *1938:CLK 6.08167e-05
8 *1787:A1 *301:12 1.59362e-06
9 *300:8 *1778:A 3.20544e-05
*RES
1 *1778:Y *300:8 11.9378 
2 *300:8 *1787:A1 26.6209 
3 *300:8 *1780:A 9.24915 
*END

*D_NET *301 0.00194573
*CONN
*I *1791:A2 I *D sky130_fd_sc_hd__a21oi_1
*I *1780:B I *D sky130_fd_sc_hd__nor2_1
*I *1787:A2 I *D sky130_fd_sc_hd__a21oi_1
*I *1779:Y O *D sky130_fd_sc_hd__nand2_1
*CAP
1 *1791:A2 0
2 *1780:B 2.99284e-05
3 *1787:A2 0.000217268
4 *1779:Y 0.000169419
5 *301:12 0.000446296
6 *301:10 0.000368518
7 *1780:B *1781:A 1.43832e-05
8 *1787:A2 *1787:B1 9.69925e-05
9 *1787:A2 *1938:CLK 0
10 *301:10 axi_lite_o[12] 0.000127164
11 *301:10 *1791:A1 7.86847e-05
12 *301:10 *1793:A 4.31703e-05
13 *301:10 *1795:A 0
14 *301:12 axi_lite_o[12] 0.000153225
15 *301:12 *1787:B1 3.79647e-05
16 *301:12 *305:28 7.49773e-05
17 *1787:A1 *1787:A2 8.61429e-05
18 *1787:A1 *301:12 1.59362e-06
19 *117:14 *1787:A2 0
*RES
1 *1779:Y *301:10 17.829 
2 *301:10 *301:12 6.81502 
3 *301:12 *1787:A2 20.5642 
4 *301:12 *1780:B 14.4725 
5 *301:10 *1791:A2 13.7491 
*END

*D_NET *302 0.00140431
*CONN
*I *1781:A I *D sky130_fd_sc_hd__inv_1
*I *1780:Y O *D sky130_fd_sc_hd__nor2_1
*CAP
1 *1781:A 0.000487614
2 *1780:Y 0.000487614
3 *1781:A *1787:B1 0.000114345
4 *1781:A *2116:RESET_B 5.90501e-05
5 *1781:A *2116:CLK 5.50208e-05
6 *1781:A *303:10 5.82207e-05
7 *1781:A *1126:8 0.000117703
8 *1781:A *1126:79 1.03594e-05
9 *1780:B *1781:A 1.43832e-05
*RES
1 *1780:Y *1781:A 38.7458 
*END

*D_NET *303 0.0021657
*CONN
*I *1788:A2 I *D sky130_fd_sc_hd__o21a_1
*I *1790:B I *D sky130_fd_sc_hd__nor2_1
*I *1784:A2 I *D sky130_fd_sc_hd__a21oi_1
*I *1781:Y O *D sky130_fd_sc_hd__inv_1
*CAP
1 *1788:A2 0.000143037
2 *1790:B 0
3 *1784:A2 2.28265e-05
4 *1781:Y 0.000228079
5 *303:12 2.28265e-05
6 *303:10 0.000371116
7 *1784:A2 *305:15 0.000109421
8 *1788:A2 *1788:B1 0.000365661
9 *1788:A2 *2115:D 0.00024065
10 *1788:A2 *872:18 5.27093e-05
11 *303:10 *1788:B1 0.000139684
12 *303:10 *307:10 0.000169817
13 *303:10 *872:18 0.000132229
14 *1781:A *303:10 5.82207e-05
15 *1790:A *1784:A2 0.000109421
*RES
1 *1781:Y *303:10 20.8737 
2 *303:10 *303:12 4.5 
3 *303:12 *1784:A2 10.5271 
4 *303:12 *1790:B 9.24915 
5 *303:10 *1788:A2 20.5642 
*END

*D_NET *304 0.000104327
*CONN
*I *1783:A I *D sky130_fd_sc_hd__clkinv_1
*I *1782:Y O *D sky130_fd_sc_hd__xnor2_1
*CAP
1 *1783:A 5.21634e-05
2 *1782:Y 5.21634e-05
*RES
1 *1782:Y *1783:A 19.2217 
*END

*D_NET *305 0.00391736
*CONN
*I *1795:A I *D sky130_fd_sc_hd__nor2_1
*I *1792:A I *D sky130_fd_sc_hd__nor2_1
*I *1787:B1 I *D sky130_fd_sc_hd__a21oi_1
*I *1784:B1 I *D sky130_fd_sc_hd__a21oi_1
*I *1783:Y O *D sky130_fd_sc_hd__clkinv_1
*CAP
1 *1795:A 0.000442252
2 *1792:A 1.5337e-05
3 *1787:B1 0.000261769
4 *1784:B1 0
5 *1783:Y 0.000119078
6 *305:28 0.000609258
7 *305:15 0.000731606
8 *305:6 0.000437247
9 *1787:B1 *1938:CLK 1.44467e-05
10 *1787:B1 *1126:8 2.61592e-05
11 *1787:B1 *1126:10 2.57102e-05
12 *1787:B1 *1126:79 9.66028e-05
13 *1792:A *1791:B1 6.08467e-05
14 *1792:A *310:10 2.65831e-05
15 *1795:A *1788:A1 5.42115e-05
16 *1795:A *1788:B1 6.50586e-05
17 *1795:A *1791:A1 2.12377e-05
18 *1795:A *1794:A 5.56461e-05
19 *1795:A *1794:B 7.70521e-05
20 *1795:A *1810:A 2.16355e-05
21 *1795:A *2114:RESET_B 3.60363e-05
22 *1795:A *312:8 5.5525e-06
23 *1795:A *1126:79 5.05252e-05
24 *305:15 *2174:A 6.08467e-05
25 *305:15 *309:10 2.77625e-06
26 *305:28 *1126:79 0.000103452
27 *1781:A *1787:B1 0.000114345
28 *1784:A2 *305:15 0.000109421
29 *1787:A2 *1787:B1 9.69925e-05
30 *1790:A *305:15 6.27332e-05
31 *301:10 *1795:A 0
32 *301:12 *1787:B1 3.79647e-05
33 *301:12 *305:28 7.49773e-05
*RES
1 *1783:Y *305:6 11.6364 
2 *305:6 *1784:B1 9.24915 
3 *305:6 *305:15 11.324 
4 *305:15 *1787:B1 22.6404 
5 *305:15 *305:28 5.05631 
6 *305:28 *1792:A 14.4725 
7 *305:28 *1795:A 24.5325 
*END

*D_NET *306 0.000288417
*CONN
*I *1786:B1 I *D sky130_fd_sc_hd__o21ai_0
*I *1785:Y O *D sky130_fd_sc_hd__nand2_1
*CAP
1 *1786:B1 2.72391e-05
2 *1785:Y 2.72391e-05
3 *1786:B1 *1785:A 7.19887e-05
4 *1786:B1 *456:10 0.00016195
*RES
1 *1785:Y *1786:B1 20.3309 
*END

*D_NET *307 0.00368492
*CONN
*I *1788:B1 I *D sky130_fd_sc_hd__o21a_1
*I *1811:C I *D sky130_fd_sc_hd__nand3_1
*I *1787:Y O *D sky130_fd_sc_hd__a21oi_1
*CAP
1 *1788:B1 0.000260148
2 *1811:C 0.000269192
3 *1787:Y 0.000430638
4 *307:10 0.000959978
5 *1788:B1 *1788:A1 2.65667e-05
6 *1788:B1 *872:18 3.98548e-05
7 *1788:B1 *877:29 3.18543e-05
8 *1811:C *1811:A 2.29454e-05
9 *1811:C *1811:B 0.00018734
10 *1811:C *326:6 6.3657e-05
11 *307:10 *1938:CLK 0.000122378
12 *307:10 *2117:RESET_B 0
13 *307:10 *2174:A 0
14 *307:10 *872:18 2.3186e-05
15 *307:10 *877:10 0.000362917
16 *307:10 *877:29 2.21564e-05
17 *307:10 *1106:233 5.41377e-05
18 *307:10 *1126:25 4.91225e-06
19 *1788:A2 *1788:B1 0.000365661
20 *1795:A *1788:B1 6.50586e-05
21 *299:12 *1788:B1 6.28402e-05
22 *303:10 *1788:B1 0.000139684
23 *303:10 *307:10 0.000169817
*RES
1 *1787:Y *307:10 26.4155 
2 *307:10 *1811:C 20.5732 
3 *307:10 *1788:B1 23.7791 
*END

*D_NET *308 0.00111567
*CONN
*I *1791:A1 I *D sky130_fd_sc_hd__a21oi_1
*I *1789:X O *D sky130_fd_sc_hd__or2_0
*CAP
1 *1791:A1 0.000435964
2 *1789:X 0.000435964
3 *1791:A1 axi_lite_o[12] 8.25162e-05
4 *1791:A1 *1794:B 0
5 *1791:A1 *874:6 6.13051e-05
6 *1791:A1 *1106:173 0
7 *1795:A *1791:A1 2.12377e-05
8 *301:10 *1791:A1 7.86847e-05
*RES
1 *1789:X *1791:A1 36.2881 
*END

*D_NET *309 0.00163108
*CONN
*I *1791:B1 I *D sky130_fd_sc_hd__a21oi_1
*I *1794:B I *D sky130_fd_sc_hd__nor2_1
*I *1790:Y O *D sky130_fd_sc_hd__nor2_1
*CAP
1 *1791:B1 7.05531e-05
2 *1794:B 0.000140438
3 *1790:Y 0.000225013
4 *309:10 0.000436005
5 *1791:B1 *310:10 1.80122e-05
6 *1791:B1 *1126:79 6.08467e-05
7 *1794:B *312:8 2.41274e-06
8 *1794:B *1106:173 0.000153566
9 *1794:B *1126:79 7.77309e-06
10 *309:10 *2174:A 1.03403e-05
11 *309:10 *1106:173 0.000149052
12 *309:10 *1126:79 0.000170592
13 *1790:A *309:10 4.58003e-05
14 *1791:A1 *1794:B 0
15 *1792:A *1791:B1 6.08467e-05
16 *1795:A *1794:B 7.70521e-05
17 *305:15 *309:10 2.77625e-06
*RES
1 *1790:Y *309:10 19.2141 
2 *309:10 *1794:B 17.8678 
3 *309:10 *1791:B1 15.5817 
*END

*D_NET *310 0.00174328
*CONN
*I *1810:B I *D sky130_fd_sc_hd__nor2_1
*I *1792:B I *D sky130_fd_sc_hd__nor2_1
*I *1791:Y O *D sky130_fd_sc_hd__a21oi_1
*CAP
1 *1810:B 0.000218207
2 *1792:B 0
3 *1791:Y 0.000167912
4 *310:10 0.000386119
5 *1810:B *1777:A 7.88183e-05
6 *1810:B *1810:A 0.000116755
7 *1810:B *1811:A 2.96784e-06
8 *1810:B *2113:CLK 0.000169733
9 *1810:B *2115:D 2.77625e-06
10 *1810:B *872:18 5.67504e-05
11 *1810:B *1126:79 0.000481668
12 *310:10 *2115:D 1.41976e-05
13 *310:10 *1126:79 2.77625e-06
14 *1791:B1 *310:10 1.80122e-05
15 *1792:A *310:10 2.65831e-05
*RES
1 *1791:Y *310:10 13.2037 
2 *310:10 *1792:B 9.24915 
3 *310:10 *1810:B 17.7852 
*END

*D_NET *311 0.000280842
*CONN
*I *1794:A I *D sky130_fd_sc_hd__nor2_1
*I *1793:Y O *D sky130_fd_sc_hd__inv_1
*CAP
1 *1794:A 7.42342e-05
2 *1793:Y 7.42342e-05
3 *1794:A *1788:A1 1.03434e-05
4 *1794:A *1793:A 6.63843e-05
5 *1795:A *1794:A 5.56461e-05
*RES
1 *1793:Y *1794:A 21.1869 
*END

*D_NET *312 0.00196139
*CONN
*I *1810:A I *D sky130_fd_sc_hd__nor2_1
*I *1795:B I *D sky130_fd_sc_hd__nor2_1
*I *1794:Y O *D sky130_fd_sc_hd__nor2_1
*CAP
1 *1810:A 0.000146312
2 *1795:B 3.59638e-05
3 *1794:Y 0.000376328
4 *312:8 0.000558604
5 *1795:B *2114:RESET_B 4.04393e-05
6 *1810:A *1788:A1 0.000177819
7 *1810:A *877:29 8.62625e-06
8 *1810:A *879:10 0
9 *1810:A *1126:92 0.000144546
10 *312:8 *1788:A1 0.000326398
11 *1794:B *312:8 2.41274e-06
12 *1795:A *1810:A 2.16355e-05
13 *1795:A *312:8 5.5525e-06
14 *1810:B *1810:A 0.000116755
*RES
1 *1794:Y *312:8 15.9526 
2 *312:8 *1795:B 10.5513 
3 *312:8 *1810:A 24.2981 
*END

*D_NET *313 0.000629461
*CONN
*I *1801:A I *D sky130_fd_sc_hd__nor2_1
*I *1796:Y O *D sky130_fd_sc_hd__inv_1
*CAP
1 *1801:A 0.000231098
2 *1796:Y 0.000231098
3 *1801:A *1801:B 8.62625e-06
4 *1801:A *1802:A 0.000120544
5 *1801:A *1820:A1 3.66465e-05
6 *1801:A *592:38 1.44836e-06
*RES
1 *1796:Y *1801:A 33.9289 
*END

*D_NET *314 0.000992743
*CONN
*I *1816:A I *D sky130_fd_sc_hd__nand2_1
*I *1799:A I *D sky130_fd_sc_hd__nor2_1
*I *1797:Y O *D sky130_fd_sc_hd__inv_1
*CAP
1 *1816:A 0.000193326
2 *1799:A 6.05216e-05
3 *1797:Y 0.000196928
4 *314:10 0.000450775
5 *1816:A *1820:A2 9.11926e-05
*RES
1 *1797:Y *314:10 17.4123 
2 *314:10 *1799:A 15.0271 
3 *314:10 *1816:A 18.1049 
*END

*D_NET *315 0.00121596
*CONN
*I *1816:B I *D sky130_fd_sc_hd__nand2_1
*I *1815:A I *D sky130_fd_sc_hd__nor2_1
*I *1799:B I *D sky130_fd_sc_hd__nor2_1
*I *1798:Y O *D sky130_fd_sc_hd__inv_1
*CAP
1 *1816:B 0.000135702
2 *1815:A 8.83222e-05
3 *1799:B 0
4 *1798:Y 0.000178939
5 *315:16 8.83222e-05
6 *315:14 0.000314641
7 *1815:A *1800:A 7.59488e-05
8 *1815:A *1819:A2 0.000208062
9 *1816:B *1801:B 5.03545e-06
10 *1816:B *1820:A2 8.01546e-06
11 *1816:B *317:10 5.44945e-05
12 *315:14 *1798:A 1.10937e-05
13 *315:14 *317:10 2.29457e-05
14 *315:14 *888:8 2.4433e-05
*RES
1 *1798:Y *315:14 17.7615 
2 *315:14 *315:16 4.5 
3 *315:16 *1799:B 9.24915 
4 *315:16 *1815:A 12.7938 
5 *315:14 *1816:B 16.8269 
*END

*D_NET *316 0.0018543
*CONN
*I *1819:A2 I *D sky130_fd_sc_hd__o21ai_0
*I *1800:A I *D sky130_fd_sc_hd__inv_1
*I *1799:Y O *D sky130_fd_sc_hd__nor2_1
*CAP
1 *1819:A2 0.000516847
2 *1800:A 8.24506e-05
3 *1799:Y 0.000599298
4 *1800:A *317:10 3.75221e-05
5 *1819:A2 *1815:B 2.58616e-05
6 *1819:A2 *1818:A 4.63668e-05
7 *1819:A2 *1899:B 8.96342e-05
8 *1819:A2 *1900:A 0.000109421
9 *1819:A2 *322:12 1.07549e-05
10 *1819:A2 *329:10 5.21309e-05
11 *1815:A *1800:A 7.59488e-05
12 *1815:A *1819:A2 0.000208062
*RES
1 *1799:Y *1800:A 21.2291 
2 *1799:Y *1819:A2 37.1242 
*END

*D_NET *317 0.00139681
*CONN
*I *1801:B I *D sky130_fd_sc_hd__nor2_1
*I *1817:A2 I *D sky130_fd_sc_hd__a21oi_1
*I *1800:Y O *D sky130_fd_sc_hd__inv_1
*CAP
1 *1801:B 0.000230559
2 *1817:A2 0
3 *1800:Y 0.000171999
4 *317:10 0.000402558
5 *1801:B *1796:A 4.4462e-06
6 *1801:B *1820:A1 0.000368797
7 *1801:B *1820:A2 0
8 *1801:B *320:10 0
9 *317:10 *1796:A 2.24632e-05
10 *317:10 *888:8 6.73597e-05
11 *1800:A *317:10 3.75221e-05
12 *1801:A *1801:B 8.62625e-06
13 *1816:B *1801:B 5.03545e-06
14 *1816:B *317:10 5.44945e-05
15 *315:14 *317:10 2.29457e-05
*RES
1 *1800:Y *317:10 18.1035 
2 *317:10 *1817:A2 13.7491 
3 *317:10 *1801:B 21.2876 
*END

*D_NET *318 0.0027751
*CONN
*I *1802:A I *D sky130_fd_sc_hd__inv_1
*I *1820:A1 I *D sky130_fd_sc_hd__a21oi_1
*I *1801:Y O *D sky130_fd_sc_hd__nor2_1
*CAP
1 *1802:A 0.000273853
2 *1820:A1 0.000186111
3 *1801:Y 0
4 *318:6 0.000459963
5 *1802:A *1796:A 0.000304918
6 *1802:A *319:12 4.86859e-05
7 *1802:A *898:10 3.80598e-05
8 *1802:A *899:10 0.000165499
9 *1820:A1 *1796:A 0.000445436
10 *1820:A1 *1819:A1 1.4106e-05
11 *1820:A1 *1820:A2 0.000158002
12 *1820:A1 *331:12 0.000154483
13 *1801:A *1802:A 0.000120544
14 *1801:A *1820:A1 3.66465e-05
15 *1801:B *1820:A1 0.000368797
*RES
1 *1801:Y *318:6 13.7491 
2 *318:6 *1820:A1 24.3606 
3 *318:6 *1802:A 24.4844 
*END

*D_NET *319 0.00148443
*CONN
*I *1806:A1 I *D sky130_fd_sc_hd__a21oi_1
*I *1814:B I *D sky130_fd_sc_hd__nor2_1
*I *1802:Y O *D sky130_fd_sc_hd__inv_1
*CAP
1 *1806:A1 6.60977e-05
2 *1814:B 0
3 *1802:Y 0.000498937
4 *319:12 0.000565035
5 *1806:A1 *1806:A2 4.72592e-05
6 *319:12 *1796:A 0.000257201
7 *319:12 *2110:D 0
8 *319:12 *322:12 0
9 *319:12 *898:10 1.21765e-06
10 *1802:A *319:12 4.86859e-05
*RES
1 *1802:Y *319:12 31.4631 
2 *319:12 *1814:B 9.24915 
3 *319:12 *1806:A1 11.1059 
*END

*D_NET *320 0.00283496
*CONN
*I *1814:A I *D sky130_fd_sc_hd__nor2_1
*I *1806:A2 I *D sky130_fd_sc_hd__a21oi_1
*I *1820:A2 I *D sky130_fd_sc_hd__a21oi_1
*I *1803:Y O *D sky130_fd_sc_hd__inv_1
*CAP
1 *1814:A 0
2 *1806:A2 8.76292e-05
3 *1820:A2 0.000386258
4 *1803:Y 0.000394979
5 *320:33 0.000308981
6 *320:10 0.00100259
7 *1806:A2 *1821:B 0
8 *1806:A2 *321:12 0
9 *1806:A2 *328:10 2.65667e-05
10 *1820:A2 *1817:A1 0.000209836
11 *1820:A2 *1819:A1 4.24488e-05
12 *320:10 *1803:A 6.96979e-05
13 *320:10 *592:38 1.5115e-06
14 *1801:B *1820:A2 0
15 *1801:B *320:10 0
16 *1806:A1 *1806:A2 4.72592e-05
17 *1816:A *1820:A2 9.11926e-05
18 *1816:B *1820:A2 8.01546e-06
19 *1820:A1 *1820:A2 0.000158002
*RES
1 *1803:Y *320:10 23.0865 
2 *320:10 *1820:A2 24.8842 
3 *320:10 *320:33 9.10562 
4 *320:33 *1806:A2 12.2392 
5 *320:33 *1814:A 9.24915 
*END

*D_NET *321 0.00143913
*CONN
*I *1819:B1 I *D sky130_fd_sc_hd__o21ai_0
*I *1805:A I *D sky130_fd_sc_hd__inv_1
*I *1804:Y O *D sky130_fd_sc_hd__xnor2_1
*CAP
1 *1819:B1 0.000153941
2 *1805:A 0
3 *1804:Y 0.000208792
4 *321:12 0.000362733
5 *1819:B1 *1821:A 0
6 *1819:B1 *1821:B 8.1799e-05
7 *1819:B1 *2110:D 5.05252e-05
8 *1819:B1 *322:6 8.51541e-05
9 *1819:B1 *322:12 0.000191556
10 *1819:B1 *331:12 6.27718e-05
11 *1819:B1 *884:8 6.08467e-05
12 *1819:B1 *885:6 1.65872e-05
13 *1819:B1 *1134:14 0
14 *321:12 *1821:B 9.9353e-05
15 *321:12 *1821:C 6.50727e-05
16 *1806:A2 *321:12 0
*RES
1 *1804:Y *321:12 14.8374 
2 *321:12 *1805:A 9.24915 
3 *321:12 *1819:B1 24.0872 
*END

*D_NET *322 0.00149027
*CONN
*I *1806:B1 I *D sky130_fd_sc_hd__a21oi_1
*I *1900:A I *D sky130_fd_sc_hd__nor2_1
*I *1899:A I *D sky130_fd_sc_hd__nor2_1
*I *1805:Y O *D sky130_fd_sc_hd__inv_1
*CAP
1 *1806:B1 0
2 *1900:A 6.44694e-05
3 *1899:A 0
4 *1805:Y 6.83888e-05
5 *322:12 0.000348487
6 *322:6 0.000352407
7 *1900:A *1899:B 6.27718e-05
8 *1900:A *329:10 5.08887e-05
9 *322:6 *885:6 7.92757e-06
10 *322:12 *1796:A 0
11 *322:12 *1899:B 0.000130268
12 *322:12 *2110:D 7.77309e-06
13 *322:12 *328:10 0
14 *322:12 *1134:14 0
15 *1819:A2 *1900:A 0.000109421
16 *1819:A2 *322:12 1.07549e-05
17 *1819:B1 *322:6 8.51541e-05
18 *1819:B1 *322:12 0.000191556
19 *319:12 *322:12 0
*RES
1 *1805:Y *322:6 10.8044 
2 *322:6 *322:12 16.2303 
3 *322:12 *1899:A 9.24915 
4 *322:12 *1900:A 12.2392 
5 *322:6 *1806:B1 9.24915 
*END

*D_NET *323 0.00173002
*CONN
*I *1808:A I *D sky130_fd_sc_hd__nand2_1
*I *1809:A2 I *D sky130_fd_sc_hd__o21ai_0
*I *1807:Y O *D sky130_fd_sc_hd__o2111ai_1
*CAP
1 *1808:A 0
2 *1809:A2 0.000153616
3 *1807:Y 0.00019318
4 *323:10 0.000346795
5 *1809:A2 *1808:B 2.26731e-05
6 *1809:A2 *1809:B1 0.000113244
7 *323:10 *1808:B 0.000285547
8 *323:10 *790:22 9.57945e-05
9 *1742:B1 *323:10 0.000491736
10 *1809:A1 *1809:A2 2.74378e-05
*RES
1 *1807:Y *323:10 27.1404 
2 *323:10 *1809:A2 13.7583 
3 *323:10 *1808:A 9.24915 
*END

*D_NET *324 0.000234584
*CONN
*I *1809:B1 I *D sky130_fd_sc_hd__o21ai_0
*I *1808:Y O *D sky130_fd_sc_hd__nand2_1
*CAP
1 *1809:B1 1.77892e-05
2 *1808:Y 1.77892e-05
3 *1809:B1 *1808:B 6.27718e-05
4 *1809:A1 *1809:B1 2.29891e-05
5 *1809:A2 *1809:B1 0.000113244
*RES
1 *1808:Y *1809:B1 19.7763 
*END

*D_NET *325 0.00130055
*CONN
*I *1811:A I *D sky130_fd_sc_hd__nand3_1
*I *1810:Y O *D sky130_fd_sc_hd__nor2_1
*CAP
1 *1811:A 0.00039074
2 *1810:Y 0.00039074
3 *1811:A *1683:A 5.20497e-05
4 *1811:A *1811:B 0.000282906
5 *1811:A *2113:CLK 9.01704e-06
6 *1811:A *879:16 0.000149183
7 *1810:B *1811:A 2.96784e-06
8 *1811:C *1811:A 2.29454e-05
*RES
1 *1810:Y *1811:A 37.7267 
*END

*D_NET *326 0.0014331
*CONN
*I *1812:A I *D sky130_fd_sc_hd__nand2_1
*I *1813:A2 I *D sky130_fd_sc_hd__o21ai_0
*I *1811:Y O *D sky130_fd_sc_hd__nand3_1
*CAP
1 *1812:A 2.33779e-05
2 *1813:A2 0.000185356
3 *1811:Y 0.00036182
4 *326:6 0.000570554
5 *1812:A *1812:B 3.5063e-05
6 *1813:A2 *1683:A 5.0118e-05
7 *1813:A2 *1812:B 4.32117e-05
8 *1813:A2 *1813:B1 2.27563e-05
9 *326:6 *1683:A 5.6369e-05
10 *326:6 *1811:B 2.08133e-05
11 *1811:C *326:6 6.3657e-05
*RES
1 *1811:Y *326:6 14.964 
2 *326:6 *1813:A2 13.3484 
3 *326:6 *1812:A 10.2378 
*END

*D_NET *327 0.000246358
*CONN
*I *1813:B1 I *D sky130_fd_sc_hd__o21ai_0
*I *1812:Y O *D sky130_fd_sc_hd__nand2_1
*CAP
1 *1813:B1 2.57109e-05
2 *1812:Y 2.57109e-05
3 *1813:B1 *1683:A 0.000109421
4 *1813:B1 *1812:B 6.2759e-05
5 *1813:A2 *1813:B1 2.27563e-05
*RES
1 *1812:Y *1813:B1 19.7763 
*END

*D_NET *328 0.000907455
*CONN
*I *1817:B1 I *D sky130_fd_sc_hd__a21oi_1
*I *1815:B I *D sky130_fd_sc_hd__nor2_1
*I *1814:Y O *D sky130_fd_sc_hd__nor2_1
*CAP
1 *1817:B1 0
2 *1815:B 0.000117532
3 *1814:Y 0.000151935
4 *328:10 0.000269467
5 *1815:B *1796:A 2.36748e-05
6 *1815:B *329:10 1.50924e-05
7 *1815:B *888:8 0.000114659
8 *328:10 *1796:A 0.000162666
9 *1806:A2 *328:10 2.65667e-05
10 *1819:A2 *1815:B 2.58616e-05
11 *322:12 *328:10 0
*RES
1 *1814:Y *328:10 17.5503 
2 *328:10 *1815:B 17.135 
3 *328:10 *1817:B1 13.7491 
*END

*D_NET *329 0.000947538
*CONN
*I *1818:A I *D sky130_fd_sc_hd__nor2_1
*I *1900:B I *D sky130_fd_sc_hd__nor2_1
*I *1815:Y O *D sky130_fd_sc_hd__nor2_1
*CAP
1 *1818:A 0.000126578
2 *1900:B 0
3 *1815:Y 0.0002016
4 *329:10 0.000328178
5 *1818:A *1899:B 1.35449e-05
6 *1818:A *1134:14 4.8476e-05
7 *329:10 *1899:B 6.46815e-05
8 *1815:B *329:10 1.50924e-05
9 *1819:A2 *1818:A 4.63668e-05
10 *1819:A2 *329:10 5.21309e-05
11 *1900:A *329:10 5.08887e-05
*RES
1 *1815:Y *329:10 15.5668 
2 *329:10 *1900:B 9.24915 
3 *329:10 *1818:A 22.0503 
*END

*D_NET *330 0.000491085
*CONN
*I *1817:A1 I *D sky130_fd_sc_hd__a21oi_1
*I *1816:Y O *D sky130_fd_sc_hd__nand2_1
*CAP
1 *1817:A1 0.000140624
2 *1816:Y 0.000140624
3 *1820:A2 *1817:A1 0.000209836
*RES
1 *1816:Y *1817:A1 20.8855 
*END

*D_NET *331 0.00165427
*CONN
*I *1899:B I *D sky130_fd_sc_hd__nor2_1
*I *1818:B I *D sky130_fd_sc_hd__nor2_1
*I *1817:Y O *D sky130_fd_sc_hd__a21oi_1
*CAP
1 *1899:B 8.25895e-05
2 *1818:B 6.83334e-05
3 *1817:Y 0.00013655
4 *331:12 0.000287473
5 *1818:B *1819:A1 0.000360086
6 *1818:B *884:8 1.55915e-05
7 *331:12 *1819:A1 4.18882e-05
8 *331:12 *1820:B1 6.27782e-05
9 *331:12 *884:8 2.08274e-05
10 *1818:A *1899:B 1.35449e-05
11 *1819:A2 *1899:B 8.96342e-05
12 *1819:B1 *331:12 6.27718e-05
13 *1820:A1 *331:12 0.000154483
14 *1900:A *1899:B 6.27718e-05
15 *322:12 *1899:B 0.000130268
16 *329:10 *1899:B 6.46815e-05
*RES
1 *1817:Y *331:12 14.4817 
2 *331:12 *1818:B 12.7697 
3 *331:12 *1899:B 21.635 
*END

*D_NET *332 0.000308767
*CONN
*I *1821:A I *D sky130_fd_sc_hd__nand3_1
*I *1818:Y O *D sky130_fd_sc_hd__nor2_1
*CAP
1 *1821:A 7.85131e-05
2 *1818:Y 7.85131e-05
3 *1821:A *2110:D 0
4 *1821:A *1134:14 0.000151741
5 *1819:B1 *1821:A 0
*RES
1 *1818:Y *1821:A 30.1608 
*END

*D_NET *333 0.000148555
*CONN
*I *1820:B1 I *D sky130_fd_sc_hd__a21oi_1
*I *1819:Y O *D sky130_fd_sc_hd__o21ai_0
*CAP
1 *1820:B1 1.14991e-05
2 *1819:Y 1.14991e-05
3 *1820:B1 *1819:A1 6.27782e-05
4 *331:12 *1820:B1 6.27782e-05
*RES
1 *1819:Y *1820:B1 19.2217 
*END

*D_NET *334 0.00446676
*CONN
*I *1822:A I *D sky130_fd_sc_hd__nand2_1
*I *1823:A2 I *D sky130_fd_sc_hd__o21ai_0
*I *1821:Y O *D sky130_fd_sc_hd__nand3_1
*CAP
1 *1822:A 0.000567932
2 *1823:A2 0.000595479
3 *1821:Y 0.000374542
4 *334:12 0.00153795
5 *1822:A *2100:D 1.75933e-05
6 *1822:A *2100:RESET_B 0.000267404
7 *1822:A *2100:CLK 0.000152259
8 *1822:A *2106:RESET_B 0
9 *1822:A *893:14 0.000304838
10 *1822:A *903:26 1.20036e-05
11 *1822:A *1106:279 0
12 *1822:A *1134:34 0
13 *1823:A2 *2097:CLK 9.97729e-06
14 *1823:A2 *903:26 0.000102142
15 *334:12 *2517:A 0
16 *334:12 *903:26 0.00024354
17 *334:12 *1134:14 7.86847e-05
18 *334:12 *1134:34 0.000193513
19 *334:12 *1143:36 0
20 *2039:D *1823:A2 8.89955e-06
*RES
1 *1821:Y *334:12 27.0389 
2 *334:12 *1823:A2 18.7256 
3 *334:12 *1822:A 33.3194 
*END

*D_NET *335 0.000554155
*CONN
*I *1823:B1 I *D sky130_fd_sc_hd__o21ai_0
*I *1822:Y O *D sky130_fd_sc_hd__nand2_1
*CAP
1 *1823:B1 0.000230866
2 *1822:Y 0.000230866
3 *1726:A2 *1823:B1 8.06134e-05
4 *261:10 *1823:B1 1.18084e-05
*RES
1 *1822:Y *1823:B1 33.4828 
*END

*D_NET *336 0.00122445
*CONN
*I *1826:A I *D sky130_fd_sc_hd__nand3_1
*I *1824:Y O *D sky130_fd_sc_hd__nor2_1
*CAP
1 *1826:A 0.000404648
2 *1824:Y 0.000404648
3 *1826:A *1826:B 2.58616e-05
4 *1826:A *2040:RESET_B 6.27718e-05
5 *1826:A *2101:D 1.07248e-05
6 *1711:B *1826:A 4.33819e-05
7 *1717:C *1826:A 8.66674e-05
8 *234:25 *1826:A 0.000169582
9 *252:8 *1826:A 1.61631e-05
*RES
1 *1824:Y *1826:A 37.5605 
*END

*D_NET *337 0.0022187
*CONN
*I *1827:A I *D sky130_fd_sc_hd__nand2_1
*I *1828:A2 I *D sky130_fd_sc_hd__o21ai_0
*I *1826:Y O *D sky130_fd_sc_hd__nand3_1
*CAP
1 *1827:A 0
2 *1828:A2 0.000123077
3 *1826:Y 0.000564344
4 *337:12 0.000687421
5 *1828:A2 *1766:B 0.000136694
6 *1828:A2 *1828:B1 2.08274e-05
7 *337:12 *2040:RESET_B 0.000458346
8 *337:12 *905:12 0.000113715
9 *2040:D *1828:A2 0.000114271
*RES
1 *1826:Y *337:12 28.4296 
2 *337:12 *1828:A2 13.3484 
3 *337:12 *1827:A 9.24915 
*END

*D_NET *338 0.000161793
*CONN
*I *1828:B1 I *D sky130_fd_sc_hd__o21ai_0
*I *1827:Y O *D sky130_fd_sc_hd__nand2_1
*CAP
1 *1828:B1 3.90968e-05
2 *1827:Y 3.90968e-05
3 *1828:B1 *1766:B 6.27718e-05
4 *1828:A2 *1828:B1 2.08274e-05
*RES
1 *1827:Y *1828:B1 19.7763 
*END

*D_NET *339 0.000231606
*CONN
*I *1830:B1 I *D sky130_fd_sc_hd__o21ai_0
*I *1829:Y O *D sky130_fd_sc_hd__nand2_1
*CAP
1 *1830:B1 1.47951e-05
2 *1829:Y 1.47951e-05
3 *1830:B1 *1487:A 2.30636e-05
4 *1830:B1 *1829:B 6.46815e-05
5 *1830:B1 *1830:A1 0.000114271
*RES
1 *1829:Y *1830:B1 19.7763 
*END

*D_NET *340 0.00508711
*CONN
*I *1897:B I *D sky130_fd_sc_hd__nand2_1
*I *1831:B I *D sky130_fd_sc_hd__nand2_1
*I *1830:Y O *D sky130_fd_sc_hd__o21ai_0
*CAP
1 *1897:B 0.000142808
2 *1831:B 4.64141e-05
3 *1830:Y 0.00135861
4 *340:10 0.00154783
5 *1897:B *1561:A 1.55847e-05
6 *1897:B *1564:A1 0.000136722
7 *1897:B *1832:A1 0.000284338
8 *1897:B *1898:A2 1.63255e-05
9 *340:10 *1321:A2 5.62724e-06
10 *340:10 *1321:B1 0.000505126
11 *340:10 *1487:A 2.77625e-06
12 *340:10 *1830:A1 0.000213449
13 *340:10 *1832:A1 0.000112367
14 *340:10 *1832:B1 0.000109519
15 *340:10 *2001:RESET_B 8.58902e-06
16 *340:10 *2001:CLK 0.0003016
17 *340:10 *1040:12 1.00901e-05
18 *340:10 *1112:161 1.00766e-05
19 *1831:A *1831:B 1.05106e-05
20 *2044:D *340:10 2.99797e-05
21 *224:46 *340:10 3.96696e-05
22 *224:55 *1831:B 6.3657e-05
23 *224:55 *1897:B 9.94284e-06
24 *224:55 *340:10 1.55915e-05
25 *224:68 *1897:B 8.98997e-05
*RES
1 *1830:Y *340:10 36.2318 
2 *340:10 *1831:B 10.9612 
3 *340:10 *1897:B 15.398 
*END

*D_NET *341 0.000402412
*CONN
*I *1832:B1 I *D sky130_fd_sc_hd__o21ai_0
*I *1831:Y O *D sky130_fd_sc_hd__nand2_1
*CAP
1 *1832:B1 0.000110521
2 *1831:Y 0.000110521
3 *1832:B1 *1832:A1 1.5714e-05
4 *1832:B1 *2084:CLK 8.95301e-06
5 *1832:B1 *1142:167 4.71838e-05
6 *340:10 *1832:B1 0.000109519
*RES
1 *1831:Y *1832:B1 29.7778 
*END

*D_NET *342 0.000832363
*CONN
*I *1834:B1 I *D sky130_fd_sc_hd__o21ai_0
*I *1833:Y O *D sky130_fd_sc_hd__nand2_1
*CAP
1 *1834:B1 0.000241317
2 *1833:Y 0.000241317
3 *1834:B1 *1433:B 2.91831e-05
4 *1834:B1 *374:16 0.000194446
5 *1834:B1 *1109:295 0
6 *1834:B1 *1112:190 0.0001261
*RES
1 *1833:Y *1834:B1 32.6874 
*END

*D_NET *343 0.00375647
*CONN
*I *1884:A1 I *D sky130_fd_sc_hd__mux2_1
*I *1835:A1 I *D sky130_fd_sc_hd__mux2_1
*I *1834:Y O *D sky130_fd_sc_hd__o21ai_0
*CAP
1 *1884:A1 0
2 *1835:A1 7.68572e-05
3 *1834:Y 0.00117608
4 *343:10 0.00125293
5 *1835:A1 *1884:S 3.31882e-05
6 *1835:A1 *910:121 9.17266e-05
7 *343:10 *1433:B 1.71698e-05
8 *343:10 *1884:A0 3.14978e-05
9 *343:10 *1896:A1 2.65667e-05
10 *343:10 *1896:A2 0.000164829
11 *343:10 *1896:A3 0.000115934
12 *343:10 *1896:B1 0.0005708
13 *343:10 *1116:8 1.41307e-05
14 *2081:D *343:10 0.000107496
15 *224:68 *1835:A1 7.72654e-05
*RES
1 *1834:Y *343:10 39.0048 
2 *343:10 *1835:A1 21.7421 
3 *343:10 *1884:A1 9.24915 
*END

*D_NET *344 0.0013865
*CONN
*I *1838:A I *D sky130_fd_sc_hd__nand2_1
*I *1836:Y O *D sky130_fd_sc_hd__nand2_1
*CAP
1 *1838:A 0.00024759
2 *1836:Y 0.00024759
3 *1838:A *1836:B 0.000441911
4 *1838:A *1838:B 5.35055e-05
5 *1838:A *954:8 1.22289e-05
6 *1836:A *1838:A 0.000155072
7 *216:22 *1838:A 0.000120962
8 *217:27 *1838:A 0.000107643
*RES
1 *1836:Y *1838:A 36.7569 
*END

*D_NET *345 0.0015715
*CONN
*I *1838:B I *D sky130_fd_sc_hd__nand2_1
*I *1837:Y O *D sky130_fd_sc_hd__nand2_1
*CAP
1 *1838:B 0.000475445
2 *1837:Y 0.000475445
3 *1838:B *1260:B 3.35964e-05
4 *1838:B *1836:B 2.36617e-05
5 *1838:B *1837:B 4.66568e-05
6 *1838:B *2052:CLK 8.03393e-06
7 *1838:B *952:14 2.40736e-05
8 *1838:B *1138:18 0.00039121
9 *1838:A *1838:B 5.35055e-05
10 *216:18 *1838:B 9.94284e-06
11 *216:22 *1838:B 2.99287e-05
*RES
1 *1837:Y *1838:B 40.4969 
*END

*D_NET *346 0.000482804
*CONN
*I *1840:B1 I *D sky130_fd_sc_hd__o21ai_0
*I *1839:Y O *D sky130_fd_sc_hd__nand2_1
*CAP
1 *1840:B1 0.000107272
2 *1839:Y 0.000107272
3 *1840:B1 *444:10 0.000171288
4 *1839:A *1840:B1 0
5 *215:16 *1840:B1 3.30646e-05
6 *215:18 *1840:B1 3.8122e-05
7 *215:20 *1840:B1 2.57847e-05
*RES
1 *1839:Y *1840:B1 22.4287 
*END

*D_NET *347 0.000682647
*CONN
*I *1843:B1 I *D sky130_fd_sc_hd__a21oi_1
*I *1842:Y O *D sky130_fd_sc_hd__o21ai_0
*CAP
1 *1843:B1 0.000172024
2 *1842:Y 0.000172024
3 *1843:B1 *1842:A1 4.66118e-05
4 *1650:A3 *1843:B1 9.98271e-05
5 *2051:D *1843:B1 5.23435e-05
6 *213:23 *1843:B1 0.000139817
*RES
1 *1842:Y *1843:B1 32.1622 
*END

*D_NET *348 0.000391355
*CONN
*I *1845:B I *D sky130_fd_sc_hd__nand2_1
*I *1844:Y O *D sky130_fd_sc_hd__nand2_1
*CAP
1 *1845:B 9.24886e-05
2 *1844:Y 9.24886e-05
3 *1845:B *1844:B 2.95835e-05
4 *1844:A *1845:B 0
5 *1845:A *1845:B 6.50727e-05
6 *215:16 *1845:B 0.000111722
*RES
1 *1844:Y *1845:B 21.4642 
*END

*D_NET *349 0.00127557
*CONN
*I *1906:A2 I *D sky130_fd_sc_hd__o21ai_0
*I *1847:A1 I *D sky130_fd_sc_hd__o21ai_0
*I *1846:Y O *D sky130_fd_sc_hd__inv_1
*CAP
1 *1906:A2 0.00021764
2 *1847:A1 0.000238063
3 *1846:Y 0
4 *349:4 0.000455703
5 *1847:A1 *1846:A 1.38823e-05
6 *1906:A2 *1846:A 3.96379e-06
7 *1906:A2 *1906:B1 5.22654e-06
8 *1906:A2 *1113:906 0.000127179
9 *1847:A2 *1847:A1 6.50586e-05
10 *1847:B1 *1847:A1 7.97319e-05
11 *1913:D *1847:A1 6.91176e-05
*RES
1 *1846:Y *349:4 9.24915 
2 *349:4 *1847:A1 15.1448 
3 *349:4 *1906:A2 22.6063 
*END

*D_NET *350 0.00118303
*CONN
*I *1850:B I *D sky130_fd_sc_hd__nand2_1
*I *1849:Y O *D sky130_fd_sc_hd__nand2_1
*CAP
1 *1850:B 0.000203589
2 *1849:Y 0.000203589
3 *1850:B *1850:A 0.000107496
4 *1850:B *2056:RESET_B 0.000181629
5 *1850:B *1113:904 4.7798e-05
6 *1911:D *1850:B 3.00829e-05
7 *184:27 *1850:B 0.000408847
*RES
1 *1849:Y *1850:B 36.0391 
*END

*D_NET *351 0.00145638
*CONN
*I *1852:B I *D sky130_fd_sc_hd__nand2_1
*I *1851:Y O *D sky130_fd_sc_hd__nand2_1
*CAP
1 *1852:B 0.000476451
2 *1851:Y 0.000476451
3 *1852:B *1849:A 7.66391e-06
4 *1852:B *1852:A 2.99287e-05
5 *1852:B *1905:B 0.000208627
6 *1852:B *1906:A1 1.88563e-05
7 *1852:B *1111:434 0.00016195
8 *183:39 *1852:B 7.64551e-05
*RES
1 *1851:Y *1852:B 27.589 
*END

*D_NET *352 0.000661055
*CONN
*I *1855:B I *D sky130_fd_sc_hd__nor2_1
*I *1854:Y O *D sky130_fd_sc_hd__nand2_1
*CAP
1 *1855:B 0.000166813
2 *1854:Y 0.000166813
3 *1855:B *1208:A 0
4 *1855:B *1856:A 0.000175689
5 *1855:B *1856:B 0.000151741
6 *1855:B *1857:A3 0
7 *1855:B *1025:22 0
*RES
1 *1854:Y *1855:B 33.0676 
*END

*D_NET *353 0.000306948
*CONN
*I *1856:B I *D sky130_fd_sc_hd__xor2_1
*I *1855:Y O *D sky130_fd_sc_hd__nor2_1
*CAP
1 *1856:B 7.76035e-05
2 *1855:Y 7.76035e-05
3 *1855:B *1856:B 0.000151741
*RES
1 *1855:Y *1856:B 30.1608 
*END

*D_NET *354 0.000465006
*CONN
*I *1857:B1 I *D sky130_fd_sc_hd__a31oi_1
*I *1856:X O *D sky130_fd_sc_hd__xor2_1
*CAP
1 *1857:B1 9.92486e-05
2 *1856:X 9.92486e-05
3 *1857:B1 *1857:A1 8.10474e-05
4 *1857:B1 *1857:A3 9.52473e-05
5 *1857:B1 *401:18 6.36477e-05
6 *2055:D *1857:B1 2.65667e-05
*RES
1 *1856:X *1857:B1 22.1876 
*END

*D_NET *355 0.000531307
*CONN
*I *1859:A I *D sky130_fd_sc_hd__nor2_1
*I *1858:Y O *D sky130_fd_sc_hd__nor2_1
*CAP
1 *1859:A 0.000191713
2 *1858:Y 0.000191713
3 *1859:A *1483:A 7.97944e-05
4 *1859:A *1484:A 6.80864e-05
*RES
1 *1858:Y *1859:A 31.9934 
*END

*D_NET *356 0.000242168
*CONN
*I *1862:A I *D sky130_fd_sc_hd__nand2_1
*I *1860:Y O *D sky130_fd_sc_hd__nand2_1
*CAP
1 *1862:A 7.45779e-05
2 *1860:Y 7.45779e-05
3 *1862:A *1862:B 1.59756e-05
4 *1862:A *1864:A1 3.00829e-05
5 *1862:A *447:6 4.19058e-05
6 *1909:D *1862:A 5.04829e-06
*RES
1 *1860:Y *1862:A 20.9096 
*END

*D_NET *357 0.000670127
*CONN
*I *1862:B I *D sky130_fd_sc_hd__nand2_1
*I *1861:Y O *D sky130_fd_sc_hd__nand2_1
*CAP
1 *1862:B 0.000118817
2 *1861:Y 0.000118817
3 *1862:B *1861:B 0.000208048
4 *1862:B *1864:A1 4.70706e-05
5 *1862:B *1104:145 0.000161399
6 *1862:A *1862:B 1.59756e-05
*RES
1 *1861:Y *1862:B 22.9833 
*END

*D_NET *358 0.000993694
*CONN
*I *1864:B1 I *D sky130_fd_sc_hd__o21ai_0
*I *1863:Y O *D sky130_fd_sc_hd__nand2_1
*CAP
1 *1864:B1 0.000295843
2 *1863:Y 0.000295843
3 *1864:B1 *1861:B 6.65668e-05
4 *1864:B1 *1863:A 1.36815e-05
5 *1864:B1 *427:8 0.000306958
6 *1909:D *1864:B1 1.48017e-05
*RES
1 *1863:Y *1864:B1 33.242 
*END

*D_NET *359 0.000960246
*CONN
*I *1867:B I *D sky130_fd_sc_hd__xor2_1
*I *1866:Y O *D sky130_fd_sc_hd__o21ai_0
*CAP
1 *1867:B 0.000276913
2 *1866:Y 0.000276913
3 *1867:B *1367:A1 0.000125695
4 *1867:B *1367:A2 7.90164e-05
5 *1867:B *1867:A 2.98969e-05
6 *1867:B *533:14 0
7 *1867:B *538:21 0
8 *1867:B *1139:81 0
9 *2059:D *1867:B 0.000171811
*RES
1 *1866:Y *1867:B 36.8048 
*END

*D_NET *360 0.000260456
*CONN
*I *1869:A I *D sky130_fd_sc_hd__nor2_1
*I *1868:Y O *D sky130_fd_sc_hd__nor2_1
*CAP
1 *1869:A 0.000100493
2 *1868:Y 0.000100493
3 *1869:A *1869:B 4.65954e-06
4 *1869:A *1088:25 0
5 *1869:A *1104:8 5.481e-05
*RES
1 *1868:Y *1869:A 20.9096 
*END

*D_NET *361 0.00042563
*CONN
*I *1871:A I *D sky130_fd_sc_hd__nor2_1
*I *1870:Y O *D sky130_fd_sc_hd__inv_1
*CAP
1 *1871:A 7.1356e-05
2 *1870:Y 7.1356e-05
3 *1871:A *427:74 3.75221e-05
4 *1871:A *439:14 0.000121019
5 *1871:A *446:10 0.000124377
*RES
1 *1870:Y *1871:A 30.1916 
*END

*D_NET *362 0.00169057
*CONN
*I *1872:B I *D sky130_fd_sc_hd__nor2_1
*I *1873:A3 I *D sky130_fd_sc_hd__a31oi_1
*I *1881:B I *D sky130_fd_sc_hd__nor2_1
*I *1871:Y O *D sky130_fd_sc_hd__nor2_1
*CAP
1 *1872:B 0.000160677
2 *1873:A3 1.22643e-05
3 *1881:B 0.000329975
4 *1871:Y 0
5 *362:15 0.000362816
6 *362:4 0.00051985
7 *1872:B *1873:A2 0.000141521
8 *1872:B *439:14 0
9 *1873:A3 *1873:A2 3.75603e-05
10 *1881:B *1871:B 6.08467e-05
11 *2064:D *1881:B 6.50586e-05
*RES
1 *1871:Y *362:4 9.24915 
2 *362:4 *1881:B 16.0973 
3 *362:4 *362:15 4.05102 
4 *362:15 *1873:A3 9.82786 
5 *362:15 *1872:B 21.7985 
*END

*D_NET *363 0.000498452
*CONN
*I *1873:B1 I *D sky130_fd_sc_hd__a31oi_1
*I *1872:Y O *D sky130_fd_sc_hd__nor2_1
*CAP
1 *1873:B1 0.000147504
2 *1872:Y 0.000147504
3 *1873:B1 *1873:A1 5.45692e-05
4 *1873:B1 *1873:A2 3.84177e-05
5 *1873:B1 *439:14 0
6 *1873:B1 *530:14 0.000110458
*RES
1 *1872:Y *1873:B1 31.0235 
*END

*D_NET *364 0.00181506
*CONN
*I *1876:B I *D sky130_fd_sc_hd__nor2_1
*I *1878:A2 I *D sky130_fd_sc_hd__o21ai_0
*I *1875:Y O *D sky130_fd_sc_hd__nand2_1
*CAP
1 *1876:B 0.000151484
2 *1878:A2 0.000246437
3 *1875:Y 0.000153013
4 *364:8 0.000550934
5 *1878:A2 *1878:A1 6.92705e-05
6 *1878:A2 *1878:B1 0.000126357
7 *1878:A2 *1879:A3 0.000200236
8 *1878:A2 *2063:RESET_B 0
9 *364:8 *1879:A3 0.000317327
10 *364:8 *2063:RESET_B 0
*RES
1 *1875:Y *364:8 19.3184 
2 *364:8 *1878:A2 21.7028 
3 *364:8 *1876:B 16.691 
*END

*D_NET *365 0.000447967
*CONN
*I *1877:A I *D sky130_fd_sc_hd__nand2_1
*I *1876:Y O *D sky130_fd_sc_hd__nor2_1
*CAP
1 *1877:A 0.000102318
2 *1876:Y 0.000102318
3 *1877:A *1358:B 0.000124086
4 *1877:A *1879:A1 0.000119244
*RES
1 *1876:Y *1877:A 30.4689 
*END

*D_NET *366 0.000789036
*CONN
*I *1879:B1 I *D sky130_fd_sc_hd__a32oi_1
*I *1877:Y O *D sky130_fd_sc_hd__nand2_1
*CAP
1 *1879:B1 0.000186565
2 *1877:Y 0.000186565
3 *1879:B1 *1239:A 7.7979e-05
4 *1879:B1 *1878:B1 1.36691e-05
5 *1879:B1 *1879:A1 0.000319209
6 *1879:B1 *424:6 5.04829e-06
*RES
1 *1877:Y *1879:B1 33.791 
*END

*D_NET *367 0.000464426
*CONN
*I *1879:B2 I *D sky130_fd_sc_hd__a32oi_1
*I *1878:Y O *D sky130_fd_sc_hd__o21ai_0
*CAP
1 *1879:B2 0.000137064
2 *1878:Y 0.000137064
3 *1879:B2 *1878:A1 1.00937e-05
4 *1879:B2 *1878:B1 0.000127179
5 *1879:B2 *1879:A1 2.15266e-05
6 *1879:B2 *2184:A 3.14978e-05
7 *1879:B2 *719:19 0
*RES
1 *1878:Y *1879:B2 31.0235 
*END

*D_NET *368 0.000670793
*CONN
*I *1881:A I *D sky130_fd_sc_hd__nor2_1
*I *1880:Y O *D sky130_fd_sc_hd__nor2_1
*CAP
1 *1881:A 0.000162284
2 *1880:Y 0.000162284
3 *1881:A *1880:A 4.51913e-05
4 *1881:A *2487:A 0.000301034
5 *1881:A *427:59 0
6 *1881:A *427:74 0
*RES
1 *1880:Y *1881:A 33.0676 
*END

*D_NET *369 0.00103931
*CONN
*I *1883:B1 I *D sky130_fd_sc_hd__o21ai_0
*I *1882:Y O *D sky130_fd_sc_hd__nand2_1
*CAP
1 *1883:B1 0.000315714
2 *1882:Y 0.000315714
3 *1883:B1 *1238:A 3.31882e-05
4 *1883:B1 *1479:A2 0.000113165
5 *1883:B1 *2054:CLK 0.000143047
6 *1883:B1 *422:23 0.000118485
*RES
1 *1882:Y *1883:B1 34.2118 
*END

*D_NET *370 0.00103541
*CONN
*I *1888:A2 I *D sky130_fd_sc_hd__a31oi_1
*I *1885:Y O *D sky130_fd_sc_hd__nand2_1
*CAP
1 *1888:A2 0.000342348
2 *1885:Y 0.000342348
3 *1888:A2 *1112:393 3.54227e-05
4 *1888:A2 *1115:24 0.000315295
*RES
1 *1885:Y *1888:A2 24.2131 
*END

*D_NET *371 0.000543618
*CONN
*I *1888:A3 I *D sky130_fd_sc_hd__a31oi_1
*I *1886:Y O *D sky130_fd_sc_hd__nand2_1
*CAP
1 *1888:A3 0.000247346
2 *1886:Y 0.000247346
3 *1888:A3 *1886:A 4.89251e-05
*RES
1 *1886:Y *1888:A3 31.9934 
*END

*D_NET *372 0.00158115
*CONN
*I *1888:B1 I *D sky130_fd_sc_hd__a31oi_1
*I *1887:Y O *D sky130_fd_sc_hd__nor2_1
*CAP
1 *1888:B1 0.000444047
2 *1887:Y 0.000444047
3 *1888:B1 *1888:A1 0.000301811
4 *1888:B1 *2080:CLK 8.36586e-06
5 *1888:B1 *1107:34 6.27782e-05
6 *1888:B1 *1107:40 0.000107496
7 *1888:B1 *1112:393 1.65872e-05
8 *1888:B1 *1115:24 6.36477e-05
9 *1888:B1 *1115:76 0.000107496
10 *2073:D *1888:B1 2.48716e-05
*RES
1 *1887:Y *1888:B1 36.7384 
*END

*D_NET *373 0.000512161
*CONN
*I *1890:B1 I *D sky130_fd_sc_hd__o21ai_0
*I *1889:Y O *D sky130_fd_sc_hd__nand2_1
*CAP
1 *1890:B1 0.000116015
2 *1889:Y 0.000116015
3 *1890:B1 *1890:A2 0.000161252
4 *1890:B1 *374:16 3.78395e-05
5 *1890:B1 *436:200 8.10397e-05
*RES
1 *1889:Y *1890:B1 22.3805 
*END

*D_NET *374 0.00516297
*CONN
*I *1892:A2 I *D sky130_fd_sc_hd__a21oi_1
*I *1890:Y O *D sky130_fd_sc_hd__o21ai_0
*CAP
1 *1892:A2 0
2 *1890:Y 0.00162447
3 *374:16 0.00162447
4 *374:16 *1833:A 3.56745e-05
5 *374:16 *1892:B1 6.55124e-05
6 *374:16 *2002:CLK 9.52298e-05
7 *374:16 *2020:CLK 0.0009879
8 *374:16 *436:196 0.000202736
9 *374:16 *436:200 5.17311e-05
10 *374:16 *1041:10 6.08467e-05
11 *1834:B1 *374:16 0.000194446
12 *1890:B1 *374:16 3.78395e-05
13 *2002:D *374:16 6.97525e-05
14 *2077:D *374:16 0.000112361
*RES
1 *1890:Y *374:16 46.9863 
2 *374:16 *1892:A2 9.24915 
*END

*D_NET *375 0.00156377
*CONN
*I *1892:B1 I *D sky130_fd_sc_hd__a21oi_1
*I *1891:Y O *D sky130_fd_sc_hd__nor2_1
*CAP
1 *1892:B1 0.000576722
2 *1891:Y 0.000576722
3 *1892:B1 *1891:B 7.87349e-05
4 *1892:B1 *1892:A1 6.08467e-05
5 *1892:B1 *2077:RESET_B 0.000168189
6 *1892:B1 *2081:RESET_B 0
7 *1892:B1 *1107:160 0
8 *1892:B1 *1116:83 3.70431e-05
9 *374:16 *1892:B1 6.55124e-05
*RES
1 *1891:Y *1892:B1 40.1997 
*END

*D_NET *376 0.000556692
*CONN
*I *1896:A2 I *D sky130_fd_sc_hd__a31oi_1
*I *1893:Y O *D sky130_fd_sc_hd__nand2_1
*CAP
1 *1896:A2 0.000141655
2 *1893:Y 0.000141655
3 *1896:A2 *436:94 7.50722e-05
4 *1896:A2 *548:32 3.34802e-05
5 *343:10 *1896:A2 0.000164829
*RES
1 *1893:Y *1896:A2 30.7476 
*END

*D_NET *377 0.000521197
*CONN
*I *1896:A3 I *D sky130_fd_sc_hd__a31oi_1
*I *1894:Y O *D sky130_fd_sc_hd__nand2_1
*CAP
1 *1896:A3 9.13072e-05
2 *1894:Y 9.13072e-05
3 *1896:A3 *436:94 0.000151922
4 *1896:A3 *548:32 7.07271e-05
5 *343:10 *1896:A3 0.000115934
*RES
1 *1894:Y *1896:A3 31.4388 
*END

*D_NET *378 0.00156336
*CONN
*I *1896:B1 I *D sky130_fd_sc_hd__a31oi_1
*I *1895:Y O *D sky130_fd_sc_hd__nor2_1
*CAP
1 *1896:B1 0.000457733
2 *1895:Y 0.000457733
3 *1896:B1 *1895:A 3.34802e-05
4 *1896:B1 *2081:RESET_B 4.36097e-05
5 *1896:B1 *1116:10 0
6 *1896:B1 *1116:14 0
7 *2044:D *1896:B1 0
8 *343:10 *1896:B1 0.0005708
*RES
1 *1895:Y *1896:B1 40.8856 
*END

*D_NET *379 0.000564905
*CONN
*I *1898:B1 I *D sky130_fd_sc_hd__o21ai_0
*I *1897:Y O *D sky130_fd_sc_hd__nand2_1
*CAP
1 *1898:B1 7.01439e-05
2 *1897:Y 7.01439e-05
3 *1898:B1 *1564:A1 0.000258195
4 *1898:B1 *1898:A1 4.61271e-05
5 *1898:B1 *1898:A2 0.000112367
6 *224:68 *1898:B1 7.92757e-06
*RES
1 *1897:Y *1898:B1 22.0188 
*END

*D_NET *380 0.00026524
*CONN
*I *1902:B I *D sky130_fd_sc_hd__nor2_1
*I *1901:Y O *D sky130_fd_sc_hd__nor2_1
*CAP
1 *1902:B 6.72318e-05
2 *1901:Y 6.72318e-05
3 *1902:B *832:27 2.6046e-05
4 *1902:B *832:43 0.000104731
*RES
1 *1901:Y *1902:B 29.7455 
*END

*D_NET *381 0.000664983
*CONN
*I *1904:A2 I *D sky130_fd_sc_hd__a21oi_1
*I *1902:Y O *D sky130_fd_sc_hd__nor2_1
*CAP
1 *1904:A2 0.000146149
2 *1902:Y 0.000146149
3 *1904:A2 *1902:A 6.08467e-05
4 *1904:A2 *1904:B1 5.481e-05
5 *1904:A2 *1953:CLK 0
6 *1904:A2 *638:10 4.97617e-05
7 *1904:A2 *790:8 0.000207266
*RES
1 *1902:Y *1904:A2 23.128 
*END

*D_NET *382 0.000858339
*CONN
*I *1904:B1 I *D sky130_fd_sc_hd__a21oi_1
*I *1903:Y O *D sky130_fd_sc_hd__a211oi_1
*CAP
1 *1904:B1 0.000257274
2 *1903:Y 0.000257274
3 *1904:B1 *1903:A2 0.000169513
4 *1904:B1 *1904:A1 0.000107496
5 *1904:B1 *638:10 1.19726e-05
6 *1904:A2 *1904:B1 5.481e-05
7 *1953:D *1904:B1 0
*RES
1 *1903:Y *1904:B1 34.0725 
*END

*D_NET *383 0.000852979
*CONN
*I *1906:B1 I *D sky130_fd_sc_hd__o21ai_0
*I *1905:Y O *D sky130_fd_sc_hd__nand2_1
*CAP
1 *1906:B1 0.000235508
2 *1905:Y 0.000235508
3 *1906:B1 *1851:B 3.00174e-06
4 *1906:B1 *1906:A1 0.000308994
5 *1906:B1 *984:10 0
6 *1906:B1 *1113:906 3.89332e-06
7 *1906:A2 *1906:B1 5.22654e-06
8 *183:39 *1906:B1 6.08467e-05
*RES
1 *1905:Y *1906:B1 34.2062 
*END

*D_NET *384 0.00140295
*CONN
*I *1183:A2 I *D sky130_fd_sc_hd__o21ai_0
*I *1598:A1 I *D sky130_fd_sc_hd__o21ai_0
*I *1181:Y O *D sky130_fd_sc_hd__inv_1
*CAP
1 *1183:A2 2.12792e-05
2 *1598:A1 0.000133735
3 *1181:Y 7.74519e-05
4 *384:6 0.000232466
5 *1598:A1 *1182:A 1.02267e-05
6 *1598:A1 *1183:B1 4.19316e-05
7 *1598:A1 *1111:644 0.000401098
8 *384:6 *1181:A 6.19864e-05
9 *384:6 *1183:B1 3.25052e-05
10 *384:6 *2162:A 0.000188654
11 *1598:A2 *1598:A1 0.00016195
12 *1598:B1 *1598:A1 3.96696e-05
*RES
1 *1181:Y *384:6 12.4683 
2 *384:6 *1598:A1 14.9881 
3 *384:6 *1183:A2 9.82786 
*END

*D_NET *385 0.000951369
*CONN
*I *1183:B1 I *D sky130_fd_sc_hd__o21ai_0
*I *1182:Y O *D sky130_fd_sc_hd__nand2_1
*CAP
1 *1183:B1 0.000298444
2 *1182:Y 0.000298444
3 *1183:B1 *1182:A 6.46815e-05
4 *1183:B1 *1111:644 7.28567e-06
5 *1598:A1 *1183:B1 4.19316e-05
6 *1598:A2 *1183:B1 4.61271e-05
7 *1598:B1 *1183:B1 0.00016195
8 *384:6 *1183:B1 3.25052e-05
*RES
1 *1182:Y *1183:B1 26.4556 
*END

*D_NET *386 0.000460231
*CONN
*I *1597:A1 I *D sky130_fd_sc_hd__o21ai_0
*I *1186:A2 I *D sky130_fd_sc_hd__o21ai_0
*I *1184:Y O *D sky130_fd_sc_hd__inv_1
*CAP
1 *1597:A1 1.42424e-05
2 *1186:A2 0.000104333
3 *1184:Y 1.27204e-05
4 *386:6 0.000131296
5 *1186:A2 *1186:B1 5.22654e-06
6 *1186:A2 *1947:CLK 0
7 *1186:A2 *1111:582 7.26877e-05
8 *1186:A2 *1111:595 8.62625e-06
9 *1597:A1 *1944:RESET_B 1.43983e-05
10 *386:6 *1944:RESET_B 7.32024e-06
11 *1944:D *1597:A1 5.08751e-05
12 *1944:D *386:6 3.85049e-05
*RES
1 *1184:Y *386:6 9.69524 
2 *386:6 *1186:A2 21.3269 
3 *386:6 *1597:A1 9.97254 
*END

*D_NET *387 0.000502766
*CONN
*I *1186:B1 I *D sky130_fd_sc_hd__o21ai_0
*I *1185:Y O *D sky130_fd_sc_hd__nand2_1
*CAP
1 *1186:B1 0.000174258
2 *1185:Y 0.000174258
3 *1186:B1 *1185:A 7.01935e-06
4 *1186:B1 *1947:CLK 3.73505e-05
5 *1186:B1 *1949:CLK 6.46815e-05
6 *1186:B1 *1111:595 3.99713e-05
7 *1186:A2 *1186:B1 5.22654e-06
*RES
1 *1185:Y *1186:B1 31.4388 
*END

*D_NET *388 0.0366164
*CONN
*I *1203:A I *D sky130_fd_sc_hd__nand2_1
*I *1705:A I *D sky130_fd_sc_hd__nand2_1
*I *1746:A I *D sky130_fd_sc_hd__nand2_1
*I *1699:A I *D sky130_fd_sc_hd__nand2_1
*I *1200:A I *D sky130_fd_sc_hd__nand2_1
*I *1727:A I *D sky130_fd_sc_hd__nand2_1
*I *1696:A I *D sky130_fd_sc_hd__nand2_1
*I *1730:A I *D sky130_fd_sc_hd__nand2_1
*I *1718:A I *D sky130_fd_sc_hd__nand2_1
*I *1721:A I *D sky130_fd_sc_hd__nand2_1
*I *1702:A I *D sky130_fd_sc_hd__nand2_1
*I *1743:A I *D sky130_fd_sc_hd__nand2_1
*I *1188:A I *D sky130_fd_sc_hd__nand2_1
*I *1197:A I *D sky130_fd_sc_hd__nand2_1
*I *1853:A I *D sky130_fd_sc_hd__xor2_1
*I *1677:A I *D sky130_fd_sc_hd__nand2_1
*I *1680:A I *D sky130_fd_sc_hd__nand2_1
*I *1194:A I *D sky130_fd_sc_hd__nand2_1
*I *1693:A I *D sky130_fd_sc_hd__nand2_1
*I *1712:A I *D sky130_fd_sc_hd__nand2_1
*I *1233:A I *D sky130_fd_sc_hd__nand2_1
*I *1187:Y O *D sky130_fd_sc_hd__inv_6
*CAP
1 *1203:A 6.76306e-05
2 *1705:A 2.07453e-05
3 *1746:A 0.000332159
4 *1699:A 0
5 *1200:A 0
6 *1727:A 2.98597e-05
7 *1696:A 0.000200001
8 *1730:A 0
9 *1718:A 0
10 *1721:A 0
11 *1702:A 0.000341318
12 *1743:A 0
13 *1188:A 0.000567066
14 *1197:A 0
15 *1853:A 0.000343662
16 *1677:A 0
17 *1680:A 0.000599042
18 *1194:A 0.000162776
19 *1693:A 0
20 *1712:A 0
21 *1233:A 0.00012984
22 *1187:Y 0.000557497
23 *388:220 0.000670711
24 *388:212 0.000961994
25 *388:167 0.000603418
26 *388:165 0.00157066
27 *388:143 0.00071075
28 *388:133 0.00171293
29 *388:131 0.000703768
30 *388:125 0.00144993
31 *388:115 0.00136045
32 *388:113 0.00127726
33 *388:102 0.00131018
34 *388:83 0.00117107
35 *388:81 0.00084067
36 *388:79 0.00107488
37 *388:75 0.00070538
38 *388:73 0.00052628
39 *388:30 0.000934163
40 *388:16 0.00101163
41 *388:10 0.000712416
42 *1188:A *1190:A 2.15372e-05
43 *1188:A *1602:B 0.000672468
44 *1188:A *1603:A2 6.27718e-05
45 *1194:A *1194:B 0.000122098
46 *1194:A *1196:A 5.04829e-06
47 *1194:A *1606:B 5.41227e-05
48 *1194:A *2174:A 0
49 *1194:A *732:12 1.19856e-05
50 *1194:A *1111:209 6.50727e-05
51 *1203:A *1205:A 7.54405e-05
52 *1203:A *1608:B 6.27782e-05
53 *1203:A *966:18 4.95892e-05
54 *1233:A *1934:CLK 0
55 *1233:A *598:258 0.000163344
56 *1233:A *598:288 6.27718e-05
57 *1233:A *722:12 8.01638e-06
58 *1233:A *758:8 6.76593e-05
59 *1233:A *962:14 6.50586e-05
60 *1680:A *1677:B 2.14842e-06
61 *1680:A *1680:B 7.65348e-05
62 *1680:A *1681:A 0
63 *1680:A *597:86 0
64 *1680:A *725:18 2.83365e-05
65 *1680:A *996:14 1.45014e-05
66 *1680:A *1111:305 0
67 *1680:A *1113:559 7.08062e-05
68 *1696:A *1580:A2 0.000198882
69 *1696:A *1580:B1 0
70 *1696:A *1624:B 3.01683e-06
71 *1696:A *1730:B 1.69932e-05
72 *1696:A *1923:CLK 0
73 *1696:A *969:8 0.000260817
74 *1702:A *1743:B 2.48716e-05
75 *1702:A *1111:65 0
76 *1705:A *1020:12 6.50727e-05
77 *1727:A *1727:B 2.60902e-05
78 *1727:A *2143:A 2.41483e-05
79 *1746:A *1495:A 9.44631e-06
80 *1746:A *1746:B 1.85345e-06
81 *1746:A *1111:181 0.000160588
82 *1746:A *1111:273 3.21102e-05
83 *1853:A *1197:B 7.60465e-05
84 *1853:A *1199:A 0.000138416
85 *1853:A *1514:A1 2.65831e-05
86 *1853:A *733:12 8.70701e-05
87 *1853:A *777:8 0
88 *1853:A *839:38 8.46891e-05
89 *1853:A *1111:10 0.000193358
90 *1853:A *1111:23 0.000390573
91 *388:10 *1522:A1 3.89073e-05
92 *388:10 *1522:A2 0.000159917
93 *388:10 *1522:B1 0.000663915
94 *388:10 *1113:441 1.34424e-05
95 *388:16 *1969:CLK 5.04829e-06
96 *388:16 *618:10 0.000164243
97 *388:30 *1517:A2 0.000112367
98 *388:30 *1712:B 4.76161e-06
99 *388:30 *1713:B 1.41976e-05
100 *388:30 *618:10 0.000274953
101 *388:73 *966:18 0.000130698
102 *388:75 *1020:12 4.27148e-05
103 *388:75 *1111:196 0
104 *388:75 *1127:33 0
105 *388:75 *1127:71 2.78316e-05
106 *388:79 *1944:CLK 6.34651e-06
107 *388:79 *1975:CLK 4.89462e-06
108 *388:79 *1980:CLK 1.94615e-05
109 *388:79 *1111:196 0
110 *388:79 *1111:273 9.91833e-05
111 *388:79 *1127:71 5.66868e-06
112 *388:79 *1127:73 0.000178428
113 *388:81 *1929:RESET_B 0
114 *388:81 *1980:CLK 0.000146825
115 *388:81 *727:20 4.37999e-05
116 *388:81 *1022:12 4.49059e-05
117 *388:81 *1111:273 7.14428e-05
118 *388:83 *1677:B 2.60119e-05
119 *388:83 *1929:RESET_B 0
120 *388:83 *1983:RESET_B 0
121 *388:83 *1022:12 3.5534e-06
122 *388:83 *1111:299 5.18011e-05
123 *388:83 *1111:303 0
124 *388:113 *1202:A 5.4694e-06
125 *388:113 *1964:RESET_B 0.000106833
126 *388:113 *1964:CLK 0.000334495
127 *388:113 *997:12 1.4164e-05
128 *388:125 *1200:B 8.62625e-06
129 *388:125 *1201:A 0.000266832
130 *388:125 *1202:A 2.652e-05
131 *388:125 *1202:B 2.15348e-05
132 *388:125 *1524:B 1.32618e-05
133 *388:125 *1525:A2 3.46021e-05
134 *388:125 *1537:A2 0
135 *388:125 *598:107 0.00067861
136 *388:125 *1002:12 4.2748e-05
137 *388:125 *1106:235 6.14128e-05
138 *388:131 *2142:A 7.77309e-06
139 *388:131 *458:126 6.26863e-05
140 *388:131 *778:18 0.000293097
141 *388:131 *988:12 0.000114403
142 *388:131 *1002:12 5.03545e-06
143 *388:131 *1131:19 4.83622e-05
144 *388:131 *1143:16 0
145 *388:131 *1143:20 0
146 *388:133 *1721:B 0.0001195
147 *388:133 *458:126 0.00022849
148 *388:133 *458:128 9.08174e-05
149 *388:133 *778:18 4.73676e-05
150 *388:143 *1197:B 4.88955e-05
151 *388:143 *1511:A1 0.000192462
152 *388:143 *1511:A2 0.000118485
153 *388:143 *1514:A1 8.88534e-05
154 *388:143 *458:128 0.000393354
155 *388:143 *612:10 1.43983e-05
156 *388:143 *778:18 5.12622e-05
157 *388:143 *1131:25 0
158 *388:143 *1131:27 0
159 *388:165 *1967:RESET_B 0.000154404
160 *388:165 *1000:12 2.26179e-06
161 *388:212 *1200:B 0.000161966
162 *388:212 *1537:A2 0
163 *388:212 *1964:CLK 0
164 *388:212 *598:145 4.78554e-05
165 *388:212 *598:167 8.28997e-05
166 *388:212 *638:12 0
167 *388:212 *965:10 0.000143467
168 *388:212 *1106:235 0.000180379
169 *388:220 *1580:A2 3.27437e-05
170 *388:220 *1638:B 0.000482079
171 *388:220 *1639:A2 0.000195438
172 *388:220 *1727:B 0.000106487
173 *388:220 *1730:B 5.22654e-06
174 *388:220 *1954:CLK 0
175 *388:220 *661:10 6.27782e-05
176 *1602:A *1188:A 2.68991e-05
177 *1603:B1 *1188:A 6.64392e-05
178 *1606:A *1194:A 7.67214e-05
179 *1606:A *388:16 0.000143041
180 *1607:B1 *388:10 1.41976e-05
181 *1638:A *388:220 7.36563e-05
182 *1639:B1 *388:220 0.000264716
183 *1679:A *1680:A 6.63276e-05
184 *1682:A *1680:A 2.53191e-05
185 *1682:B *1680:A 0.000154161
186 *1695:A *388:30 4.9827e-05
187 *1698:A *1696:A 6.50727e-05
188 *1701:A *388:83 0.000143161
189 *1704:B *1702:A 3.67528e-06
190 *1707:A *1705:A 1.03403e-05
191 *1707:A *388:79 0.000152586
192 *1714:A *388:30 6.86692e-05
193 *1714:B *1233:A 1.03594e-05
194 *1720:B *388:125 5.03545e-06
195 *1720:B *388:131 5.50879e-05
196 *1729:A *1727:A 1.61631e-05
197 *1729:A *388:220 7.66391e-06
198 *1732:A *388:220 6.27718e-05
199 *1929:D *388:81 0
200 *1954:D *1696:A 0.000130777
201 *1964:D *388:125 0
202 *1969:D *388:10 6.28701e-05
203 *1976:D *388:83 0
204 *1980:D *1746:A 0.000206696
205 *1981:D *1680:A 0
206 *1983:D *388:83 2.55493e-05
207 *117:14 *1194:A 0
208 *185:28 *1702:A 3.40703e-05
209 *185:34 *1188:A 5.31465e-05
210 *185:34 *1702:A 8.74896e-05
211 *185:73 *388:165 0.000450157
212 *185:154 *388:125 0.000207204
213 *185:345 *388:212 0
*RES
1 *1187:Y *388:10 23.9249 
2 *388:10 *388:16 11.2135 
3 *388:16 *388:30 20.014 
4 *388:30 *1233:A 22.8808 
5 *388:30 *1712:A 9.24915 
6 *388:16 *1693:A 9.24915 
7 *388:10 *1194:A 18.7961 
8 *1187:Y *388:73 19.7337 
9 *388:73 *388:75 6.39977 
10 *388:75 *388:79 12.1156 
11 *388:79 *388:81 8.89128 
12 *388:81 *388:83 13.4591 
13 *388:83 *1680:A 28.406 
14 *388:83 *388:102 5.2234 
15 *388:102 *1677:A 9.24915 
16 *388:102 *388:113 19.8934 
17 *388:113 *388:115 4.5 
18 *388:115 *388:125 27.8015 
19 *388:125 *388:131 14.9247 
20 *388:131 *388:133 5.98452 
21 *388:133 *388:143 17.638 
22 *388:143 *1853:A 32.4316 
23 *388:143 *1197:A 9.24915 
24 *388:133 *388:165 22.4161 
25 *388:165 *388:167 0.988641 
26 *388:167 *1188:A 25.2603 
27 *388:167 *1743:A 9.24915 
28 *388:165 *1702:A 27.1404 
29 *388:131 *1721:A 13.7491 
30 *388:125 *1718:A 13.7491 
31 *388:115 *388:212 17.5438 
32 *388:212 *388:220 19.5595 
33 *388:220 *1730:A 13.7491 
34 *388:220 *1696:A 22.3548 
35 *388:212 *1727:A 10.5513 
36 *388:113 *1200:A 9.24915 
37 *388:81 *1699:A 13.7491 
38 *388:79 *1746:A 23.5632 
39 *388:75 *1705:A 14.4725 
40 *388:73 *1203:A 16.1605 
*END

*D_NET *389 0.000278419
*CONN
*I *1190:A I *D sky130_fd_sc_hd__nand2_1
*I *1188:Y O *D sky130_fd_sc_hd__nand2_1
*CAP
1 *1190:A 0.000116231
2 *1188:Y 0.000116231
3 *1190:A *1982:CLK 1.0759e-05
4 *1190:A *734:16 1.36606e-05
5 *1188:A *1190:A 2.15372e-05
*RES
1 *1188:Y *1190:A 21.4642 
*END

*D_NET *390 0.00047675
*CONN
*I *1190:B I *D sky130_fd_sc_hd__nand2_1
*I *1189:Y O *D sky130_fd_sc_hd__nand2_1
*CAP
1 *1190:B 0.000203974
2 *1189:Y 0.000203974
3 *1190:B *1189:A 3.14978e-05
4 *1190:B *1972:RESET_B 0
5 *1190:B *970:12 3.44412e-06
6 *1190:B *1133:66 3.38603e-05
*RES
1 *1189:Y *1190:B 31.4388 
*END

*D_NET *391 0.000893835
*CONN
*I *1599:A1 I *D sky130_fd_sc_hd__o21ai_0
*I *1193:A2 I *D sky130_fd_sc_hd__o21ai_0
*I *1191:Y O *D sky130_fd_sc_hd__inv_1
*CAP
1 *1599:A1 7.14212e-05
2 *1193:A2 0
3 *1191:Y 0.000116814
4 *391:8 0.000188235
5 *1599:A1 *1192:A 0
6 *1599:A1 *1193:A1 1.19705e-05
7 *1599:A1 *1193:B1 0.000272742
8 *1599:A1 *1111:343 5.51483e-06
9 *391:8 *1191:A 2.48028e-05
10 *391:8 *1193:A1 3.5063e-05
11 *391:8 *1193:B1 2.68087e-05
12 *391:8 *2163:A 1.49129e-05
13 *1599:A2 *1599:A1 6.27718e-05
14 *1599:B1 *1599:A1 6.27782e-05
*RES
1 *1191:Y *391:8 12.4924 
2 *391:8 *1193:A2 9.24915 
3 *391:8 *1599:A1 12.7697 
*END

*D_NET *392 0.000853365
*CONN
*I *1193:B1 I *D sky130_fd_sc_hd__o21ai_0
*I *1192:Y O *D sky130_fd_sc_hd__nand2_1
*CAP
1 *1193:B1 0.000231071
2 *1192:Y 0.000231071
3 *1193:B1 *1192:A 6.27718e-05
4 *1193:B1 *2163:A 1.50924e-05
5 *1599:A1 *1193:B1 0.000272742
6 *1599:A2 *1193:B1 1.3808e-05
7 *391:8 *1193:B1 2.68087e-05
*RES
1 *1192:Y *1193:B1 24.6472 
*END

*D_NET *393 0.000276134
*CONN
*I *1196:A I *D sky130_fd_sc_hd__nand2_1
*I *1194:Y O *D sky130_fd_sc_hd__nand2_1
*CAP
1 *1196:A 5.61644e-05
2 *1194:Y 5.61644e-05
3 *1196:A *1196:B 1.64789e-05
4 *1196:A *732:12 0.000122378
5 *1196:A *1111:209 1.98996e-05
6 *1194:A *1196:A 5.04829e-06
*RES
1 *1194:Y *1196:A 20.7649 
*END

*D_NET *394 0.000370008
*CONN
*I *1196:B I *D sky130_fd_sc_hd__nand2_1
*I *1195:Y O *D sky130_fd_sc_hd__nand2_1
*CAP
1 *1196:B 9.73482e-05
2 *1195:Y 9.73482e-05
3 *1196:B *1195:A 5.98774e-05
4 *1196:B *1111:209 9.89555e-05
5 *1196:A *1196:B 1.64789e-05
*RES
1 *1195:Y *1196:B 22.0188 
*END

*D_NET *395 0.00076303
*CONN
*I *1199:A I *D sky130_fd_sc_hd__nand2_1
*I *1197:Y O *D sky130_fd_sc_hd__nand2_1
*CAP
1 *1199:A 0.0002177
2 *1197:Y 0.0002177
3 *1199:A *1197:B 4.58003e-05
4 *1199:A *777:8 0.000143413
5 *1853:A *1199:A 0.000138416
*RES
1 *1197:Y *1199:A 34.3456 
*END

*D_NET *396 0.000207438
*CONN
*I *1199:B I *D sky130_fd_sc_hd__nand2_1
*I *1198:Y O *D sky130_fd_sc_hd__nand2_1
*CAP
1 *1199:B 8.46077e-05
2 *1198:Y 8.46077e-05
3 *1199:B *2040:CLK 3.82228e-05
*RES
1 *1198:Y *1199:B 20.355 
*END

*D_NET *397 0.000528505
*CONN
*I *1202:A I *D sky130_fd_sc_hd__nand2_1
*I *1200:Y O *D sky130_fd_sc_hd__nand2_1
*CAP
1 *1202:A 0.000239477
2 *1200:Y 0.000239477
3 *1202:A *1200:B 4.30017e-06
4 *1202:A *1201:A 1.32609e-05
5 *1202:A *1537:A2 0
6 *1202:A *1537:B1 0
7 *1964:D *1202:A 0
8 *388:113 *1202:A 5.4694e-06
9 *388:125 *1202:A 2.652e-05
*RES
1 *1200:Y *1202:A 31.9934 
*END

*D_NET *398 0.000211079
*CONN
*I *1202:B I *D sky130_fd_sc_hd__nand2_1
*I *1201:Y O *D sky130_fd_sc_hd__nand2_1
*CAP
1 *1202:B 4.85351e-05
2 *1201:Y 4.85351e-05
3 *1202:B *1201:A 6.08467e-05
4 *1202:B *1201:B 3.13805e-06
5 *1202:B *1001:16 2.84892e-05
6 *388:125 *1202:B 2.15348e-05
*RES
1 *1201:Y *1202:B 20.355 
*END

*D_NET *399 0.000370581
*CONN
*I *1205:A I *D sky130_fd_sc_hd__nand2_1
*I *1203:Y O *D sky130_fd_sc_hd__nand2_1
*CAP
1 *1205:A 0.000115229
2 *1203:Y 0.000115229
3 *1205:A *2167:A 6.46815e-05
4 *1203:A *1205:A 7.54405e-05
*RES
1 *1203:Y *1205:A 21.8741 
*END

*D_NET *400 0.000328528
*CONN
*I *1205:B I *D sky130_fd_sc_hd__nand2_1
*I *1204:Y O *D sky130_fd_sc_hd__nand2_1
*CAP
1 *1205:B 0.000136177
2 *1204:Y 0.000136177
3 *1205:B *966:18 5.2737e-05
4 *1205:B *1111:578 3.43721e-06
*RES
1 *1204:Y *1205:B 30.4689 
*END

*D_NET *401 0.00164868
*CONN
*I *1857:A1 I *D sky130_fd_sc_hd__a31oi_1
*I *1208:A I *D sky130_fd_sc_hd__nand2_1
*I *1643:A1 I *D sky130_fd_sc_hd__a21oi_1
*I *1206:Y O *D sky130_fd_sc_hd__inv_1
*CAP
1 *1857:A1 6.63441e-05
2 *1208:A 0.000144519
3 *1643:A1 0.000191021
4 *1206:Y 0.000440371
5 *401:18 0.000460212
6 *1208:A *1857:A2 0.000125695
7 *1208:A *1857:A3 3.14544e-05
8 *1208:A *590:8 0
9 *1643:A1 *1206:A 9.55569e-06
10 *401:18 *1856:A 2.16355e-05
11 *1855:B *1208:A 0
12 *1857:B1 *1857:A1 8.10474e-05
13 *1857:B1 *401:18 6.36477e-05
14 *208:10 *1643:A1 1.31764e-05
*RES
1 *1206:Y *1643:A1 21.1628 
2 *1206:Y *401:18 14.6867 
3 *401:18 *1208:A 22.1574 
4 *401:18 *1857:A1 11.1059 
*END

*D_NET *402 0.00144716
*CONN
*I *1856:A I *D sky130_fd_sc_hd__xor2_1
*I *1208:B I *D sky130_fd_sc_hd__nand2_1
*I *1237:B2 I *D sky130_fd_sc_hd__o22ai_1
*I *1207:Y O *D sky130_fd_sc_hd__clkinv_1
*CAP
1 *1856:A 0.000189853
2 *1208:B 8.63685e-05
3 *1237:B2 6.92332e-05
4 *1207:Y 0.000162634
5 *402:14 0.000181156
6 *402:10 0.000378042
7 *1208:B *1855:A 4.04393e-05
8 *1237:B2 *1237:A1 6.50586e-05
9 *1237:B2 *1237:A2 2.65831e-05
10 *1856:A *1237:A1 2.01482e-05
11 *1856:A *1237:B1 0
12 *1856:A *665:10 0
13 *402:10 *1207:A 4.76635e-06
14 *402:10 *1237:A1 2.55493e-05
15 *402:10 *665:10 0
16 *402:10 *720:14 0
17 *1855:B *1856:A 0.000175689
18 *208:10 *1856:A 0
19 *401:18 *1856:A 2.16355e-05
*RES
1 *1207:Y *402:10 16.8591 
2 *402:10 *402:14 5.07872 
3 *402:14 *1237:B2 11.0817 
4 *402:14 *1208:B 11.6605 
5 *402:10 *1856:A 19.2846 
*END

*D_NET *403 0.000920766
*CONN
*I *1211:A2 I *D sky130_fd_sc_hd__o21ai_0
*I *1590:A1 I *D sky130_fd_sc_hd__o21ai_0
*I *1209:Y O *D sky130_fd_sc_hd__inv_1
*CAP
1 *1211:A2 1.03162e-05
2 *1590:A1 0.000113891
3 *1209:Y 8.24735e-05
4 *403:6 0.00020668
5 *1211:A2 *2153:A 0
6 *1590:A1 *1211:B1 1.00937e-05
7 *1590:A1 *1490:A 0
8 *1590:A1 *1111:360 8.60009e-05
9 *403:6 *1209:A 3.21692e-05
10 *403:6 *1211:B1 2.32594e-05
11 *403:6 *2153:A 0.000195265
12 *1951:D *1590:A1 0.000160617
*RES
1 *1209:Y *403:6 12.4683 
2 *403:6 *1590:A1 13.1796 
3 *403:6 *1211:A2 9.82786 
*END

*D_NET *404 0.00100414
*CONN
*I *1211:B1 I *D sky130_fd_sc_hd__o21ai_0
*I *1210:Y O *D sky130_fd_sc_hd__nand2_1
*CAP
1 *1211:B1 0.00034288
2 *1210:Y 0.00034288
3 *1211:B1 *1111:360 0.000274929
4 *1211:B1 *1111:366 1.00981e-05
5 *1590:A1 *1211:B1 1.00937e-05
6 *403:6 *1211:B1 2.32594e-05
*RES
1 *1210:Y *1211:B1 24.6472 
*END

*D_NET *405 0.000961047
*CONN
*I *1214:A2 I *D sky130_fd_sc_hd__o21ai_0
*I *1589:A1 I *D sky130_fd_sc_hd__o21ai_0
*I *1212:Y O *D sky130_fd_sc_hd__inv_1
*CAP
1 *1214:A2 0
2 *1589:A1 8.81872e-05
3 *1212:Y 6.10685e-05
4 *405:8 0.000149256
5 *1589:A1 *1214:A1 0.000147781
6 *1589:A1 *1214:B1 0.000171596
7 *405:8 *1212:A 3.19445e-05
8 *405:8 *1214:B1 0.000297085
9 *405:8 *2152:A 1.41291e-05
*RES
1 *1212:Y *405:8 12.4924 
2 *405:8 *1589:A1 12.9385 
3 *405:8 *1214:A2 9.24915 
*END

*D_NET *406 0.00206962
*CONN
*I *1214:B1 I *D sky130_fd_sc_hd__o21ai_0
*I *1213:Y O *D sky130_fd_sc_hd__nand2_1
*CAP
1 *1214:B1 0.000420837
2 *1213:Y 0.000420837
3 *1214:B1 *1212:A 3.61564e-05
4 *1214:B1 *1214:A1 7.71476e-05
5 *1214:B1 *1488:A 5.04829e-06
6 *1214:B1 *1503:B 5.51483e-06
7 *1214:B1 *2152:A 0.000222149
8 *1589:A1 *1214:B1 0.000171596
9 *1952:D *1214:B1 0.000413252
10 *405:8 *1214:B1 0.000297085
*RES
1 *1213:Y *1214:B1 32.074 
*END

*D_NET *407 0.00141701
*CONN
*I *1217:A2 I *D sky130_fd_sc_hd__o21ai_0
*I *1592:A1 I *D sky130_fd_sc_hd__o21ai_0
*I *1215:Y O *D sky130_fd_sc_hd__inv_1
*CAP
1 *1217:A2 1.52855e-05
2 *1592:A1 0.000108637
3 *1215:Y 0.000159363
4 *407:6 0.000283285
5 *1217:A2 *1217:A1 9.0818e-06
6 *1592:A1 *1217:A1 2.07893e-05
7 *1592:A1 *1232:A1 1.65872e-05
8 *1592:A1 *2170:A 0.00025233
9 *1592:A1 *1111:603 2.4029e-05
10 *407:6 *1215:A 3.39578e-05
11 *407:6 *1232:A1 2.16355e-05
12 *407:6 *2155:A 0.00038532
13 *1592:A2 *1592:A1 6.08467e-05
14 *1592:B1 *1592:A1 2.58616e-05
*RES
1 *1215:Y *407:6 14.6867 
2 *407:6 *1592:A1 13.3243 
3 *407:6 *1217:A2 9.82786 
*END

*D_NET *408 0.00209875
*CONN
*I *1217:B1 I *D sky130_fd_sc_hd__o21ai_0
*I *1216:Y O *D sky130_fd_sc_hd__nand2_1
*CAP
1 *1217:B1 0.000796131
2 *1216:Y 0.000796131
3 *1217:B1 *1231:A 2.27448e-05
4 *1217:B1 *1232:A1 0.000140777
5 *1217:B1 *1494:A 0.000165521
6 *1217:B1 *1946:RESET_B 0.000107496
7 *1217:B1 *1946:CLK 6.99486e-05
*RES
1 *1216:Y *1217:B1 40.8671 
*END

*D_NET *409 0.000971967
*CONN
*I *1591:A1 I *D sky130_fd_sc_hd__o21ai_0
*I *1220:A2 I *D sky130_fd_sc_hd__o21ai_0
*I *1218:Y O *D sky130_fd_sc_hd__inv_1
*CAP
1 *1591:A1 0.000122421
2 *1220:A2 0
3 *1218:Y 0.000113711
4 *409:14 0.000236132
5 *1591:A1 *734:16 4.98715e-05
6 *409:14 *1218:A 1.78493e-05
7 *409:14 *2154:A 0.000277575
8 *409:14 *734:16 4.49798e-05
9 *1950:D *1591:A1 0.000109427
*RES
1 *1218:Y *409:14 14.108 
2 *409:14 *1220:A2 9.24915 
3 *409:14 *1591:A1 14.0477 
*END

*D_NET *410 0.000762753
*CONN
*I *1220:B1 I *D sky130_fd_sc_hd__o21ai_0
*I *1219:Y O *D sky130_fd_sc_hd__nand2_1
*CAP
1 *1220:B1 0.000273902
2 *1219:Y 0.000273902
3 *1220:B1 *1219:A 3.00829e-05
4 *1220:B1 *1948:CLK 6.24474e-06
5 *1220:B1 *1111:379 2.51424e-05
6 *1220:B1 *1111:392 1.22892e-05
7 *184:68 *1220:B1 0.000141189
*RES
1 *1219:Y *1220:B1 33.2808 
*END

*D_NET *411 0.00112364
*CONN
*I *1223:A2 I *D sky130_fd_sc_hd__o21ai_0
*I *1594:A1 I *D sky130_fd_sc_hd__o21ai_0
*I *1221:Y O *D sky130_fd_sc_hd__inv_1
*CAP
1 *1223:A2 2.06324e-05
2 *1594:A1 0.000264758
3 *1221:Y 9.23922e-05
4 *411:6 0.000377782
5 *1223:A2 *2158:A 0
6 *1594:A1 *1223:A1 7.97944e-05
7 *411:6 *1221:A 3.21692e-05
8 *411:6 *2158:A 0.000195265
9 *1947:D *1594:A1 6.08467e-05
*RES
1 *1221:Y *411:6 12.4683 
2 *411:6 *1594:A1 15.5427 
3 *411:6 *1223:A2 9.82786 
*END

*D_NET *412 0.000870809
*CONN
*I *1223:B1 I *D sky130_fd_sc_hd__o21ai_0
*I *1222:Y O *D sky130_fd_sc_hd__nand2_1
*CAP
1 *1223:B1 0.00035658
2 *1222:Y 0.00035658
3 *1223:B1 axi_lite_o[19] 4.82227e-05
4 *1223:B1 *1223:A1 0
5 *1223:B1 *2167:A 0.000109427
*RES
1 *1222:Y *1223:B1 33.7966 
*END

*D_NET *413 0.000869715
*CONN
*I *1593:A1 I *D sky130_fd_sc_hd__o21ai_0
*I *1226:A2 I *D sky130_fd_sc_hd__o21ai_0
*I *1224:Y O *D sky130_fd_sc_hd__inv_1
*CAP
1 *1593:A1 0
2 *1226:A2 8.55938e-05
3 *1224:Y 0.000120431
4 *413:10 0.000206025
5 *1226:A2 *1226:B1 0.000132934
6 *1226:A2 *1113:880 7.0954e-05
7 *413:10 *1224:A 1.39115e-05
8 *413:10 *1226:B1 2.50153e-05
9 *413:10 *2169:A 3.48551e-05
10 *413:10 *1111:400 1.64789e-05
11 *1593:A2 *1226:A2 1.49188e-05
12 *1593:A2 *413:10 6.30445e-05
13 *1593:B1 *413:10 6.50727e-05
14 *184:40 *1226:A2 2.04806e-05
*RES
1 *1224:Y *413:10 13.1917 
2 *413:10 *1226:A2 21.5198 
3 *413:10 *1593:A1 9.24915 
*END

*D_NET *414 0.000752495
*CONN
*I *1226:B1 I *D sky130_fd_sc_hd__o21ai_0
*I *1225:Y O *D sky130_fd_sc_hd__nand2_1
*CAP
1 *1226:B1 0.000193398
2 *1225:Y 0.000193398
3 *1226:B1 *2157:A 1.41976e-05
4 *1226:B1 *1111:400 6.50727e-05
5 *1226:A2 *1226:B1 0.000132934
6 *1593:A2 *1226:B1 4.89898e-06
7 *184:40 *1226:B1 0.000123582
8 *413:10 *1226:B1 2.50153e-05
*RES
1 *1225:Y *1226:B1 32.3015 
*END

*D_NET *415 0.00102
*CONN
*I *1596:A1 I *D sky130_fd_sc_hd__o21ai_0
*I *1229:A2 I *D sky130_fd_sc_hd__o21ai_0
*I *1227:Y O *D sky130_fd_sc_hd__inv_1
*CAP
1 *1596:A1 0.000108047
2 *1229:A2 0
3 *1227:Y 0.000116602
4 *415:8 0.000224649
5 *1596:A1 *1229:B1 0.0003414
6 *415:8 *1227:A 2.46912e-05
7 *415:8 *1229:B1 8.47211e-05
8 *415:8 *2160:A 1.48571e-05
9 *1596:A2 *1596:A1 3.45819e-05
10 *1596:A2 *415:8 0
11 *1596:B1 *1596:A1 6.27718e-05
12 *1945:D *1596:A1 7.67734e-06
*RES
1 *1227:Y *415:8 12.4924 
2 *415:8 *1229:A2 9.24915 
3 *415:8 *1596:A1 13.903 
*END

*D_NET *416 0.00101073
*CONN
*I *1229:B1 I *D sky130_fd_sc_hd__o21ai_0
*I *1228:Y O *D sky130_fd_sc_hd__nand2_1
*CAP
1 *1229:B1 0.000267214
2 *1228:Y 0.000267214
3 *1229:B1 axi_lite_o[3] 3.82228e-05
4 *1229:B1 *2160:A 4.29314e-06
5 *1596:A1 *1229:B1 0.0003414
6 *1596:A2 *1229:B1 7.66391e-06
7 *415:8 *1229:B1 8.47211e-05
*RES
1 *1228:Y *1229:B1 25.9252 
*END

*D_NET *417 0.00148387
*CONN
*I *1232:A2 I *D sky130_fd_sc_hd__o21ai_0
*I *1595:A1 I *D sky130_fd_sc_hd__o21ai_0
*I *1230:Y O *D sky130_fd_sc_hd__inv_1
*CAP
1 *1232:A2 9.07996e-06
2 *1595:A1 9.17494e-05
3 *1230:Y 0.000247271
4 *417:6 0.000348101
5 *1232:A2 *2159:A 3.01683e-06
6 *1595:A1 *1232:B1 4.81849e-05
7 *1595:A1 *1500:B 3.01683e-06
8 *1595:A1 *1011:14 0.000378912
9 *417:6 *1230:A 3.6367e-05
10 *417:6 *1232:B1 3.25584e-05
11 *417:6 *2159:A 1.00937e-05
12 *417:6 *1011:14 0.000208218
13 *184:113 *1595:A1 3.58044e-05
14 *184:119 *1595:A1 3.14978e-05
*RES
1 *1230:Y *417:6 16.3505 
2 *417:6 *1595:A1 13.8789 
3 *417:6 *1232:A2 9.82786 
*END

*D_NET *418 0.000906863
*CONN
*I *1232:B1 I *D sky130_fd_sc_hd__o21ai_0
*I *1231:Y O *D sky130_fd_sc_hd__nand2_1
*CAP
1 *1232:B1 0.000228624
2 *1231:Y 0.000228624
3 *1232:B1 *2159:A 0.000106831
4 *1232:B1 *1011:14 2.01874e-05
5 *1595:A1 *1232:B1 4.81849e-05
6 *1946:D *1232:B1 6.50727e-05
7 *184:113 *1232:B1 0.000111708
8 *184:119 *1232:B1 6.50727e-05
9 *417:6 *1232:B1 3.25584e-05
*RES
1 *1231:Y *1232:B1 25.3464 
*END

*D_NET *419 0.000209152
*CONN
*I *1235:A I *D sky130_fd_sc_hd__nand2_1
*I *1233:Y O *D sky130_fd_sc_hd__nand2_1
*CAP
1 *1235:A 8.73384e-05
2 *1233:Y 8.73384e-05
3 *1235:A *1934:CLK 0
4 *1235:A *962:14 3.4475e-05
5 *1235:A *998:12 0
*RES
1 *1233:Y *1235:A 29.7455 
*END

*D_NET *420 0.000157782
*CONN
*I *1235:B I *D sky130_fd_sc_hd__nand2_1
*I *1234:Y O *D sky130_fd_sc_hd__nand2_1
*CAP
1 *1235:B 6.05243e-05
2 *1234:Y 6.05243e-05
3 *1235:B *1234:A 2.93844e-05
4 *1235:B *1617:A2 0
5 *1934:D *1235:B 7.34948e-06
*RES
1 *1234:Y *1235:B 20.355 
*END

*D_NET *421 0.00508913
*CONN
*I *1768:B I *D sky130_fd_sc_hd__nor2_1
*I *1569:A I *D sky130_fd_sc_hd__nor2_1
*I *1292:A1 I *D sky130_fd_sc_hd__o21ai_0
*I *1236:Y O *D sky130_fd_sc_hd__inv_1
*CAP
1 *1768:B 0.000173898
2 *1569:A 9.89538e-05
3 *1292:A1 0.00061593
4 *1236:Y 1.51697e-05
5 *421:33 0.00102313
6 *421:6 0.00138138
7 *1292:A1 *1236:A 5.27799e-05
8 *1292:A1 *1292:B1 6.3657e-05
9 *1292:A1 *2043:RESET_B 3.75419e-05
10 *1292:A1 *2043:CLK 0.000158246
11 *1292:A1 *835:31 1.25205e-05
12 *1569:A *1572:B1 9.29777e-05
13 *1569:A *652:10 5.03545e-06
14 *1569:A *652:19 1.94615e-05
15 *1768:B *1572:B1 8.5976e-05
16 *1768:B *652:19 3.26247e-05
17 *1768:B *777:14 2.58757e-05
18 *421:6 *1672:A1 1.85511e-05
19 *421:33 *1526:A2 2.71504e-05
20 *421:33 *1570:A 3.19445e-05
21 *421:33 *1571:A1 5.51254e-05
22 *421:33 *1571:B1 0.000134306
23 *421:33 *1572:A1 6.27718e-05
24 *421:33 *1572:C1 0.000149337
25 *421:33 *1672:A1 0.000188354
26 *421:33 *450:67 0.000161956
27 *421:33 *457:23 0.000113254
28 *421:33 *656:8 0.000107496
29 *1769:B *1768:B 3.30997e-05
30 *1771:A2 *1768:B 3.13805e-06
31 *2084:D *1292:A1 0.000107496
*RES
1 *1236:Y *421:6 9.69524 
2 *421:6 *1292:A1 31.4197 
3 *421:6 *421:33 25.2374 
4 *421:33 *1569:A 16.4116 
5 *421:33 *1768:B 19.123 
*END

*D_NET *422 0.00339373
*CONN
*I *1238:A I *D sky130_fd_sc_hd__inv_1
*I *1883:A2 I *D sky130_fd_sc_hd__o21ai_0
*I *1479:B1 I *D sky130_fd_sc_hd__a21oi_2
*I *1237:Y O *D sky130_fd_sc_hd__o22ai_1
*CAP
1 *1238:A 0.000196157
2 *1883:A2 2.09582e-05
3 *1479:B1 0
4 *1237:Y 0.000728374
5 *422:23 0.000349641
6 *422:10 0.000860899
7 *1238:A *1241:A2 3.21289e-05
8 *1238:A *1274:A1 7.77284e-05
9 *1238:A *1479:A1 2.352e-05
10 *1238:A *1643:B1 3.21289e-05
11 *1238:A *2054:CLK 3.74249e-05
12 *1238:A *1136:22 0.000136702
13 *1883:A2 *1095:20 6.50586e-05
14 *422:10 *1237:A2 4.49568e-05
15 *422:10 *1643:A2 0
16 *422:10 *1643:B1 0.000171701
17 *422:10 *2054:CLK 1.03594e-05
18 *422:10 *592:10 0.000122858
19 *422:10 *789:26 0.000100376
20 *422:23 *1479:A1 4.3263e-05
21 *422:23 *2054:CLK 5.64544e-05
22 *1883:B1 *1238:A 3.31882e-05
23 *1883:B1 *422:23 0.000118485
24 *2051:D *422:10 1.77537e-06
25 *2065:D *1238:A 0.000127179
26 *2065:D *1883:A2 2.41274e-06
27 *186:10 *422:10 0
28 *186:10 *422:23 0
*RES
1 *1237:Y *422:10 33.345 
2 *422:10 *1479:B1 13.7491 
3 *422:10 *422:23 4.39679 
4 *422:23 *1883:A2 14.4725 
5 *422:23 *1238:A 21.4383 
*END

*D_NET *423 0.00093762
*CONN
*I *1274:A2 I *D sky130_fd_sc_hd__o21ai_0
*I *1241:A1 I *D sky130_fd_sc_hd__a21oi_1
*I *1238:Y O *D sky130_fd_sc_hd__inv_1
*CAP
1 *1274:A2 7.93718e-05
2 *1241:A1 0.000103465
3 *1238:Y 5.58788e-05
4 *423:6 0.000238715
5 *1241:A1 *1274:A1 7.7502e-05
6 *1241:A1 *1643:B1 0.000109427
7 *1274:A2 *1274:A1 0.000118017
8 *423:6 *1643:B1 7.43837e-05
9 *186:10 *1241:A1 8.08598e-05
*RES
1 *1238:Y *423:6 10.2498 
2 *423:6 *1241:A1 20.9439 
3 *423:6 *1274:A2 20.4964 
*END

*D_NET *424 0.00118892
*CONN
*I *1877:B I *D sky130_fd_sc_hd__nand2_1
*I *1240:B2 I *D sky130_fd_sc_hd__o22ai_1
*I *1357:B I *D sky130_fd_sc_hd__nand2_1
*I *1239:Y O *D sky130_fd_sc_hd__inv_1
*CAP
1 *1877:B 0
2 *1240:B2 0.000263742
3 *1357:B 0
4 *1239:Y 4.5407e-05
5 *424:10 0.000377158
6 *424:6 0.000158823
7 *1240:B2 *1240:A2 7.50872e-05
8 *1240:B2 *1879:A1 1.03594e-05
9 *1240:B2 *527:10 0
10 *1240:B2 *528:27 0
11 *1240:B2 *1092:14 3.31882e-05
12 *424:10 *1239:A 1.59362e-06
13 *424:10 *1879:A1 0.000218517
14 *1879:B1 *424:6 5.04829e-06
*RES
1 *1239:Y *424:6 10.2498 
2 *424:6 *424:10 8.40826 
3 *424:10 *1357:B 13.7491 
4 *424:10 *1240:B2 20.1489 
5 *424:6 *1877:B 9.24915 
*END

*D_NET *425 0.00873287
*CONN
*I *1241:B1 I *D sky130_fd_sc_hd__a21oi_1
*I *1266:A I *D sky130_fd_sc_hd__inv_1
*I *1882:A I *D sky130_fd_sc_hd__nand2_1
*I *1240:Y O *D sky130_fd_sc_hd__o22ai_1
*CAP
1 *1241:B1 9.45572e-05
2 *1266:A 3.56663e-05
3 *1882:A 0
4 *1240:Y 0.0011701
5 *425:29 0.000182063
6 *425:20 0.000520782
7 *425:14 0.00163904
8 *1241:B1 *456:10 0.000363046
9 *1266:A *1882:B 7.88183e-05
10 *425:14 *1360:A 0
11 *425:14 *1051:12 9.84729e-05
12 *425:14 *1091:26 0.000452266
13 *425:14 *1138:8 3.86572e-05
14 *425:20 *2049:CLK 0.000506578
15 *425:20 *2051:RESET_B 0.000718877
16 *425:20 *2051:CLK 0.000267404
17 *425:20 *456:10 0.000430915
18 *425:20 *751:12 0
19 *425:20 *957:10 0
20 *425:20 *1091:26 0.000295365
21 *425:20 *1138:8 2.21623e-05
22 *425:29 *456:10 0.000167062
23 *1664:A *425:14 6.08467e-05
24 *1666:A *425:14 0.00011961
25 *1909:D *425:14 7.66066e-05
26 *1916:D *425:14 0.00010051
27 *1917:D *425:14 9.82896e-06
28 *2051:D *425:20 7.34948e-06
29 *186:10 *1241:B1 0.000365107
30 *186:10 *425:20 0.000742099
31 *186:10 *425:29 0.000169078
*RES
1 *1240:Y *425:14 41.9587 
2 *425:14 *425:20 29.082 
3 *425:20 *1882:A 13.7491 
4 *425:20 *425:29 3.07775 
5 *425:29 *1266:A 14.6835 
6 *425:29 *1241:B1 20.1489 
*END

*D_NET *426 0.00952303
*CONN
*I *1643:B1 I *D sky130_fd_sc_hd__a21oi_1
*I *1284:A2 I *D sky130_fd_sc_hd__a32oi_1
*I *1265:A1 I *D sky130_fd_sc_hd__o21ai_4
*I *1880:B I *D sky130_fd_sc_hd__nor2_1
*I *1258:A I *D sky130_fd_sc_hd__nand2_4
*I *2487:A I *D sky130_fd_sc_hd__buf_4
*I *1241:Y O *D sky130_fd_sc_hd__a21oi_1
*CAP
1 *1643:B1 0.000885425
2 *1284:A2 0
3 *1265:A1 0.000122352
4 *1880:B 0
5 *1258:A 3.90434e-05
6 *2487:A 0.000621102
7 *1241:Y 0
8 *426:39 3.90434e-05
9 *426:37 0.000147927
10 *426:22 0.00126903
11 *426:12 0.0010419
12 *426:4 0.00130497
13 *1265:A1 *1880:A 3.00174e-06
14 *1643:B1 *1241:A2 0.000212222
15 *1643:B1 *1479:A2 9.75356e-05
16 *1643:B1 *2054:RESET_B 0
17 *1643:B1 *2054:CLK 8.01201e-05
18 *1643:B1 *2518:A 0
19 *1643:B1 *1025:22 0
20 *1643:B1 *1095:14 0.000149628
21 *1643:B1 *1110:442 0
22 *1643:B1 *1136:22 0.000181962
23 *1643:B1 *1136:48 1.02917e-05
24 *2487:A *1242:A 6.27718e-05
25 *2487:A *1254:A3 0.000179286
26 *2487:A *1262:A 0
27 *2487:A *1264:C1 0
28 *2487:A *1880:A 9.10232e-06
29 *2487:A *427:59 0
30 *2487:A *1105:6 6.27782e-05
31 *426:12 *1272:A1 0.000216467
32 *426:12 *1274:B1 0.000107496
33 *426:12 *1284:A1 0.000161956
34 *426:12 *1285:B 6.46815e-05
35 *426:12 *1547:A 5.23435e-05
36 *426:12 *456:10 0.000146519
37 *426:12 *457:10 0.000457421
38 *426:12 *459:8 6.92419e-05
39 *426:12 *469:6 1.98846e-05
40 *426:12 *470:8 0.000261128
41 *426:22 *1284:B1 2.08128e-05
42 *426:22 *1667:A 2.05342e-06
43 *426:22 *439:44 0.000359298
44 *426:22 *462:28 4.12977e-05
45 *426:37 *1880:A 1.55642e-05
46 *1238:A *1643:B1 3.21289e-05
47 *1241:A1 *1643:B1 0.000109427
48 *1881:A *2487:A 0.000301034
49 *2054:D *1643:B1 0.000126335
50 *2064:D *2487:A 0
51 *186:10 *426:12 0.000185026
52 *208:10 *1643:B1 7.34948e-06
53 *422:10 *1643:B1 0.000171701
54 *423:6 *1643:B1 7.43837e-05
*RES
1 *1241:Y *426:4 9.24915 
2 *426:4 *426:12 25.4177 
3 *426:12 *426:22 13.7204 
4 *426:22 *2487:A 30.8145 
5 *426:22 *426:37 0.793864 
6 *426:37 *426:39 4.5 
7 *426:39 *1258:A 9.97254 
8 *426:39 *1880:B 9.24915 
9 *426:37 *1265:A1 16.8269 
10 *426:12 *1284:A2 9.24915 
11 *426:4 *1643:B1 45.621 
*END

*D_NET *427 0.0102838
*CONN
*I *1362:B I *D sky130_fd_sc_hd__nor2_1
*I *1667:A I *D sky130_fd_sc_hd__nor4_4
*I *1871:B I *D sky130_fd_sc_hd__nor2_1
*I *1254:A1 I *D sky130_fd_sc_hd__a31oi_4
*I *1271:B1 I *D sky130_fd_sc_hd__o21ai_2
*I *1253:C I *D sky130_fd_sc_hd__nor3_1
*I *1368:A I *D sky130_fd_sc_hd__nand2_1
*I *1242:Y O *D sky130_fd_sc_hd__inv_4
*CAP
1 *1362:B 3.98558e-05
2 *1667:A 0.000310669
3 *1871:B 2.7855e-05
4 *1254:A1 0
5 *1271:B1 0.000621308
6 *1253:C 0.000361333
7 *1368:A 0.000278744
8 *1242:Y 0.00112356
9 *427:74 0.0005882
10 *427:59 0.000392023
11 *427:50 0.000301745
12 *427:37 0.00139529
13 *427:8 0.00116491
14 *1253:C *1249:A 0
15 *1253:C *1252:A1 3.59934e-05
16 *1253:C *1861:A 0
17 *1253:C *1865:B 0
18 *1253:C *2062:RESET_B 0
19 *1253:C *434:10 0.000102995
20 *1253:C *435:12 0.000136768
21 *1253:C *438:12 2.5386e-05
22 *1253:C *1110:530 0
23 *1253:C *1110:539 0
24 *1271:B1 *1254:A2 0.000205834
25 *1271:B1 *1786:A2 6.27782e-05
26 *1362:B *1362:A 3.06373e-05
27 *1362:B *1870:A 4.76161e-06
28 *1362:B *530:14 3.13805e-06
29 *1368:A *2059:RESET_B 0
30 *1368:A *534:10 1.61631e-05
31 *1368:A *1086:29 6.08467e-05
32 *1368:A *1110:641 0
33 *1667:A *1278:A 6.1042e-05
34 *1667:A *1284:B1 7.43117e-05
35 *1667:A *1286:A 3.33173e-06
36 *1667:A *439:14 1.93999e-05
37 *1667:A *462:28 0
38 *1667:A *468:30 5.01493e-05
39 *427:8 *1863:B 0.000308435
40 *427:8 *714:14 0.000309936
41 *427:8 *1092:14 1.44764e-05
42 *427:8 *1105:43 7.63221e-05
43 *427:37 *1917:RESET_B 7.72414e-06
44 *427:37 *1917:CLK 0.000364769
45 *427:50 *1254:A2 0.000273529
46 *427:50 *1254:A3 0
47 *427:50 *446:10 1.04604e-05
48 *427:59 *1265:B1 0.000138523
49 *427:59 *446:10 2.92277e-05
50 *427:74 *1265:B1 0.000133878
51 *427:74 *1362:A 1.88422e-05
52 *427:74 *1870:A 0.000124828
53 *427:74 *468:30 4.57635e-05
54 *1864:B1 *427:8 0.000306958
55 *1871:A *427:74 3.75221e-05
56 *1881:A *427:59 0
57 *1881:A *427:74 0
58 *1881:B *1871:B 6.08467e-05
59 *2062:D *1368:A 0.000399119
60 *2062:D *427:8 6.08467e-05
61 *2487:A *427:59 0
62 *224:12 *1667:A 6.06764e-05
63 *426:22 *1667:A 2.05342e-06
*RES
1 *1242:Y *427:8 28.8922 
2 *427:8 *1368:A 22.1181 
3 *427:8 *1253:C 23.4709 
4 *1242:Y *427:37 23.9008 
5 *427:37 *1271:B1 27.2545 
6 *427:37 *427:50 5.56926 
7 *427:50 *1254:A1 13.7491 
8 *427:50 *427:59 3.90826 
9 *427:59 *1871:B 14.4725 
10 *427:59 *427:74 10.6589 
11 *427:74 *1667:A 25.4794 
12 *427:74 *1362:B 10.5513 
*END

*D_NET *428 0.000897234
*CONN
*I *1270:B I *D sky130_fd_sc_hd__nor2_1
*I *1244:B1 I *D sky130_fd_sc_hd__o21ai_1
*I *1243:Y O *D sky130_fd_sc_hd__inv_1
*CAP
1 *1270:B 9.72138e-05
2 *1244:B1 4.94808e-05
3 *1243:Y 0
4 *428:4 0.000146695
5 *1244:B1 *1243:A 6.63843e-05
6 *1244:B1 *1244:A2 6.08467e-05
7 *1244:B1 *1916:CLK 0.00024449
8 *1270:B *1243:A 7.54492e-05
9 *1270:B *1269:B 1.07744e-07
10 *1270:B *1270:A 1.09551e-05
11 *1270:B *1916:CLK 0.000138261
12 *1918:D *1270:B 7.34948e-06
*RES
1 *1243:Y *428:4 9.24915 
2 *428:4 *1244:B1 11.9137 
3 *428:4 *1270:B 12.4924 
*END

*D_NET *429 0.00212159
*CONN
*I *1254:A2 I *D sky130_fd_sc_hd__a31oi_4
*I *1244:Y O *D sky130_fd_sc_hd__o21ai_1
*CAP
1 *1254:A2 0.000414784
2 *1244:Y 0.000414784
3 *1254:A2 *1254:A3 0
4 *1254:A2 *1916:CLK 6.50586e-05
5 *1254:A2 *438:12 8.82627e-05
6 *1254:A2 *446:10 0.000659341
7 *1271:B1 *1254:A2 0.000205834
8 *427:50 *1254:A2 0.000273529
*RES
1 *1244:Y *1254:A2 42.9857 
*END

*D_NET *430 0.00213115
*CONN
*I *1254:A3 I *D sky130_fd_sc_hd__a31oi_4
*I *1245:Y O *D sky130_fd_sc_hd__o21ai_1
*CAP
1 *1254:A3 0.000767241
2 *1245:Y 0.000767241
3 *1254:A3 *1245:A2 1.72644e-05
4 *1254:A3 *1264:C1 0
5 *1254:A3 *1664:B 0.000125695
6 *1254:A3 *446:10 0
7 *1254:A3 *793:11 0
8 *1254:A2 *1254:A3 0
9 *1663:A *1254:A3 0.000143047
10 *1663:B *1254:A3 2.29383e-05
11 *1664:A *1254:A3 7.93849e-05
12 *1917:D *1254:A3 0
13 *2487:A *1254:A3 0.000179286
14 *217:27 *1254:A3 2.90531e-05
15 *427:50 *1254:A3 0
*RES
1 *1245:Y *1254:A3 48.0166 
*END

*D_NET *431 0.00295261
*CONN
*I *1248:A1 I *D sky130_fd_sc_hd__a21oi_1
*I *1474:A1 I *D sky130_fd_sc_hd__o21ai_0
*I *1246:Y O *D sky130_fd_sc_hd__inv_1
*CAP
1 *1248:A1 0
2 *1474:A1 0.000525151
3 *1246:Y 0.00030263
4 *431:12 0.000827781
5 *1474:A1 *1248:A2 1.87049e-05
6 *1474:A1 *1473:B 1.84381e-05
7 *1474:A1 *1474:B1 9.01717e-05
8 *1474:A1 *1984:RESET_B 3.62414e-05
9 *1474:A1 *1109:479 0.000113237
10 *1474:A1 *1109:486 6.27782e-05
11 *1474:A1 *1109:497 2.91008e-06
12 *1474:A1 *1112:31 0.000503083
13 *431:12 *2005:CLK 6.93171e-05
14 *431:12 *1109:497 0.000382168
*RES
1 *1246:Y *431:12 23.9942 
2 *431:12 *1474:A1 29.1771 
3 *431:12 *1248:A1 9.24915 
*END

*D_NET *432 0.00218743
*CONN
*I *1248:A2 I *D sky130_fd_sc_hd__a21oi_1
*I *1476:A1 I *D sky130_fd_sc_hd__o21ai_0
*I *1247:Y O *D sky130_fd_sc_hd__inv_1
*CAP
1 *1248:A2 0.000154812
2 *1476:A1 0.000408504
3 *1247:Y 0
4 *432:4 0.000563316
5 *1248:A2 *1247:A 1.43298e-05
6 *1248:A2 *1253:A 0.000161956
7 *1248:A2 *1112:31 3.92912e-05
8 *1476:A1 *1247:A 2.38352e-05
9 *1476:A1 *1405:B1 0.000109421
10 *1476:A1 *1476:B1 4.35135e-05
11 *1476:A1 *548:65 2.33548e-05
12 *1476:A1 *1109:42 5.02455e-05
13 *1476:A1 *1109:46 8.7133e-05
14 *1476:A1 *1109:466 0.000300565
15 *1476:A1 *1109:479 0.000138511
16 *1476:A1 *1112:31 4.99402e-05
17 *1474:A1 *1248:A2 1.87049e-05
*RES
1 *1247:Y *432:4 9.24915 
2 *432:4 *1476:A1 30.6924 
3 *432:4 *1248:A2 14.0115 
*END

*D_NET *433 0.00118712
*CONN
*I *1253:A I *D sky130_fd_sc_hd__nor3_1
*I *1248:Y O *D sky130_fd_sc_hd__a21oi_1
*CAP
1 *1253:A 0.000489689
2 *1248:Y 0.000489689
3 *1253:A *1252:A1 3.20069e-06
4 *1253:A *1861:A 0
5 *1253:A *2005:CLK 4.25818e-05
6 *1253:A *468:12 0
7 *1248:A2 *1253:A 0.000161956
*RES
1 *1248:Y *1253:A 36.7033 
*END

*D_NET *434 0.00168435
*CONN
*I *1252:A1 I *D sky130_fd_sc_hd__a21oi_1
*I *1405:A1 I *D sky130_fd_sc_hd__o21ai_0
*I *1249:Y O *D sky130_fd_sc_hd__inv_1
*CAP
1 *1252:A1 7.91383e-05
2 *1405:A1 0.000378473
3 *1249:Y 8.68068e-05
4 *434:10 0.000544418
5 *1252:A1 *1253:B 1.31166e-05
6 *1252:A1 *1407:A1 6.50586e-05
7 *1252:A1 *1861:A 0
8 *1252:A1 *436:150 0.000171273
9 *1405:A1 *1282:B 7.86825e-06
10 *1405:A1 *1104:129 8.93503e-05
11 *1405:A1 *1104:145 2.02035e-05
12 *434:10 *1249:A 1.13647e-05
13 *434:10 *1861:A 0
14 *434:10 *438:12 7.50872e-05
15 *1253:A *1252:A1 3.20069e-06
16 *1253:C *1252:A1 3.59934e-05
17 *1253:C *434:10 0.000102995
*RES
1 *1249:Y *434:10 16.2349 
2 *434:10 *1405:A1 21.8331 
3 *434:10 *1252:A1 16.7909 
*END

*D_NET *435 0.00185654
*CONN
*I *1252:A2 I *D sky130_fd_sc_hd__a21oi_1
*I *1407:A1 I *D sky130_fd_sc_hd__o21ai_0
*I *1250:Y O *D sky130_fd_sc_hd__inv_1
*CAP
1 *1252:A2 0
2 *1407:A1 0.000317668
3 *1250:Y 0.000127459
4 *435:12 0.000445127
5 *1407:A1 *1253:B 4.26431e-05
6 *1407:A1 *1282:B 0.000473443
7 *1407:A1 *1405:B1 6.26533e-05
8 *1407:A1 *1406:A 2.82171e-06
9 *1407:A1 *1407:A2 2.9959e-05
10 *1407:A1 *1407:B1 3.83281e-05
11 *1407:A1 *436:150 4.09471e-05
12 *1407:A1 *468:12 6.82665e-05
13 *1407:A1 *1104:123 5.39635e-06
14 *435:12 *1110:530 0
15 *1252:A1 *1407:A1 6.50586e-05
16 *1253:C *435:12 0.000136768
*RES
1 *1250:Y *435:12 21.3577 
2 *435:12 *1407:A1 28.9817 
3 *435:12 *1252:A2 9.24915 
*END

*D_NET *436 0.0336245
*CONN
*I *1314:A I *D sky130_fd_sc_hd__nand2_1
*I *1337:A I *D sky130_fd_sc_hd__nand2_1
*I *1341:A I *D sky130_fd_sc_hd__nand2_1
*I *1318:A I *D sky130_fd_sc_hd__nand2_1
*I *1319:A1 I *D sky130_fd_sc_hd__o21ai_0
*I *1890:A1 I *D sky130_fd_sc_hd__o21ai_0
*I *1889:A I *D sky130_fd_sc_hd__nand2_1
*I *1894:A I *D sky130_fd_sc_hd__nand2_1
*I *1333:A I *D sky130_fd_sc_hd__nand2_1
*I *1252:B1 I *D sky130_fd_sc_hd__a21oi_1
*I *1282:B I *D sky130_fd_sc_hd__nor4_1
*I *1264:A1 I *D sky130_fd_sc_hd__o211ai_1
*I *1263:A I *D sky130_fd_sc_hd__nand2_1
*I *1306:A I *D sky130_fd_sc_hd__nand2_1
*I *1886:A I *D sky130_fd_sc_hd__nand2_1
*I *1310:A I *D sky130_fd_sc_hd__nand2_1
*I *1323:A I *D sky130_fd_sc_hd__nand2_1
*I *1324:A1 I *D sky130_fd_sc_hd__o21ai_0
*I *1329:A1 I *D sky130_fd_sc_hd__o21ai_0
*I *1328:A I *D sky130_fd_sc_hd__nand2_1
*I *1251:Y O *D sky130_fd_sc_hd__inv_6
*CAP
1 *1314:A 0.000269875
2 *1337:A 0
3 *1341:A 8.95614e-05
4 *1318:A 0
5 *1319:A1 0.000209601
6 *1890:A1 0
7 *1889:A 1.09091e-05
8 *1894:A 0
9 *1333:A 9.34923e-06
10 *1252:B1 0
11 *1282:B 0.00142042
12 *1264:A1 1.78551e-05
13 *1263:A 0
14 *1306:A 1.95171e-05
15 *1886:A 0.000214073
16 *1310:A 0
17 *1323:A 3.01361e-05
18 *1324:A1 0
19 *1329:A1 6.25713e-06
20 *1328:A 6.54358e-05
21 *1251:Y 0.00129259
22 *436:249 0.000453358
23 *436:216 0.000377866
24 *436:200 0.000213102
25 *436:196 0.00224365
26 *436:150 0.00250529
27 *436:132 0.000173792
28 *436:126 0.00165267
29 *436:120 0.000933314
30 *436:98 0.000359569
31 *436:94 0.00149332
32 *436:90 0.000878554
33 *436:88 0.00230727
34 *436:86 0.00129323
35 *436:71 0.00101998
36 *436:67 0.000500546
37 *436:44 0.000650329
38 *436:10 0.000135791
39 *436:8 0.0018869
40 *1264:A1 *1264:B1 0.000152878
41 *1264:A1 *438:12 0.000169041
42 *1282:B *468:12 0.000311249
43 *1282:B *711:16 0
44 *1282:B *1104:129 0.000420294
45 *1282:B *1104:131 4.60221e-06
46 *1282:B *1104:172 1.27831e-06
47 *1306:A *1306:B 4.65954e-06
48 *1314:A *1316:A3 1.41976e-05
49 *1314:A *1991:CLK 0.000168186
50 *1314:A *1038:12 1.03594e-05
51 *1314:A *1044:10 5.71157e-05
52 *1314:A *1109:422 2.16355e-05
53 *1319:A1 *1317:A 0
54 *1319:A1 *1319:A2 6.27718e-05
55 *1319:A1 *1319:B1 0.00031669
56 *1319:A1 *1997:RESET_B 0.000151741
57 *1319:A1 *1104:270 9.60479e-05
58 *1323:A *1323:B 2.91008e-06
59 *1323:A *1324:B1 8.40171e-05
60 *1328:A *1329:A2 8.62625e-06
61 *1328:A *1329:B1 7.69707e-06
62 *1328:A *2026:CLK 1.73136e-05
63 *1328:A *685:14 9.97445e-05
64 *1329:A1 *1329:B1 7.21184e-06
65 *1333:A *1335:A3 6.50727e-05
66 *1333:A *442:16 6.50727e-05
67 *1341:A *1340:A 0
68 *1341:A *1343:A2 1.80257e-05
69 *1341:A *1343:A3 4.24529e-05
70 *1341:A *1107:177 3.01683e-06
71 *1886:A *1306:B 4.45999e-05
72 *1886:A *1886:B 1.05504e-05
73 *1889:A *1445:A1 6.3657e-05
74 *1889:A *1890:A2 6.3657e-05
75 *436:8 *1995:RESET_B 2.32834e-05
76 *436:8 *1112:282 7.88559e-05
77 *436:10 *1329:A2 0.000118485
78 *436:10 *2026:CLK 2.61857e-05
79 *436:44 *1324:B1 6.57357e-05
80 *436:44 *1329:A2 0.000196638
81 *436:44 *1995:RESET_B 3.83811e-05
82 *436:44 *2026:CLK 7.73865e-05
83 *436:44 *2030:CLK 1.99054e-05
84 *436:44 *1119:55 2.58616e-05
85 *436:67 *2071:CLK 5.04829e-06
86 *436:71 *1310:B 1.22289e-05
87 *436:71 *1312:A2 2.83365e-05
88 *436:71 *1312:A3 0.000143161
89 *436:71 *548:12 0
90 *436:86 *1312:A2 4.89392e-05
91 *436:86 *1341:B 3.31882e-05
92 *436:86 *2079:CLK 0.00016386
93 *436:86 *548:22 2.82673e-05
94 *436:86 *1073:16 0.000134841
95 *436:86 *1107:234 0
96 *436:88 *1341:B 0.000141016
97 *436:88 *1431:B 3.25677e-05
98 *436:88 *2003:CLK 7.36725e-05
99 *436:88 *548:22 5.29898e-05
100 *436:88 *548:24 5.71312e-05
101 *436:88 *548:32 2.55661e-06
102 *436:88 *1043:10 0.00017419
103 *436:88 *1073:16 8.62625e-06
104 *436:88 *1107:160 0
105 *436:88 *1107:171 0
106 *436:90 *1431:B 2.09356e-05
107 *436:94 *1306:B 0.000259452
108 *436:94 *1308:A3 0.000116986
109 *436:94 *1431:B 5.03545e-06
110 *436:94 *1893:A 0.000161044
111 *436:94 *2001:RESET_B 0.000260635
112 *436:94 *2027:RESET_B 0.000305313
113 *436:94 *2080:CLK 5.37077e-05
114 *436:94 *548:32 2.59819e-05
115 *436:94 *1040:12 3.89804e-05
116 *436:94 *1041:10 2.10465e-05
117 *436:94 *1107:77 0
118 *436:94 *1107:138 0
119 *436:94 *1107:149 0
120 *436:94 *1112:393 2.49123e-05
121 *436:98 *1306:B 2.77625e-06
122 *436:98 *2080:CLK 2.16355e-05
123 *436:120 *1306:B 8.23171e-06
124 *436:120 *2080:CLK 5.04829e-06
125 *436:120 *2494:A 7.9766e-05
126 *436:120 *1107:40 0.000271269
127 *436:120 *1110:45 0.000528197
128 *436:120 *1137:28 3.04973e-05
129 *436:126 *1333:B 0.000232516
130 *436:126 *1860:A 1.96527e-05
131 *436:126 *2073:RESET_B 3.14642e-05
132 *436:126 *2494:A 6.57318e-05
133 *436:126 *1045:10 0.000194842
134 *436:126 *1110:914 1.7841e-05
135 *436:126 *1110:924 6.48988e-05
136 *436:126 *1137:28 9.19273e-06
137 *436:132 *1264:B1 1.61631e-05
138 *436:132 *1860:A 7.69146e-05
139 *436:132 *438:12 6.50727e-05
140 *436:132 *1110:904 7.12459e-05
141 *436:132 *1110:914 5.66868e-06
142 *436:150 *1908:CLK 0.000322538
143 *436:196 *1833:A 0.000160047
144 *436:196 *1833:B 0.000113082
145 *436:196 *2002:CLK 7.92757e-06
146 *436:196 *2020:RESET_B 0.000403483
147 *436:196 *2020:CLK 0.000188432
148 *436:200 *1445:A1 1.55025e-05
149 *436:200 *1890:A2 4.81452e-05
150 *436:200 *2020:CLK 1.41976e-05
151 *436:216 *1317:A 0
152 *436:216 *1453:B 0
153 *436:216 *1997:RESET_B 0.000255674
154 *436:249 *1425:B 2.22342e-05
155 *436:249 *548:12 0
156 *436:249 *1044:10 5.22654e-06
157 *436:249 *1112:286 0
158 *1252:A1 *436:150 0.000171273
159 *1405:A1 *1282:B 7.86825e-06
160 *1407:A1 *1282:B 0.000473443
161 *1407:A1 *436:150 4.09471e-05
162 *1888:A3 *1886:A 4.89251e-05
163 *1890:B1 *436:200 8.10397e-05
164 *1896:A2 *436:94 7.50722e-05
165 *1896:A3 *436:94 0.000151922
166 *1908:D *436:150 9.94284e-06
167 *2002:D *436:196 0.00015901
168 *2020:D *436:196 6.27782e-05
169 *2020:D *436:216 1.37421e-05
170 *2030:D *436:44 2.57102e-05
171 *2071:D *436:249 0
172 *2076:D *436:94 0.000114659
173 *2077:D *436:88 1.80404e-05
174 *2077:D *436:90 1.69758e-05
175 *2077:D *436:94 1.56426e-05
176 *2079:D *436:86 6.3657e-05
177 *2080:D *436:94 2.47663e-05
178 *2080:D *436:120 1.36606e-05
179 *374:16 *436:196 0.000202736
180 *374:16 *436:200 5.17311e-05
*RES
1 *1251:Y *436:8 31.1106 
2 *436:8 *436:10 2.24725 
3 *436:10 *1328:A 16.0527 
4 *436:10 *1329:A1 13.9903 
5 *436:8 *436:44 18.9107 
6 *436:44 *1324:A1 9.24915 
7 *436:44 *1323:A 10.5513 
8 *1251:Y *436:67 15.0271 
9 *436:67 *436:71 10.0693 
10 *436:71 *1310:A 9.24915 
11 *436:71 *436:86 21.6515 
12 *436:86 *436:88 12.2133 
13 *436:88 *436:90 1.00149 
14 *436:90 *436:94 32.4929 
15 *436:94 *436:98 2.26664 
16 *436:98 *1886:A 14.9881 
17 *436:98 *1306:A 9.82786 
18 *436:94 *436:120 19.6551 
19 *436:120 *436:126 13.5323 
20 *436:126 *436:132 9.96216 
21 *436:132 *1263:A 9.24915 
22 *436:132 *1264:A1 11.0817 
23 *436:126 *436:150 21.331 
24 *436:150 *1282:B 34.2322 
25 *436:150 *1252:B1 9.24915 
26 *436:120 *1333:A 14.4725 
27 *436:90 *1894:A 13.7491 
28 *436:88 *436:196 34.6174 
29 *436:196 *436:200 5.59426 
30 *436:200 *1889:A 9.97254 
31 *436:200 *1890:A1 9.24915 
32 *436:196 *436:216 9.23876 
33 *436:216 *1319:A1 22.1597 
34 *436:216 *1318:A 13.7491 
35 *436:86 *1341:A 16.1605 
36 *436:67 *436:249 4.32351 
37 *436:249 *1337:A 13.7491 
38 *436:249 *1314:A 21.2876 
*END

*D_NET *437 0.00047722
*CONN
*I *1253:B I *D sky130_fd_sc_hd__nor3_1
*I *1252:Y O *D sky130_fd_sc_hd__a21oi_1
*CAP
1 *1253:B 0.00021073
2 *1252:Y 0.00021073
3 *1252:A1 *1253:B 1.31166e-05
4 *1407:A1 *1253:B 4.26431e-05
*RES
1 *1252:Y *1253:B 22.1876 
*END

*D_NET *438 0.00362578
*CONN
*I *1254:B1 I *D sky130_fd_sc_hd__a31oi_4
*I *1253:Y O *D sky130_fd_sc_hd__nor3_1
*CAP
1 *1254:B1 0
2 *1253:Y 0.00084031
3 *438:12 0.00084031
4 *438:12 *1249:A 0.000330596
5 *438:12 *1263:B 0.000164829
6 *438:12 *1264:A2 0.000572602
7 *438:12 *1264:B1 6.49003e-05
8 *438:12 *1264:C1 6.50586e-05
9 *438:12 *1265:B1 0.000324324
10 *438:12 *1861:A 0
11 *1253:C *438:12 2.5386e-05
12 *1254:A2 *438:12 8.82627e-05
13 *1264:A1 *438:12 0.000169041
14 *434:10 *438:12 7.50872e-05
15 *436:132 *438:12 6.50727e-05
*RES
1 *1253:Y *438:12 46.7316 
2 *438:12 *1254:B1 9.24915 
*END

*D_NET *439 0.00487462
*CONN
*I *1268:B I *D sky130_fd_sc_hd__nor2_1
*I *1272:B1 I *D sky130_fd_sc_hd__a21oi_4
*I *1286:A I *D sky130_fd_sc_hd__nor4_4
*I *1278:C I *D sky130_fd_sc_hd__nor3_1
*I *1254:Y O *D sky130_fd_sc_hd__a31oi_4
*CAP
1 *1268:B 0.000119155
2 *1272:B1 1.80111e-05
3 *1286:A 0.000185697
4 *1278:C 4.88334e-05
5 *1254:Y 0.000362191
6 *439:44 0.000709484
7 *439:14 0.00116904
8 *1268:B *1272:A1 5.8303e-05
9 *1268:B *1286:D 1.03594e-05
10 *1268:B *450:43 0.00026179
11 *1268:B *470:19 0.000142472
12 *1268:B *611:247 0.00026179
13 *1272:B1 *1272:A1 7.12632e-06
14 *1272:B1 *1363:A 7.09666e-06
15 *1272:B1 *470:19 1.5714e-05
16 *1278:C *1278:B 2.85971e-05
17 *1278:C *1284:B1 4.02949e-05
18 *1278:C *468:30 4.25878e-06
19 *1286:A *1265:B1 1.13359e-05
20 *1286:A *1278:A 0.00016681
21 *1286:A *1286:B 0.000191624
22 *1286:A *446:10 0.000106293
23 *1286:A *839:10 1.09738e-05
24 *439:14 *1873:A2 0
25 *439:14 *2036:CLK 0
26 *439:14 *446:10 0.000297966
27 *439:14 *468:30 0.000136353
28 *1667:A *1286:A 3.33173e-06
29 *1667:A *439:14 1.93999e-05
30 *1871:A *439:14 0.000121019
31 *1872:B *439:14 0
32 *1873:B1 *439:14 0
33 *426:22 *439:44 0.000359298
*RES
1 *1254:Y *439:14 25.0981 
2 *439:14 *1278:C 15.425 
3 *439:14 *1286:A 20.5642 
4 *439:14 *439:44 8.24077 
5 *439:44 *1272:B1 14.1278 
6 *439:44 *1268:B 19.5611 
*END

*D_NET *440 0.0033057
*CONN
*I *1256:A I *D sky130_fd_sc_hd__nand2_1
*I *1403:A1 I *D sky130_fd_sc_hd__o21ai_0
*I *1255:Y O *D sky130_fd_sc_hd__inv_1
*CAP
1 *1256:A 0.000897987
2 *1403:A1 0.000327385
3 *1255:Y 0
4 *440:4 0.00122537
5 *1256:A *1257:A2 4.70005e-05
6 *1256:A *1470:B 0.000283819
7 *1256:A *1472:A 0.000132946
8 *1256:A *1472:B 3.13319e-05
9 *1256:A *1984:RESET_B 0
10 *1256:A *548:52 1.75637e-06
11 *1256:A *1112:103 0
12 *1403:A1 *1255:A 3.48806e-05
13 *1403:A1 *1402:A 4.93115e-05
14 *1403:A1 *1403:B1 5.56461e-05
15 *1403:A1 *1471:A 6.50586e-05
16 *1403:A1 *1471:B 6.50586e-05
17 *1403:A1 *1472:B 6.3604e-05
18 *1986:D *1256:A 2.18523e-06
19 *1990:D *1256:A 1.43848e-05
20 *2012:D *1403:A1 7.97098e-06
*RES
1 *1255:Y *440:4 9.24915 
2 *440:4 *1403:A1 18.0625 
3 *440:4 *1256:A 33.1438 
*END

*D_NET *441 0.000562716
*CONN
*I *1257:B1 I *D sky130_fd_sc_hd__o21ai_1
*I *1256:Y O *D sky130_fd_sc_hd__nand2_1
*CAP
1 *1257:B1 5.02215e-05
2 *1256:Y 5.02215e-05
3 *1257:B1 *1256:B 8.18932e-05
4 *1257:B1 *1257:A2 0.000228593
5 *1257:B1 *442:16 2.16355e-05
6 *1257:B1 *691:16 1.19856e-05
7 *1257:B1 *1112:103 0.000118166
*RES
1 *1256:Y *1257:B1 21.9947 
*END

*D_NET *442 0.00516332
*CONN
*I *1258:B I *D sky130_fd_sc_hd__nand2_4
*I *1257:Y O *D sky130_fd_sc_hd__o21ai_1
*CAP
1 *1258:B 0.000227789
2 *1257:Y 0.00126714
3 *442:16 0.00149493
4 *1258:B *443:14 0
5 *1258:B *840:8 0
6 *1258:B *1107:14 9.34396e-06
7 *1258:B *1137:28 0.000423078
8 *442:16 *1246:A 0.00011818
9 *442:16 *1333:B 6.50727e-05
10 *442:16 *1335:A1 5.04829e-06
11 *442:16 *1335:A2 0.000476712
12 *442:16 *1335:A3 2.41483e-05
13 *442:16 *1383:A0 6.88361e-05
14 *442:16 *1383:S 0.000712155
15 *442:16 *1985:CLK 1.00763e-05
16 *442:16 *691:16 3.83072e-06
17 *442:16 *1075:14 2.29454e-05
18 *442:16 *1104:189 0.000147325
19 *1257:B1 *442:16 2.16355e-05
20 *1333:A *442:16 6.50727e-05
*RES
1 *1257:Y *442:16 42.8538 
2 *442:16 *1258:B 21.7028 
*END

*D_NET *443 0.00464632
*CONN
*I *1547:B I *D sky130_fd_sc_hd__nand2_4
*I *1272:A1 I *D sky130_fd_sc_hd__a21oi_4
*I *1286:B I *D sky130_fd_sc_hd__nor4_4
*I *1278:A I *D sky130_fd_sc_hd__nor3_1
*I *1258:Y O *D sky130_fd_sc_hd__nand2_4
*CAP
1 *1547:B 0
2 *1272:A1 0.000263214
3 *1286:B 0.000442621
4 *1278:A 7.54347e-05
5 *1258:Y 0.000520081
6 *443:45 0.000590613
7 *443:14 0.000710738
8 *1272:A1 *1268:A 0
9 *1272:A1 *1286:D 2.99155e-05
10 *1272:A1 *453:29 0.000169108
11 *1272:A1 *459:8 9.88442e-05
12 *1272:A1 *636:23 8.01987e-05
13 *1286:B *839:23 0.00011818
14 *443:14 *1265:A2 7.92757e-06
15 *443:14 *1265:B1 0.000112367
16 *443:14 *1278:B 0.000169122
17 *443:45 *1286:D 0.000277488
18 *443:45 *839:23 0.000218833
19 *1258:B *443:14 0
20 *1268:B *1272:A1 5.8303e-05
21 *1272:B1 *1272:A1 7.12632e-06
22 *1286:A *1278:A 0.00016681
23 *1286:A *1286:B 0.000191624
24 *1667:A *1278:A 6.1042e-05
25 *224:12 *1278:A 5.50522e-06
26 *224:12 *1286:B 5.47516e-05
27 *426:12 *1272:A1 0.000216467
*RES
1 *1258:Y *443:14 35.6999 
2 *443:14 *1278:A 16.8269 
3 *443:14 *1286:B 18.5201 
4 *1286:B *443:45 18.8944 
5 *443:45 *1272:A1 27.4514 
6 *443:45 *1547:B 9.24915 
*END

*D_NET *444 0.00286593
*CONN
*I *1261:A1 I *D sky130_fd_sc_hd__a21oi_1
*I *1840:A1 I *D sky130_fd_sc_hd__o21ai_0
*I *1259:Y O *D sky130_fd_sc_hd__inv_1
*CAP
1 *1261:A1 0.000408964
2 *1840:A1 0
3 *1259:Y 0.000455799
4 *444:10 0.000864763
5 *1261:A1 *1915:RESET_B 0
6 *1261:A1 *2052:CLK 0.000193108
7 *1261:A1 *957:47 2.58757e-05
8 *1261:A1 *1138:18 0.000518519
9 *444:10 *1259:A 2.59857e-05
10 *444:10 *2052:CLK 5.77352e-05
11 *1840:B1 *444:10 0.000171288
12 *1914:D *1261:A1 5.88662e-05
13 *215:16 *444:10 8.50286e-05
*RES
1 *1259:Y *444:10 21.852 
2 *444:10 *1840:A1 13.7491 
3 *444:10 *1261:A1 27.1011 
*END

*D_NET *445 0.000171771
*CONN
*I *1261:B1 I *D sky130_fd_sc_hd__a21oi_1
*I *1260:Y O *D sky130_fd_sc_hd__nor2_1
*CAP
1 *1261:B1 4.72022e-05
2 *1260:Y 4.72022e-05
3 *1261:B1 *1661:B 1.37189e-05
4 *1261:B1 *957:47 6.36477e-05
*RES
1 *1260:Y *1261:B1 19.7763 
*END

*D_NET *446 0.00438616
*CONN
*I *1265:A2 I *D sky130_fd_sc_hd__o21ai_4
*I *1261:Y O *D sky130_fd_sc_hd__a21oi_1
*CAP
1 *1265:A2 0.000159321
2 *1261:Y 0.00092771
3 *446:10 0.00108703
4 *1265:A2 *1265:B1 4.47179e-05
5 *446:10 *1245:B1 2.81678e-06
6 *446:10 *1265:B1 0.000445124
7 *446:10 *1661:B 0.000139918
8 *446:10 *1664:B 0
9 *446:10 *2036:CLK 0
10 *446:10 *2520:A 0.000264961
11 *446:10 *950:10 7.89694e-05
12 *446:10 *1091:26 0
13 *446:10 *1138:84 0
14 *1254:A2 *446:10 0.000659341
15 *1254:A3 *446:10 0
16 *1286:A *446:10 0.000106293
17 *1871:A *446:10 0.000124377
18 *427:50 *446:10 1.04604e-05
19 *427:59 *446:10 2.92277e-05
20 *439:14 *446:10 0.000297966
21 *443:14 *1265:A2 7.92757e-06
*RES
1 *1261:Y *446:10 45.7874 
2 *446:10 *1265:A2 16.5704 
*END

*D_NET *447 0.00253601
*CONN
*I *1264:A2 I *D sky130_fd_sc_hd__o211ai_1
*I *1864:A1 I *D sky130_fd_sc_hd__o21ai_0
*I *1262:Y O *D sky130_fd_sc_hd__inv_1
*CAP
1 *1264:A2 0.000299971
2 *1864:A1 0.000129739
3 *1262:Y 0.000207891
4 *447:6 0.000637601
5 *1264:A2 *1263:B 6.81008e-05
6 *1264:A2 *1860:A 9.98029e-06
7 *1864:A1 *1861:A 1.03434e-05
8 *1864:A1 *1104:145 6.36477e-05
9 *447:6 *1262:A 6.54015e-05
10 *1862:A *1864:A1 3.00829e-05
11 *1862:A *447:6 4.19058e-05
12 *1862:B *1864:A1 4.70706e-05
13 *1908:D *1264:A2 0.00017419
14 *1908:D *1864:A1 0.000169733
15 *1909:D *1864:A1 7.74853e-06
16 *438:12 *1264:A2 0.000572602
*RES
1 *1262:Y *447:6 14.1321 
2 *447:6 *1864:A1 14.0477 
3 *447:6 *1264:A2 28.0116 
*END

*D_NET *448 0.000556546
*CONN
*I *1264:B1 I *D sky130_fd_sc_hd__o211ai_1
*I *1263:Y O *D sky130_fd_sc_hd__nand2_1
*CAP
1 *1264:B1 0.000161302
2 *1263:Y 0.000161302
3 *1264:A1 *1264:B1 0.000152878
4 *436:132 *1264:B1 1.61631e-05
5 *438:12 *1264:B1 6.49003e-05
*RES
1 *1263:Y *1264:B1 23.1521 
*END

*D_NET *449 0.00316816
*CONN
*I *1265:B1 I *D sky130_fd_sc_hd__o21ai_4
*I *1264:Y O *D sky130_fd_sc_hd__o211ai_1
*CAP
1 *1265:B1 0.000876063
2 *1264:Y 0.000876063
3 *1265:B1 *1278:B 0.000205763
4 *1265:B1 *1880:A 0
5 *1265:A2 *1265:B1 4.47179e-05
6 *1286:A *1265:B1 1.13359e-05
7 *427:59 *1265:B1 0.000138523
8 *427:74 *1265:B1 0.000133878
9 *438:12 *1265:B1 0.000324324
10 *443:14 *1265:B1 0.000112367
11 *446:10 *1265:B1 0.000445124
*RES
1 *1264:Y *1265:B1 49.8266 
*END

*D_NET *450 0.0119789
*CONN
*I *1578:A2 I *D sky130_fd_sc_hd__a311oi_1
*I *1584:A2 I *D sky130_fd_sc_hd__a311oi_1
*I *1565:A2 I *D sky130_fd_sc_hd__a31oi_1
*I *1572:A2 I *D sky130_fd_sc_hd__a311oi_1
*I *1267:A I *D sky130_fd_sc_hd__inv_1
*I *1286:C I *D sky130_fd_sc_hd__nor4_4
*I *1278:B I *D sky130_fd_sc_hd__nor3_1
*I *1265:Y O *D sky130_fd_sc_hd__o21ai_4
*CAP
1 *1578:A2 5.24129e-05
2 *1584:A2 9.94364e-05
3 *1565:A2 0
4 *1572:A2 0
5 *1267:A 0
6 *1286:C 0.000121746
7 *1278:B 0.000344659
8 *1265:Y 0.000478684
9 *450:78 0.000767642
10 *450:67 0.00103038
11 *450:56 0.00097041
12 *450:43 0.000824261
13 *450:26 0.000524212
14 *1278:B *1880:A 0
15 *1278:B *840:8 0
16 *1286:C *1284:A1 1.44611e-05
17 *1286:C *1667:C 0
18 *1578:A2 *1578:A3 4.66492e-05
19 *1584:A2 *1578:A3 0.000160617
20 *1584:A2 *1584:A1 0.000315461
21 *1584:A2 *457:59 0.000100115
22 *450:43 *1268:A 3.77004e-05
23 *450:43 *1284:A1 0.000681613
24 *450:43 *453:6 0.000101873
25 *450:43 *611:247 0.000331378
26 *450:56 *1268:A 1.42392e-05
27 *450:56 *1568:B 3.00403e-05
28 *450:56 *1572:A1 3.17869e-05
29 *450:56 *457:10 0.000108963
30 *450:56 *457:23 9.89984e-05
31 *450:56 *457:27 8.36586e-06
32 *450:56 *611:247 0.000632438
33 *450:56 *652:10 0
34 *450:56 *1136:63 0
35 *450:67 *1572:C1 0.000160047
36 *450:67 *1770:A2 7.50722e-05
37 *450:67 *2128:RESET_B 2.61535e-05
38 *450:67 *457:27 0
39 *450:67 *652:19 0.000704908
40 *450:67 *789:26 2.50747e-05
41 *450:78 *1901:A 2.81046e-05
42 *450:78 *1903:B1 0.00029524
43 *450:78 *2128:RESET_B 0.000104763
44 *450:78 *457:38 0
45 *450:78 *611:53 0.000202176
46 *450:78 *652:19 0.00135331
47 *450:78 *836:31 7.65861e-05
48 *450:78 *1141:35 0.000101714
49 *1265:B1 *1278:B 0.000205763
50 *1268:B *450:43 0.00026179
51 *1278:C *1278:B 2.85971e-05
52 *1940:D *450:56 0
53 *181:10 *1578:A2 1.19705e-05
54 *224:12 *1286:C 5.80222e-05
55 *421:33 *450:67 0.000161956
56 *443:14 *1278:B 0.000169122
*RES
1 *1265:Y *1278:B 35.9023 
2 *1265:Y *450:26 12.191 
3 *450:26 *1286:C 21.7421 
4 *450:26 *450:43 12.9669 
5 *450:43 *1267:A 9.24915 
6 *450:43 *450:56 27.2154 
7 *450:56 *1572:A2 9.24915 
8 *450:56 *450:67 18.9612 
9 *450:67 *1565:A2 13.7491 
10 *450:67 *450:78 29.5861 
11 *450:78 *1584:A2 13.8548 
12 *450:78 *1578:A2 10.5271 
*END

*D_NET *451 0.00157055
*CONN
*I *1274:A1 I *D sky130_fd_sc_hd__o21ai_0
*I *1479:A1 I *D sky130_fd_sc_hd__a21oi_2
*I *1266:Y O *D sky130_fd_sc_hd__inv_1
*CAP
1 *1274:A1 0.000305484
2 *1479:A1 0.00013344
3 *1266:Y 3.29909e-05
4 *451:8 0.000471914
5 *451:8 *1882:B 4.13873e-06
6 *1238:A *1274:A1 7.77284e-05
7 *1238:A *1479:A1 2.352e-05
8 *1241:A1 *1274:A1 7.7502e-05
9 *1274:A2 *1274:A1 0.000118017
10 *186:10 *1274:A1 0.000174965
11 *186:10 *1479:A1 0.000107586
12 *422:23 *1479:A1 4.3263e-05
*RES
1 *1266:Y *451:8 14.1952 
2 *451:8 *1479:A1 18.0727 
3 *451:8 *1274:A1 22.6404 
*END

*D_NET *452 0.00132535
*CONN
*I *1568:B I *D sky130_fd_sc_hd__nand2_1
*I *1268:A I *D sky130_fd_sc_hd__nor2_1
*I *1267:Y O *D sky130_fd_sc_hd__inv_1
*CAP
1 *1568:B 0.000268139
2 *1268:A 0.000197124
3 *1267:Y 0
4 *452:4 0.000465263
5 *1268:A *1274:B1 7.40736e-05
6 *1568:B *457:10 0.000130355
7 *1568:B *458:46 0
8 *1272:A1 *1268:A 0
9 *186:10 *1568:B 0.000108413
10 *450:43 *1268:A 3.77004e-05
11 *450:56 *1268:A 1.42392e-05
12 *450:56 *1568:B 3.00403e-05
*RES
1 *1267:Y *452:4 9.24915 
2 *452:4 *1268:A 21.7758 
3 *452:4 *1568:B 25.3737 
*END

*D_NET *453 0.00922903
*CONN
*I *1564:B2 I *D sky130_fd_sc_hd__o221ai_1
*I *1582:A1 I *D sky130_fd_sc_hd__a21oi_1
*I *1576:A1 I *D sky130_fd_sc_hd__a21oi_1
*I *1273:A I *D sky130_fd_sc_hd__nor2_8
*I *1510:A I *D sky130_fd_sc_hd__inv_6
*I *1284:A1 I *D sky130_fd_sc_hd__a32oi_1
*I *1268:Y O *D sky130_fd_sc_hd__nor2_1
*CAP
1 *1564:B2 5.57479e-05
2 *1582:A1 0.000142908
3 *1576:A1 0
4 *1273:A 2.7101e-05
5 *1510:A 0
6 *1284:A1 0.00052422
7 *1268:Y 4.17316e-05
8 *453:55 0.000448875
9 *453:40 0.000506753
10 *453:31 0.00052658
11 *453:29 0.00126135
12 *453:6 0.00141866
13 *1273:A *1903:A1 5.04829e-06
14 *1273:A *458:10 2.57986e-05
15 *1284:A1 *1667:C 0
16 *1284:A1 *469:6 1.04731e-05
17 *1564:B2 *1564:A1 3.28433e-06
18 *1582:A1 *1576:A2 5.09367e-05
19 *1582:A1 *1576:B1 1.37189e-05
20 *1582:A1 *457:61 3.16131e-05
21 *453:29 *1552:A2 0
22 *453:29 *1552:B2 0.000238552
23 *453:29 *1571:B1 6.24193e-05
24 *453:29 *1770:A1 0
25 *453:29 *458:23 0.000153675
26 *453:29 *458:31 0.000374457
27 *453:29 *458:46 0
28 *453:29 *636:23 0.00050888
29 *453:29 *636:29 8.75441e-06
30 *453:31 *458:23 0.00056748
31 *453:31 *611:10 0
32 *453:40 *1549:A2 0
33 *453:40 *1903:A1 0.000192948
34 *453:40 *458:10 1.23455e-05
35 *453:40 *458:23 0.00016345
36 *453:40 *611:10 0
37 *453:40 *637:31 0.000175305
38 *453:55 *1576:A2 0.000114594
39 *453:55 *1582:A2 0
40 *453:55 *637:31 0.000416018
41 *453:55 *659:20 1.6352e-05
42 *453:55 *790:12 0
43 *1272:A1 *453:29 0.000169108
44 *1286:C *1284:A1 1.44611e-05
45 *224:12 *1284:A1 0
46 *426:12 *1284:A1 0.000161956
47 *450:43 *1284:A1 0.000681613
48 *450:43 *453:6 0.000101873
*RES
1 *1268:Y *453:6 10.5271 
2 *453:6 *1284:A1 31.0927 
3 *453:6 *453:29 31.1128 
4 *453:29 *453:31 10.7599 
5 *453:31 *1510:A 13.7491 
6 *453:31 *453:40 6.81502 
7 *453:40 *1273:A 14.4725 
8 *453:40 *453:55 13.4235 
9 *453:55 *1576:A1 9.24915 
10 *453:55 *1582:A1 11.6364 
11 *453:29 *1564:B2 14.8606 
*END

*D_NET *454 0.000332628
*CONN
*I *1271:A1 I *D sky130_fd_sc_hd__o21ai_2
*I *1269:Y O *D sky130_fd_sc_hd__nor2_1
*CAP
1 *1271:A1 6.23526e-05
2 *1269:Y 6.23526e-05
3 *1271:A1 *2049:CLK 0.0001459
4 *1271:A1 *1091:26 6.20228e-05
*RES
1 *1269:Y *1271:A1 30.1608 
*END

*D_NET *455 0.000515323
*CONN
*I *1271:A2 I *D sky130_fd_sc_hd__o21ai_2
*I *1270:Y O *D sky130_fd_sc_hd__nor2_1
*CAP
1 *1271:A2 8.2402e-05
2 *1270:Y 8.2402e-05
3 *1271:A2 *2049:CLK 0.000193217
4 *1271:A2 *1138:43 3.60933e-06
5 *1271:A2 *1138:58 4.4486e-06
6 *1918:D *1271:A2 0.000149244
*RES
1 *1270:Y *1271:A2 30.9913 
*END

*D_NET *456 0.00459097
*CONN
*I *1547:A I *D sky130_fd_sc_hd__nand2_4
*I *1272:A2 I *D sky130_fd_sc_hd__a21oi_4
*I *1271:Y O *D sky130_fd_sc_hd__o21ai_2
*CAP
1 *1547:A 0.000195824
2 *1272:A2 0
3 *1271:Y 0.000862151
4 *456:10 0.00105797
5 *1547:A *1274:B1 0.000341024
6 *1547:A *1363:A 0
7 *456:10 *1361:A 0.000186451
8 *456:10 *1785:A 0.000116761
9 *456:10 *1786:A2 2.08133e-05
10 *456:10 *1872:A 0
11 *456:10 *1882:B 0.000141641
12 *456:10 *1918:RESET_B 0
13 *456:10 *751:12 0.000112361
14 *456:10 *1091:28 6.08467e-05
15 *1241:B1 *456:10 0.000363046
16 *1786:B1 *456:10 0.00016195
17 *186:10 *1547:A 0.000141634
18 *186:10 *456:10 3.16514e-05
19 *425:20 *456:10 0.000430915
20 *425:29 *456:10 0.000167062
21 *426:12 *1547:A 5.23435e-05
22 *426:12 *456:10 0.000146519
*RES
1 *1271:Y *456:10 42.7553 
2 *456:10 *1272:A2 13.7491 
3 *456:10 *1547:A 20.9794 
*END

*D_NET *457 0.00961149
*CONN
*I *1572:A3 I *D sky130_fd_sc_hd__a311oi_1
*I *1578:A3 I *D sky130_fd_sc_hd__a311oi_1
*I *1584:A3 I *D sky130_fd_sc_hd__a311oi_1
*I *1582:B1 I *D sky130_fd_sc_hd__a21oi_1
*I *1576:B1 I *D sky130_fd_sc_hd__a21oi_1
*I *1273:B I *D sky130_fd_sc_hd__nor2_8
*I *1565:A3 I *D sky130_fd_sc_hd__a31oi_1
*I *1568:A I *D sky130_fd_sc_hd__nand2_1
*I *1272:Y O *D sky130_fd_sc_hd__a21oi_4
*CAP
1 *1572:A3 0
2 *1578:A3 5.10154e-05
3 *1584:A3 1.31554e-05
4 *1582:B1 8.80307e-06
5 *1576:B1 6.82219e-05
6 *1273:B 5.09074e-05
7 *1565:A3 4.99625e-05
8 *1568:A 0
9 *1272:Y 0.00077518
10 *457:61 0.000167474
11 *457:59 0.000202842
12 *457:55 0.000363268
13 *457:38 0.000766968
14 *457:27 0.00101196
15 *457:23 0.00073339
16 *457:10 0.00104962
17 *1273:B *1903:A1 3.82228e-05
18 *1273:B *458:88 2.16355e-05
19 *1565:A3 *1565:B1 0.000100125
20 *1565:A3 *831:19 3.64168e-05
21 *1576:B1 *1576:A2 7.47061e-05
22 *1576:B1 *1584:B1 6.98337e-06
23 *1576:B1 *659:20 6.75453e-05
24 *1582:B1 *1576:A2 1.05106e-05
25 *457:10 *1274:B1 0.000106605
26 *457:23 *1572:C1 0.000110458
27 *457:23 *2091:D 0
28 *457:23 *458:46 0
29 *457:27 *1526:A2 4.0508e-05
30 *457:27 *1770:A2 2.12377e-05
31 *457:27 *2127:D 0.000196954
32 *457:27 *2127:RESET_B 0
33 *457:27 *2128:RESET_B 0.0001403
34 *457:27 *789:26 0.000107858
35 *457:27 *846:10 0
36 *457:38 *1901:A 0.000134472
37 *457:38 *1901:B 0
38 *457:38 *1903:B1 6.84784e-06
39 *457:38 *2092:RESET_B 9.29777e-05
40 *457:38 *2128:RESET_B 0.000349969
41 *457:38 *458:94 0.000339531
42 *457:38 *611:53 0.000134302
43 *457:38 *832:43 2.82537e-05
44 *457:55 *458:94 4.53418e-05
45 *457:55 *458:195 0.000300649
46 *457:55 *611:53 0.000183368
47 *457:59 *1584:B1 8.57967e-05
48 *457:61 *1584:B1 0.00012731
49 *1568:B *457:10 0.000130355
50 *1578:A2 *1578:A3 4.66492e-05
51 *1582:A1 *1576:B1 1.37189e-05
52 *1582:A1 *457:61 3.16131e-05
53 *1584:A2 *1578:A3 0.000160617
54 *1584:A2 *457:59 0.000100115
55 *1584:C1 *457:55 1.07248e-05
56 *181:10 *1578:A3 7.50991e-05
57 *181:10 *457:59 3.39487e-05
58 *186:10 *457:10 0
59 *421:33 *457:23 0.000113254
60 *426:12 *457:10 0.000457421
61 *450:56 *457:10 0.000108963
62 *450:56 *457:23 9.89984e-05
63 *450:56 *457:27 8.36586e-06
64 *450:67 *457:27 0
65 *450:78 *457:38 0
*RES
1 *1272:Y *457:10 30.5737 
2 *457:10 *1568:A 13.7491 
3 *457:10 *457:23 12.593 
4 *457:23 *457:27 17.9591 
5 *457:27 *1565:A3 15.5817 
6 *457:27 *457:38 17.1963 
7 *457:38 *1273:B 15.0271 
8 *457:38 *457:55 12.2188 
9 *457:55 *457:59 4.07513 
10 *457:59 *457:61 3.49641 
11 *457:61 *1576:B1 12.2151 
12 *457:61 *1582:B1 9.82786 
13 *457:59 *1584:A3 9.82786 
14 *457:55 *1578:A3 11.6364 
15 *457:23 *1572:A3 9.24915 
*END

*D_NET *458 0.0383856
*CONN
*I *1520:B1 I *D sky130_fd_sc_hd__a21oi_1
*I *1517:B1 I *D sky130_fd_sc_hd__a21oi_1
*I *1529:B1 I *D sky130_fd_sc_hd__a21oi_1
*I *1541:B1 I *D sky130_fd_sc_hd__a21oi_1
*I *1532:B1 I *D sky130_fd_sc_hd__a21oi_1
*I *1555:C1 I *D sky130_fd_sc_hd__a221oi_1
*I *1558:C1 I *D sky130_fd_sc_hd__a221oi_1
*I *1544:B1 I *D sky130_fd_sc_hd__a21oi_1
*I *1535:B1 I *D sky130_fd_sc_hd__a21oi_1
*I *1526:B1 I *D sky130_fd_sc_hd__a21oi_1
*I *1511:B1 I *D sky130_fd_sc_hd__a21oi_1
*I *1485:A I *D sky130_fd_sc_hd__nand2_4
*I *1588:A I *D sky130_fd_sc_hd__nand2_4
*I *1538:B1 I *D sky130_fd_sc_hd__a21oi_1
*I *1523:B1 I *D sky130_fd_sc_hd__a21oi_1
*I *1552:C1 I *D sky130_fd_sc_hd__a221oi_1
*I *1514:B1 I *D sky130_fd_sc_hd__a21oi_1
*I *1274:B1 I *D sky130_fd_sc_hd__o21ai_0
*I *1563:A I *D sky130_fd_sc_hd__inv_1
*I *1549:C1 I *D sky130_fd_sc_hd__a221oi_1
*I *1273:Y O *D sky130_fd_sc_hd__nor2_8
*CAP
1 *1520:B1 0
2 *1517:B1 6.19593e-05
3 *1529:B1 0.000360262
4 *1541:B1 0
5 *1532:B1 5.50782e-05
6 *1555:C1 1.52494e-05
7 *1558:C1 0.000117578
8 *1544:B1 1.65748e-05
9 *1535:B1 0.000169254
10 *1526:B1 0
11 *1511:B1 0
12 *1485:A 0
13 *1588:A 0.000269626
14 *1538:B1 7.16825e-05
15 *1523:B1 0
16 *1552:C1 1.47608e-05
17 *1514:B1 0.000736369
18 *1274:B1 0.000412625
19 *1563:A 0
20 *1549:C1 1.2064e-05
21 *1273:Y 0.000362211
22 *458:262 0.000614747
23 *458:253 0.00104554
24 *458:239 0.000892724
25 *458:230 0.000177441
26 *458:210 0.000263028
27 *458:206 0.000607716
28 *458:195 0.000969027
29 *458:148 0.000537065
30 *458:142 0.00166315
31 *458:128 0.00165068
32 *458:126 0.00110921
33 *458:105 0.00137608
34 *458:101 0.000716407
35 *458:94 0.000337876
36 *458:88 0.00088563
37 *458:46 0.0016991
38 *458:31 0.00069367
39 *458:23 0.000579323
40 *458:10 0.000708113
41 *1274:B1 *459:8 0.000136043
42 *1514:B1 *611:247 0.000207294
43 *1514:B1 *839:23 0.000117856
44 *1517:B1 *1517:A1 5.80109e-06
45 *1517:B1 *722:12 0.000100705
46 *1517:B1 *838:39 9.29919e-05
47 *1529:B1 *1517:A1 5.1493e-06
48 *1529:B1 *1529:A1 0.000226291
49 *1529:B1 *1713:A 0.000160493
50 *1529:B1 *722:12 0.000703185
51 *1532:B1 *1520:A1 0.000110458
52 *1532:B1 *1532:A2 6.31993e-05
53 *1532:B1 *611:91 0.000110297
54 *1532:B1 *626:14 1.00766e-05
55 *1535:B1 *1535:A1 0.000299284
56 *1535:B1 *1937:RESET_B 8.62625e-06
57 *1535:B1 *2512:A 0.000421676
58 *1535:B1 *611:132 0.000213725
59 *1535:B1 *628:22 2.41274e-06
60 *1535:B1 *638:10 2.77625e-06
61 *1535:B1 *832:43 3.07726e-05
62 *1535:B1 *985:12 2.41274e-06
63 *1535:B1 *1113:161 0.000118485
64 *1535:B1 *1130:94 0.000118485
65 *1538:B1 *1538:A2 6.36477e-05
66 *1538:B1 *598:370 3.42037e-06
67 *1544:B1 *1544:A2 6.27782e-05
68 *1544:B1 *634:6 7.01935e-06
69 *1544:B1 *834:23 1.00901e-05
70 *1549:C1 *1549:B2 6.08467e-05
71 *1549:C1 *847:27 6.50586e-05
72 *1552:C1 *1552:B1 6.08467e-05
73 *1552:C1 *2127:CLK 6.08467e-05
74 *1555:C1 *1558:A2 1.05106e-05
75 *1558:C1 *1555:B1 0.000216467
76 *1558:C1 *1558:A1 8.60676e-05
77 *1558:C1 *1558:A2 8.93845e-05
78 *1588:A *597:10 3.57698e-05
79 *458:10 *1549:B2 0
80 *458:10 *637:23 2.22198e-05
81 *458:10 *637:31 0.000222131
82 *458:23 *1562:A 0.000114659
83 *458:23 *1564:C1 0.000159127
84 *458:23 *637:23 0.00016998
85 *458:31 *1564:C1 0.00033617
86 *458:31 *1571:B1 5.41227e-05
87 *458:31 *2127:RESET_B 3.14426e-05
88 *458:31 *835:31 1.58018e-05
89 *458:46 *2091:D 0.000352796
90 *458:46 *2127:RESET_B 0.000344196
91 *458:46 *835:31 0.000141724
92 *458:88 *1903:A1 8.21761e-06
93 *458:94 *1523:A2 0.000200794
94 *458:94 *1901:A 0.000111708
95 *458:94 *611:49 0.000164829
96 *458:94 *611:125 0.000235492
97 *458:94 *832:27 0.000273515
98 *458:94 *832:43 0.00014174
99 *458:101 *1523:A2 0.000152753
100 *458:101 *611:125 0.000114594
101 *458:101 *611:132 0.000570541
102 *458:101 *832:43 0.000138242
103 *458:105 *1538:A2 1.5552e-05
104 *458:105 *1635:A2 3.08403e-05
105 *458:105 *1953:CLK 0.000160384
106 *458:105 *598:366 1.88755e-05
107 *458:105 *598:370 1.66626e-05
108 *458:105 *611:136 0
109 *458:105 *1130:46 0
110 *458:126 *611:146 0.000409789
111 *458:126 *778:18 0.000388861
112 *458:126 *1111:46 0.00011711
113 *458:126 *1113:170 0
114 *458:128 *1511:A2 1.1246e-05
115 *458:128 *1766:B 0.000153257
116 *458:128 *611:152 0
117 *458:142 *1511:A2 5.22654e-06
118 *458:142 *1513:B1 0.000168313
119 *458:142 *1766:B 8.88627e-05
120 *458:142 *2102:CLK 0
121 *458:142 *598:21 3.32053e-05
122 *458:142 *612:10 0.0016876
123 *458:142 *728:20 0.000125129
124 *458:142 *901:10 0.000224381
125 *458:148 *597:10 2.16355e-05
126 *458:148 *1133:10 4.79398e-05
127 *458:148 *1133:66 5.66868e-06
128 *458:195 *1751:B1 3.46922e-05
129 *458:195 *2090:D 6.90388e-05
130 *458:195 *2090:RESET_B 0.000103412
131 *458:195 *611:53 0.000142349
132 *458:195 *790:12 0
133 *458:195 *832:27 0.000161452
134 *458:195 *1113:86 0.000248141
135 *458:206 *1751:B1 0.00012367
136 *458:206 *2090:D 8.75441e-06
137 *458:206 *611:64 8.20492e-06
138 *458:206 *776:18 8.43648e-05
139 *458:206 *776:22 1.55462e-05
140 *458:206 *907:15 0.00029754
141 *458:210 *1555:B1 0.000141444
142 *458:210 *1558:A2 8.93134e-05
143 *458:210 *611:66 0.000257494
144 *458:210 *642:16 0.000168247
145 *458:230 cio_gpio_o[0] 5.35603e-05
146 *458:230 *776:16 0.000135635
147 *458:230 *776:18 8.79082e-06
148 *458:230 *907:15 2.03171e-05
149 *458:239 *1520:A1 9.32983e-05
150 *458:239 *626:14 1.82679e-05
151 *458:253 *1934:CLK 2.69087e-05
152 *458:253 *2507:A 0
153 *458:253 *598:258 0
154 *458:253 *776:16 3.88415e-05
155 *458:253 *788:14 1.13775e-05
156 *458:262 *1541:A1 0.000112367
157 *458:262 *1713:A 0.000109421
158 *458:262 *598:232 4.19182e-05
159 *458:262 *838:39 0.000107496
160 *1268:A *1274:B1 7.40736e-05
161 *1273:A *458:10 2.57986e-05
162 *1273:B *458:88 2.16355e-05
163 *1547:A *1274:B1 0.000341024
164 *1568:B *458:46 0
165 *1584:C1 *458:195 0.000116971
166 *1588:B *1588:A 4.24629e-05
167 *1623:A1 *458:262 7.51131e-05
168 *1633:A1 *458:253 0.000311267
169 *1752:B1 *458:206 0.000127194
170 *1910:D *1588:A 1.41976e-05
171 *1911:D *458:148 0.000138334
172 *1925:D *458:105 2.2778e-05
173 *183:39 *1588:A 8.71641e-05
174 *184:10 *1588:A 6.27718e-05
175 *185:252 *458:253 0.000111879
176 *186:10 *1274:B1 1.26939e-05
177 *186:10 *458:46 1.15766e-05
178 *388:131 *458:126 6.26863e-05
179 *388:133 *458:126 0.00022849
180 *388:133 *458:128 9.08174e-05
181 *388:143 *458:128 0.000393354
182 *426:12 *1274:B1 0.000107496
183 *453:29 *458:23 0.000153675
184 *453:29 *458:31 0.000374457
185 *453:29 *458:46 0
186 *453:31 *458:23 0.00056748
187 *453:40 *458:10 1.23455e-05
188 *453:40 *458:23 0.00016345
189 *457:10 *1274:B1 0.000106605
190 *457:23 *458:46 0
191 *457:38 *458:94 0.000339531
192 *457:55 *458:94 4.53418e-05
193 *457:55 *458:195 0.000300649
*RES
1 *1273:Y *458:10 20.3205 
2 *458:10 *1549:C1 14.4725 
3 *458:10 *458:23 17.0986 
4 *458:23 *458:31 11.8696 
5 *458:31 *1563:A 9.24915 
6 *458:31 *458:46 21.3122 
7 *458:46 *1274:B1 26.579 
8 *458:46 *1514:B1 25.5887 
9 *458:23 *1552:C1 14.4725 
10 *1273:Y *458:88 15.0271 
11 *458:88 *458:94 16.3359 
12 *458:94 *1523:B1 9.24915 
13 *458:94 *458:101 7.37864 
14 *458:101 *458:105 15.6752 
15 *458:105 *1538:B1 15.584 
16 *458:105 *458:126 21.525 
17 *458:126 *458:128 9.30653 
18 *458:128 *458:142 44.2329 
19 *458:142 *458:148 11.2079 
20 *458:148 *1588:A 16.3867 
21 *458:148 *1485:A 9.24915 
22 *458:128 *1511:B1 13.7491 
23 *458:126 *1526:B1 13.7491 
24 *458:101 *1535:B1 26.9346 
25 *458:88 *458:195 19.2726 
26 *458:195 *1544:B1 14.4725 
27 *458:195 *458:206 13.0438 
28 *458:206 *458:210 10.2148 
29 *458:210 *1558:C1 13.8789 
30 *458:210 *1555:C1 9.82786 
31 *458:206 *458:230 7.57775 
32 *458:230 *1532:B1 11.6364 
33 *458:230 *458:239 1.278 
34 *458:239 *458:253 20.0415 
35 *458:253 *1541:B1 9.24915 
36 *458:253 *458:262 10.2148 
37 *458:262 *1529:B1 27.2082 
38 *458:262 *1517:B1 15.9964 
39 *458:239 *1520:B1 9.24915 
*END

*D_NET *459 0.00251797
*CONN
*I *1285:A I *D sky130_fd_sc_hd__nand2_2
*I *1873:A1 I *D sky130_fd_sc_hd__a31oi_1
*I *1274:Y O *D sky130_fd_sc_hd__o21ai_0
*CAP
1 *1285:A 3.92284e-05
2 *1873:A1 0.000307696
3 *1274:Y 0.000479723
4 *459:8 0.000826647
5 *1285:A *1363:A 0
6 *1285:A *462:28 0
7 *1873:A1 *1786:A2 0.000151922
8 *1873:A1 *1873:A2 7.34948e-06
9 *1873:A1 *2036:CLK 0.000228593
10 *459:8 *470:8 0.000118116
11 *1272:A1 *459:8 9.88442e-05
12 *1274:B1 *459:8 0.000136043
13 *1873:B1 *1873:A1 5.45692e-05
14 *426:12 *459:8 6.92419e-05
*RES
1 *1274:Y *459:8 26.1192 
2 *459:8 *1873:A1 22.5361 
3 *459:8 *1285:A 14.7506 
*END

*D_NET *460 0.00290048
*CONN
*I *1276:B I *D sky130_fd_sc_hd__nor2_1
*I *1418:A1 I *D sky130_fd_sc_hd__o21ai_0
*I *1275:Y O *D sky130_fd_sc_hd__inv_1
*CAP
1 *1276:B 0.0002175
2 *1418:A1 0.000810218
3 *1275:Y 0
4 *460:4 0.00102772
5 *1276:B *1275:A 0.00019787
6 *1276:B *1108:47 0.000159209
7 *1418:A1 *1275:A 2.54181e-05
8 *1418:A1 *1381:A1 0
9 *1418:A1 *1418:A2 0.000289325
10 *1418:A1 *2033:CLK 3.14194e-05
11 *1418:A1 *1108:51 9.99867e-06
12 *1418:A1 *1109:58 2.93674e-05
13 *1418:A1 *1109:78 6.93171e-05
14 *2033:D *1418:A1 3.31192e-05
*RES
1 *1275:Y *460:4 9.24915 
2 *460:4 *1418:A1 32.7739 
3 *460:4 *1276:B 16.2299 
*END

*D_NET *461 0.00154661
*CONN
*I *1277:B1 I *D sky130_fd_sc_hd__a21oi_1
*I *1283:A3 I *D sky130_fd_sc_hd__a31oi_1
*I *1276:Y O *D sky130_fd_sc_hd__nor2_1
*CAP
1 *1277:B1 1.47608e-05
2 *1283:A3 0.000204103
3 *1276:Y 0.00014808
4 *461:10 0.000366944
5 *1277:B1 *1277:A2 6.08467e-05
6 *1277:B1 *1109:48 6.08467e-05
7 *1283:A3 *1277:A1 7.09666e-06
8 *1283:A3 *1283:B1 1.84293e-05
9 *1283:A3 *2008:RESET_B 0.000146029
10 *1283:A3 *2033:RESET_B 0.00025532
11 *1283:A3 *712:16 5.57582e-05
12 *1283:A3 *1108:32 3.38137e-05
13 *1283:A3 *1108:47 5.07661e-05
14 *461:10 *1275:A 0
15 *461:10 *1276:A 2.58616e-05
16 *461:10 *1277:A1 8.74843e-05
17 *461:10 *1108:47 1.04731e-05
*RES
1 *1276:Y *461:10 16.8591 
2 *461:10 *1283:A3 21.7028 
3 *461:10 *1277:B1 14.4725 
*END

*D_NET *462 0.00779701
*CONN
*I *1284:A3 I *D sky130_fd_sc_hd__a32oi_1
*I *1277:Y O *D sky130_fd_sc_hd__a21oi_1
*CAP
1 *1284:A3 0
2 *1277:Y 0.000885886
3 *462:28 0.00187945
4 *462:16 0.00276533
5 *462:16 *1277:A2 6.55265e-05
6 *462:16 *548:65 9.76854e-05
7 *462:16 *712:16 2.09154e-05
8 *462:16 *1109:42 5.1674e-06
9 *462:16 *1109:46 5.04829e-06
10 *462:16 *1109:48 1.30118e-05
11 *462:16 *1110:485 6.19661e-05
12 *462:16 *1110:530 8.81872e-06
13 *462:28 *1247:A 6.46815e-05
14 *462:28 *1362:A 8.57967e-05
15 *462:28 *1865:B 0.000110297
16 *462:28 *1873:A2 9.43419e-05
17 *462:28 *1880:A 0.000260325
18 *462:28 *2064:RESET_B 7.93545e-05
19 *462:28 *468:30 4.43284e-05
20 *462:28 *530:14 3.04755e-06
21 *462:28 *1094:25 0.000202726
22 *462:28 *1110:530 5.20546e-06
23 *462:28 *1112:10 0.000111627
24 *462:28 *1112:18 0.000250054
25 *462:28 *1137:32 0.000542103
26 *1285:A *462:28 0
27 *1667:A *462:28 0
28 *1984:D *462:16 2.83365e-05
29 *2057:D *462:28 6.46815e-05
30 *426:22 *462:28 4.12977e-05
*RES
1 *1277:Y *462:16 33.7533 
2 *462:16 *462:28 49.1826 
3 *462:28 *1284:A3 9.24915 
*END

*D_NET *463 0.000729861
*CONN
*I *1284:B1 I *D sky130_fd_sc_hd__a32oi_1
*I *1278:Y O *D sky130_fd_sc_hd__nor3_1
*CAP
1 *1284:B1 0.000285653
2 *1278:Y 0.000285653
3 *1284:B1 *468:30 1.36887e-05
4 *1284:B1 *469:6 9.44631e-06
5 *1278:C *1284:B1 4.02949e-05
6 *1667:A *1284:B1 7.43117e-05
7 *426:22 *1284:B1 2.08128e-05
*RES
1 *1278:Y *1284:B1 32.4114 
*END

*D_NET *464 0.0037198
*CONN
*I *1282:A I *D sky130_fd_sc_hd__nor4_1
*I *1377:A1 I *D sky130_fd_sc_hd__o21ai_0
*I *1279:Y O *D sky130_fd_sc_hd__inv_1
*CAP
1 *1282:A 0.000688101
2 *1377:A1 0.000596661
3 *1279:Y 0
4 *464:4 0.00128476
5 *1282:A *1279:A 0.000138643
6 *1282:A *1283:B1 0.000118769
7 *1282:A *1413:B 0
8 *1282:A *2008:RESET_B 0
9 *1282:A *712:16 6.9404e-05
10 *1282:A *1110:613 0.000152412
11 *1377:A1 *1279:A 2.46912e-05
12 *1377:A1 *1377:A2 0.00019096
13 *1377:A1 *667:14 1.00901e-05
14 *2009:D *1282:A 0.000445308
*RES
1 *1279:Y *464:4 9.24915 
2 *464:4 *1377:A1 19.0029 
3 *464:4 *1282:A 37.178 
*END

*D_NET *465 0.00153359
*CONN
*I *1282:C I *D sky130_fd_sc_hd__nor4_1
*I *1379:A1 I *D sky130_fd_sc_hd__o21ai_0
*I *1280:Y O *D sky130_fd_sc_hd__inv_1
*CAP
1 *1282:C 0.000194973
2 *1379:A1 0.000269678
3 *1280:Y 0.000464652
4 *1282:C *1416:B 9.1084e-05
5 *1379:A1 *1280:A 8.52766e-05
6 *1379:A1 *1379:A2 0.000205006
7 *1379:A1 *1415:B 1.19856e-05
8 *1379:A1 *1416:B 8.93059e-05
9 *1379:A1 *668:6 1.41291e-05
10 *2034:D *1379:A1 0.000107496
*RES
1 *1280:Y *1379:A1 26.1783 
2 *1280:Y *1282:C 31.0249 
*END

*D_NET *466 0.00248845
*CONN
*I *1381:A1 I *D sky130_fd_sc_hd__o21ai_0
*I *1282:D I *D sky130_fd_sc_hd__nor4_1
*I *1281:Y O *D sky130_fd_sc_hd__inv_1
*CAP
1 *1381:A1 0.000325857
2 *1282:D 0.000141271
3 *1281:Y 0.000471366
4 *466:8 0.000938494
5 *1282:D *1283:B1 4.30017e-06
6 *1282:D *712:16 0.000224395
7 *1282:D *1104:55 0
8 *1381:A1 *1381:A2 1.87252e-05
9 *1381:A1 *1104:55 0
10 *1381:A1 *1109:58 7.11193e-06
11 *466:8 *2007:RESET_B 0.00032035
12 *1418:A1 *1381:A1 0
13 *2033:D *1381:A1 3.65841e-05
*RES
1 *1281:Y *466:8 21.4051 
2 *466:8 *1282:D 17.9683 
3 *466:8 *1381:A1 21.3947 
*END

*D_NET *467 0.00200033
*CONN
*I *1283:B1 I *D sky130_fd_sc_hd__a31oi_1
*I *1282:Y O *D sky130_fd_sc_hd__nor4_1
*CAP
1 *1283:B1 0.0008358
2 *1282:Y 0.0008358
3 *1283:B1 *1283:A1 4.83908e-05
4 *1283:B1 *548:65 7.25424e-05
5 *1283:B1 *712:16 5.92241e-05
6 *1283:B1 *1109:42 7.07115e-06
7 *1282:A *1283:B1 0.000118769
8 *1282:D *1283:B1 4.30017e-06
9 *1283:A3 *1283:B1 1.84293e-05
*RES
1 *1282:Y *1283:B1 42.0326 
*END

*D_NET *468 0.00850542
*CONN
*I *1284:B2 I *D sky130_fd_sc_hd__a32oi_1
*I *1283:Y O *D sky130_fd_sc_hd__a31oi_1
*CAP
1 *1284:B2 0
2 *1283:Y 0.000780467
3 *468:30 0.00204884
4 *468:12 0.00282931
5 *468:12 *1283:A1 3.24105e-05
6 *468:12 *1406:A 2.35904e-05
7 *468:12 *1407:B1 2.35793e-05
8 *468:12 *1110:530 7.04109e-05
9 *468:30 *1870:A 7.35231e-05
10 *468:30 *1880:A 0.000143839
11 *468:30 *2064:RESET_B 0.000449027
12 *468:30 *1094:25 0.000139947
13 *468:30 *1112:6 0.000341287
14 *468:30 *1112:10 0.000606118
15 *468:30 *1112:18 0.000247242
16 *468:30 *1137:32 2.17699e-05
17 *1253:A *468:12 0
18 *1278:C *468:30 4.25878e-06
19 *1282:B *468:12 0.000311249
20 *1284:B1 *468:30 1.36887e-05
21 *1407:A1 *468:12 6.82665e-05
22 *1667:A *468:30 5.01493e-05
23 *427:74 *468:30 4.57635e-05
24 *439:14 *468:30 0.000136353
25 *462:28 *468:30 4.43284e-05
*RES
1 *1283:Y *468:12 30.9268 
2 *468:12 *468:30 47.4646 
3 *468:30 *1284:B2 9.24915 
*END

*D_NET *469 0.00132587
*CONN
*I *1285:B I *D sky130_fd_sc_hd__nand2_2
*I *1873:A2 I *D sky130_fd_sc_hd__a31oi_1
*I *1284:Y O *D sky130_fd_sc_hd__a32oi_1
*CAP
1 *1285:B 5.65057e-05
2 *1873:A2 0.000256626
3 *1284:Y 0.000132916
4 *469:6 0.000446047
5 *1873:A2 *2036:CLK 1.00981e-05
6 *1284:A1 *469:6 1.04731e-05
7 *1284:B1 *469:6 9.44631e-06
8 *1872:B *1873:A2 0.000141521
9 *1873:A1 *1873:A2 7.34948e-06
10 *1873:A3 *1873:A2 3.75603e-05
11 *1873:B1 *1873:A2 3.84177e-05
12 *426:12 *1285:B 6.46815e-05
13 *426:12 *469:6 1.98846e-05
14 *439:14 *1873:A2 0
15 *462:28 *1873:A2 9.43419e-05
*RES
1 *1284:Y *469:6 12.191 
2 *469:6 *1873:A2 25.1205 
3 *469:6 *1285:B 10.9612 
*END

*D_NET *470 0.00218081
*CONN
*I *1286:D I *D sky130_fd_sc_hd__nor4_4
*I *1667:D I *D sky130_fd_sc_hd__nor4_4
*I *1363:A I *D sky130_fd_sc_hd__nand2_1
*I *1285:Y O *D sky130_fd_sc_hd__nand2_2
*CAP
1 *1286:D 0.000175745
2 *1667:D 0
3 *1363:A 0.000169877
4 *1285:Y 4.02827e-05
5 *470:19 0.000281646
6 *470:8 0.00031606
7 *1286:D *1667:C 0
8 *1286:D *636:23 3.14544e-05
9 *1286:D *839:23 0.000277488
10 *1363:A *1872:A 2.5971e-05
11 *1268:B *1286:D 1.03594e-05
12 *1268:B *470:19 0.000142472
13 *1272:A1 *1286:D 2.99155e-05
14 *1272:B1 *1363:A 7.09666e-06
15 *1272:B1 *470:19 1.5714e-05
16 *1285:A *1363:A 0
17 *1547:A *1363:A 0
18 *426:12 *470:8 0.000261128
19 *443:45 *1286:D 0.000277488
20 *459:8 *470:8 0.000118116
*RES
1 *1285:Y *470:8 16.691 
2 *470:8 *1363:A 17.6574 
3 *470:8 *470:19 3.07775 
4 *470:19 *1667:D 13.7491 
5 *470:19 *1286:D 20.5992 
*END

*D_NET *471 0.000633968
*CONN
*I *2489:A I *D sky130_fd_sc_hd__buf_4
*I *1286:Y O *D sky130_fd_sc_hd__nor4_4
*CAP
1 *2489:A 0.000148965
2 *1286:Y 0.000148965
3 *2489:A *2072:RESET_B 6.50727e-05
4 *2489:A *2492:A 3.5534e-06
5 *2489:A *839:10 2.12377e-05
6 *2489:A *1107:6 0.000217951
7 *224:12 *2489:A 2.82242e-05
*RES
1 *1286:Y *2489:A 32.1327 
*END

*D_NET *473 0.00107015
*CONN
*I *1290:A2 I *D sky130_fd_sc_hd__o21ai_0
*I *1465:A1 I *D sky130_fd_sc_hd__o21ai_0
*I *1288:Y O *D sky130_fd_sc_hd__inv_1
*CAP
1 *1290:A2 2.45847e-05
2 *1465:A1 0.00019705
3 *1288:Y 0.000101219
4 *473:6 0.000322854
5 *1465:A1 *1109:97 2.58757e-05
6 *1465:A1 *1109:108 2.30636e-05
7 *1465:A1 *1114:24 0.000108819
8 *473:6 *1288:A 5.86067e-05
9 *473:6 *1114:24 4.61218e-05
10 *1989:D *1465:A1 0.000161956
*RES
1 *1288:Y *473:6 11.9137 
2 *473:6 *1465:A1 15.5427 
3 *473:6 *1290:A2 9.82786 
*END

*D_NET *474 0.000437262
*CONN
*I *1290:B1 I *D sky130_fd_sc_hd__o21ai_0
*I *1289:Y O *D sky130_fd_sc_hd__nand2_1
*CAP
1 *1290:B1 0.000124689
2 *1289:Y 0.000124689
3 *1290:B1 *1990:CLK 1.37421e-05
4 *1290:B1 *686:16 6.08467e-05
5 *1290:B1 *1112:68 0.000113295
*RES
1 *1289:Y *1290:B1 30.4689 
*END

*D_NET *475 0.00683274
*CONN
*I *1671:B I *D sky130_fd_sc_hd__nand2_1
*I *1291:B I *D sky130_fd_sc_hd__nand2_1
*I *1290:Y O *D sky130_fd_sc_hd__o21ai_0
*CAP
1 *1671:B 5.39082e-05
2 *1291:B 1.42772e-05
3 *1290:Y 0.00253788
4 *475:8 0.00260607
5 *1291:B *1291:A 4.76161e-06
6 *1671:B *1291:A 4.04393e-05
7 *1671:B *1292:B1 3.00082e-05
8 *1671:B *2047:RESET_B 3.55539e-05
9 *475:8 *1885:B 2.44599e-05
10 *475:8 *2032:RESET_B 1.83116e-05
11 *475:8 *2047:RESET_B 1.39095e-05
12 *475:8 *763:12 0.000112367
13 *475:8 *1076:8 1.82679e-05
14 *475:8 *1112:393 0.000810212
15 *475:8 *1114:20 0.000180799
16 *475:8 *1114:24 0.000157107
17 *475:8 *1115:76 8.23171e-06
18 *1671:A *1671:B 1.59756e-05
19 *2032:D *475:8 2.61642e-05
20 *2047:D *475:8 0.000121769
21 *2073:D *475:8 2.26179e-06
*RES
1 *1290:Y *475:8 48.6742 
2 *475:8 *1291:B 9.82786 
3 *475:8 *1671:B 11.6605 
*END

*D_NET *476 0.000629129
*CONN
*I *1292:B1 I *D sky130_fd_sc_hd__o21ai_0
*I *1291:Y O *D sky130_fd_sc_hd__nand2_1
*CAP
1 *1292:B1 0.000206534
2 *1291:Y 0.000206534
3 *1292:B1 *1292:A2 1.91391e-05
4 *1292:B1 *2043:CLK 8.6958e-05
5 *1292:A1 *1292:B1 6.3657e-05
6 *1671:B *1292:B1 3.00082e-05
7 *2084:D *1292:B1 1.6299e-05
*RES
1 *1291:Y *1292:B1 32.0961 
*END

*D_NET *477 0.00612434
*CONN
*I *1577:A I *D sky130_fd_sc_hd__nor2_1
*I *1749:B I *D sky130_fd_sc_hd__nor2_1
*I *1298:A1 I *D sky130_fd_sc_hd__o21ai_0
*I *1293:Y O *D sky130_fd_sc_hd__inv_1
*CAP
1 *1577:A 7.09094e-05
2 *1749:B 0.000300598
3 *1298:A1 0.000741044
4 *1293:Y 0.00108562
5 *477:32 0.000716087
6 *1298:A1 *1293:A 4.06846e-05
7 *1298:A1 *1298:A2 3.05876e-05
8 *1298:A1 *1303:A 6.78364e-06
9 *1298:A1 *1674:A1 9.56067e-05
10 *1298:A1 *2083:RESET_B 0.000107852
11 *1298:A1 *1107:195 9.95922e-06
12 *1298:A1 *1107:204 9.95542e-06
13 *1577:A *1578:C1 1.43848e-05
14 *1577:A *1930:CLK 0.000160617
15 *1749:B *1578:A1 7.75472e-05
16 *1749:B *1583:B 5.05252e-05
17 *1749:B *1584:A1 0.000116986
18 *1749:B *611:53 0.000200595
19 *1749:B *611:64 5.03545e-06
20 *477:32 *1575:A 0.000126645
21 *477:32 *1576:A2 4.50582e-05
22 *477:32 *1583:A 0.000367735
23 *477:32 *1583:B 6.08467e-05
24 *477:32 *1674:A1 0.000120546
25 *477:32 *1930:CLK 0.00109919
26 *1674:B1 *1298:A1 0.000167482
27 *2042:D *1298:A1 0.000196623
28 *2083:D *1298:A1 6.28701e-05
29 *224:98 *1298:A1 3.59597e-05
*RES
1 *1293:Y *1298:A1 43.4699 
2 *1293:Y *477:32 25.7787 
3 *477:32 *1749:B 28.3862 
4 *477:32 *1577:A 11.6605 
*END

*D_NET *478 0.00153119
*CONN
*I *1296:A2 I *D sky130_fd_sc_hd__o21ai_0
*I *1467:A1 I *D sky130_fd_sc_hd__o21ai_0
*I *1294:Y O *D sky130_fd_sc_hd__inv_1
*CAP
1 *1296:A2 0.000127202
2 *1467:A1 7.48589e-05
3 *1294:Y 6.45929e-05
4 *478:6 0.000266654
5 *1296:A2 *1988:RESET_B 2.95757e-05
6 *1296:A2 *1109:272 0
7 *1296:A2 *1117:72 0
8 *1467:A1 *1294:A 0.000367051
9 *1467:A1 *1988:RESET_B 0.000420436
10 *478:6 *1294:A 0.000119975
11 *478:6 *1988:RESET_B 6.08467e-05
*RES
1 *1294:Y *478:6 11.3591 
2 *478:6 *1467:A1 14.4335 
3 *478:6 *1296:A2 20.9116 
*END

*D_NET *479 0.000381445
*CONN
*I *1296:B1 I *D sky130_fd_sc_hd__o21ai_0
*I *1295:Y O *D sky130_fd_sc_hd__nand2_1
*CAP
1 *1296:B1 0.000158193
2 *1295:Y 0.000158193
3 *1296:B1 *1385:S 6.50586e-05
4 *1296:B1 *1109:283 0
5 *1296:B1 *1109:322 0
6 *1296:B1 *1117:72 0
*RES
1 *1295:Y *1296:B1 30.4689 
*END

*D_NET *480 0.0037557
*CONN
*I *1297:B I *D sky130_fd_sc_hd__nand2_1
*I *1673:B I *D sky130_fd_sc_hd__nand2_1
*I *1296:Y O *D sky130_fd_sc_hd__o21ai_0
*CAP
1 *1297:B 0.000161898
2 *1673:B 9.60433e-05
3 *1296:Y 0.000969717
4 *480:8 0.00122766
5 *1297:B *1298:B1 2.26985e-05
6 *1297:B *1342:A 8.62625e-06
7 *1297:B *2070:RESET_B 0
8 *1673:B *1891:A 1.07248e-05
9 *1673:B *2070:RESET_B 0
10 *480:8 *1296:A1 0.000483474
11 *480:8 *1428:A 0.000114584
12 *480:8 *1428:B 5.36705e-05
13 *480:8 *1430:A 7.58194e-05
14 *480:8 *1430:B 2.01874e-05
15 *480:8 *1109:289 7.6174e-05
16 *480:8 *1109:295 6.50727e-05
17 *480:8 *1123:34 0.000260505
18 *1673:A *1297:B 6.40849e-05
19 *1673:A *1673:B 4.47578e-05
*RES
1 *1296:Y *480:8 39.4297 
2 *480:8 *1673:B 16.4116 
3 *480:8 *1297:B 18.0727 
*END

*D_NET *481 0.000662498
*CONN
*I *1298:B1 I *D sky130_fd_sc_hd__o21ai_0
*I *1297:Y O *D sky130_fd_sc_hd__nand2_1
*CAP
1 *1298:B1 0.000314236
2 *1297:Y 0.000314236
3 *1297:B *1298:B1 2.26985e-05
4 *1673:A *1298:B1 1.13282e-05
*RES
1 *1297:Y *1298:B1 35.4254 
*END

*D_NET *482 0.00468139
*CONN
*I *1739:B I *D sky130_fd_sc_hd__nor2_1
*I *1583:A I *D sky130_fd_sc_hd__nor2_1
*I *1304:A1 I *D sky130_fd_sc_hd__o21ai_0
*I *1299:Y O *D sky130_fd_sc_hd__inv_1
*CAP
1 *1739:B 0
2 *1583:A 0.000756625
3 *1304:A1 0.000383591
4 *1299:Y 0
5 *482:21 0.000808525
6 *482:4 0.000435491
7 *1304:A1 *1299:A 8.58173e-05
8 *1304:A1 *1304:A2 1.78942e-05
9 *1304:A1 *1330:A 0.000168313
10 *1304:A1 *848:29 0.000573114
11 *1583:A *1582:A2 0
12 *1583:A *1583:B 6.92705e-05
13 *1583:A *637:31 0.000775927
14 *1583:A *663:10 0
15 *1583:A *910:63 6.06764e-05
16 *482:21 *848:29 3.58469e-05
17 *1584:C1 *1583:A 6.08467e-05
18 *1740:B *482:21 1.05504e-05
19 *2082:D *1304:A1 7.11641e-05
20 *477:32 *1583:A 0.000367735
*RES
1 *1299:Y *482:4 9.24915 
2 *482:4 *1304:A1 24.8866 
3 *482:4 *482:21 1.57941 
4 *482:21 *1583:A 42.8538 
5 *482:21 *1739:B 9.24915 
*END

*D_NET *483 0.00134104
*CONN
*I *1302:A2 I *D sky130_fd_sc_hd__o21ai_0
*I *1469:A1 I *D sky130_fd_sc_hd__o21ai_0
*I *1300:Y O *D sky130_fd_sc_hd__inv_1
*CAP
1 *1302:A2 6.39864e-05
2 *1469:A1 0.000114385
3 *1300:Y 0.000148357
4 *483:6 0.000326729
5 *1302:A2 *672:24 7.40084e-05
6 *1302:A2 *690:14 1.45799e-05
7 *1302:A2 *1112:243 0.00011911
8 *1469:A1 *1469:A2 6.50586e-05
9 *1469:A1 *1469:B1 4.56831e-05
10 *1469:A1 *672:24 6.50727e-05
11 *1469:A1 *690:14 9.63981e-05
12 *483:6 *672:24 9.82896e-06
13 *483:6 *1112:243 0.000197841
*RES
1 *1300:Y *483:6 11.9137 
2 *483:6 *1469:A1 13.7342 
3 *483:6 *1302:A2 20.4964 
*END

*D_NET *484 0.000554164
*CONN
*I *1302:B1 I *D sky130_fd_sc_hd__o21ai_0
*I *1301:Y O *D sky130_fd_sc_hd__nand2_1
*CAP
1 *1302:B1 0.000118695
2 *1301:Y 0.000118695
3 *1302:B1 *1301:A 6.27782e-05
4 *1302:B1 *2014:CLK 5.89905e-05
5 *1302:B1 *485:20 1.50924e-05
6 *1302:B1 *672:24 0.000109421
7 *1302:B1 *1112:243 7.04924e-05
*RES
1 *1301:Y *1302:B1 22.4287 
*END

*D_NET *485 0.00717431
*CONN
*I *1675:B I *D sky130_fd_sc_hd__nand2_1
*I *1303:B I *D sky130_fd_sc_hd__nand2_1
*I *1302:Y O *D sky130_fd_sc_hd__o21ai_0
*CAP
1 *1675:B 0.000184946
2 *1303:B 3.73828e-05
3 *1302:Y 0.00191114
4 *485:24 0.000815415
5 *485:20 0.00250422
6 *1303:B *1304:B1 4.17531e-06
7 *1303:B *1342:A 6.64392e-05
8 *1675:B *1303:A 1.7841e-05
9 *1675:B *1304:B1 7.0354e-06
10 *1675:B *837:12 0.000338713
11 *1675:B *1113:68 0
12 *1675:B *1123:20 8.85947e-05
13 *485:20 *2000:RESET_B 0.000106724
14 *485:20 *2014:CLK 1.04731e-05
15 *485:20 *2029:RESET_B 0.000342463
16 *485:20 *2079:CLK 5.90159e-05
17 *485:20 *548:22 3.34114e-05
18 *485:20 *1056:12 6.27718e-05
19 *485:20 *1073:16 0.00020975
20 *485:20 *1104:288 3.59852e-05
21 *485:24 *1342:A 0.000100985
22 *485:24 *2029:RESET_B 1.7738e-05
23 *485:24 *2070:RESET_B 0.000203999
24 *1302:B1 *485:20 1.50924e-05
25 *224:79 *1675:B 0
*RES
1 *1302:Y *485:20 45.5154 
2 *485:20 *485:24 9.62117 
3 *485:24 *1303:B 11.1059 
4 *485:24 *1675:B 24.9627 
*END

*D_NET *486 0.00083918
*CONN
*I *1304:B1 I *D sky130_fd_sc_hd__o21ai_0
*I *1303:Y O *D sky130_fd_sc_hd__nand2_1
*CAP
1 *1304:B1 0.000270181
2 *1303:Y 0.000270181
3 *1304:B1 *2082:CLK 0.000102155
4 *1304:B1 *1123:20 0.000185452
5 *1303:B *1304:B1 4.17531e-06
6 *1675:B *1304:B1 7.0354e-06
7 *224:117 *1304:B1 0
*RES
1 *1303:Y *1304:B1 34.2062 
*END

*D_NET *487 0.000612804
*CONN
*I *1308:A2 I *D sky130_fd_sc_hd__a31oi_1
*I *1305:Y O *D sky130_fd_sc_hd__nand2_1
*CAP
1 *1308:A2 0.000179683
2 *1305:Y 0.000179683
3 *1308:A2 *763:33 0.000253437
*RES
1 *1305:Y *1308:A2 21.4401 
*END

*D_NET *488 0.000508073
*CONN
*I *1308:A3 I *D sky130_fd_sc_hd__a31oi_1
*I *1306:Y O *D sky130_fd_sc_hd__nand2_1
*CAP
1 *1308:A3 0.000105933
2 *1306:Y 0.000105933
3 *1308:A3 *1306:B 6.50727e-05
4 *1308:A3 *1893:A 7.09666e-06
5 *1308:A3 *1112:393 0.000107052
6 *436:94 *1308:A3 0.000116986
*RES
1 *1306:Y *1308:A3 30.4689 
*END

*D_NET *489 0.000236518
*CONN
*I *1308:B1 I *D sky130_fd_sc_hd__a31oi_1
*I *1307:Y O *D sky130_fd_sc_hd__nor2_1
*CAP
1 *1308:B1 5.59213e-05
2 *1307:Y 5.59213e-05
3 *1308:B1 *1308:A1 6.9865e-05
4 *1308:B1 *519:12 1.65872e-05
5 *1308:B1 *763:33 3.82228e-05
*RES
1 *1307:Y *1308:B1 20.355 
*END

*D_NET *490 0.0014974
*CONN
*I *1312:A2 I *D sky130_fd_sc_hd__a31oi_1
*I *1309:Y O *D sky130_fd_sc_hd__nand2_1
*CAP
1 *1312:A2 0.000545395
2 *1309:Y 0.000545395
3 *1312:A2 *1437:A 0.000112367
4 *1312:A2 *1439:A 0.000109427
5 *1312:A2 *2079:CLK 8.61485e-05
6 *1312:A2 *1112:274 5.03013e-06
7 *2079:D *1312:A2 1.63652e-05
8 *436:71 *1312:A2 2.83365e-05
9 *436:86 *1312:A2 4.89392e-05
*RES
1 *1309:Y *1312:A2 36.8483 
*END

*D_NET *491 0.000572881
*CONN
*I *1312:A3 I *D sky130_fd_sc_hd__a31oi_1
*I *1310:Y O *D sky130_fd_sc_hd__nand2_1
*CAP
1 *1312:A3 0.000111723
2 *1310:Y 0.000111723
3 *1312:A3 *1310:B 9.29777e-05
4 *1312:A3 *2000:RESET_B 3.87022e-06
5 *1312:A3 *506:16 0.000109427
6 *436:71 *1312:A3 0.000143161
*RES
1 *1310:Y *1312:A3 31.4388 
*END

*D_NET *492 0.000343249
*CONN
*I *1312:B1 I *D sky130_fd_sc_hd__a31oi_1
*I *1311:Y O *D sky130_fd_sc_hd__nor2_1
*CAP
1 *1312:B1 3.55359e-05
2 *1311:Y 3.55359e-05
3 *1312:B1 *1311:B 4.65954e-06
4 *1312:B1 *1312:A1 6.92766e-05
5 *1312:B1 *506:16 0.000168313
6 *1312:B1 *1107:240 2.99287e-05
*RES
1 *1311:Y *1312:B1 20.9096 
*END

*D_NET *493 0.000563067
*CONN
*I *1316:A2 I *D sky130_fd_sc_hd__a31oi_1
*I *1313:Y O *D sky130_fd_sc_hd__nand2_1
*CAP
1 *1316:A2 9.92833e-05
2 *1313:Y 9.92833e-05
3 *1316:A2 *1316:A1 3.5063e-05
4 *1316:A2 *1316:A3 4.03096e-05
5 *1316:A2 *1991:CLK 0.00012136
6 *1316:A2 *1109:422 0.000160478
7 *1991:D *1316:A2 7.28994e-06
*RES
1 *1313:Y *1316:A2 31.6023 
*END

*D_NET *494 0.000234008
*CONN
*I *1316:A3 I *D sky130_fd_sc_hd__a31oi_1
*I *1314:Y O *D sky130_fd_sc_hd__nand2_1
*CAP
1 *1316:A3 8.013e-05
2 *1314:Y 8.013e-05
3 *1316:A3 *1316:A1 1.15639e-05
4 *1316:A3 *1109:422 7.67734e-06
5 *1314:A *1316:A3 1.41976e-05
6 *1316:A2 *1316:A3 4.03096e-05
*RES
1 *1314:Y *1316:A3 20.9337 
*END

*D_NET *495 0.00108268
*CONN
*I *1316:B1 I *D sky130_fd_sc_hd__a31oi_1
*I *1315:Y O *D sky130_fd_sc_hd__nor2_1
*CAP
1 *1316:B1 0.000302353
2 *1315:Y 0.000302353
3 *1316:B1 *1315:B 0.000314502
4 *1316:B1 *1316:A1 0.000110596
5 *2078:D *1316:B1 5.28741e-05
*RES
1 *1315:Y *1316:B1 28.6741 
*END

*D_NET *496 0.0008087
*CONN
*I *1318:B I *D sky130_fd_sc_hd__nand2_1
*I *1447:A1 I *D sky130_fd_sc_hd__o21ai_0
*I *1317:Y O *D sky130_fd_sc_hd__inv_1
*CAP
1 *1318:B 0
2 *1447:A1 4.1646e-05
3 *1317:Y 0.000107709
4 *496:8 0.000149355
5 *1447:A1 *1447:B1 0.000157481
6 *1447:A1 *1109:159 0.000142037
7 *1447:A1 *1109:161 6.50586e-05
8 *1447:A1 *1109:174 7.32658e-06
9 *496:8 *1317:A 6.63843e-05
10 *496:8 *1447:B1 1.09551e-05
11 *496:8 *1109:159 6.07463e-05
*RES
1 *1317:Y *496:8 12.4924 
2 *496:8 *1447:A1 12.3839 
3 *496:8 *1318:B 9.24915 
*END

*D_NET *497 0.000882149
*CONN
*I *1319:B1 I *D sky130_fd_sc_hd__o21ai_0
*I *1318:Y O *D sky130_fd_sc_hd__nand2_1
*CAP
1 *1319:B1 0.0002511
2 *1318:Y 0.0002511
3 *1319:B1 *1317:A 0
4 *1319:B1 *1997:CLK 0
5 *1319:B1 *1109:151 0
6 *1319:B1 *1109:159 6.08467e-05
7 *1319:B1 *1110:344 2.41274e-06
8 *1319:A1 *1319:B1 0.00031669
*RES
1 *1318:Y *1319:B1 34.5143 
*END

*D_NET *498 0.00637433
*CONN
*I *1321:A2 I *D sky130_fd_sc_hd__a21oi_1
*I *1319:Y O *D sky130_fd_sc_hd__o21ai_0
*CAP
1 *1321:A2 0.00198214
2 *1319:Y 4.4253e-05
3 *498:10 0.00202639
4 *1321:A2 *1321:B1 2.30361e-05
5 *1321:A2 *1487:A 0.00183585
6 *1321:A2 *2001:RESET_B 0.000100397
7 *1321:A2 *2001:CLK 0.000145173
8 *1321:A2 *1040:12 0.000110458
9 *498:10 *1104:270 2.83365e-05
10 *498:10 *1110:344 7.26748e-05
11 *340:10 *1321:A2 5.62724e-06
*RES
1 *1319:Y *498:10 19.6659 
2 *498:10 *1321:A2 42.5736 
*END

*D_NET *499 0.00108221
*CONN
*I *1321:B1 I *D sky130_fd_sc_hd__a21oi_1
*I *1320:Y O *D sky130_fd_sc_hd__nor2_1
*CAP
1 *1321:B1 0.000107987
2 *1320:Y 0.000107987
3 *1321:B1 *1320:B 0.000263038
4 *1321:B1 *1040:12 6.09246e-05
5 *1321:A2 *1321:B1 2.30361e-05
6 *2044:D *1321:B1 1.4106e-05
7 *340:10 *1321:B1 0.000505126
*RES
1 *1320:Y *1321:B1 24.7918 
*END

*D_NET *500 0.00177533
*CONN
*I *1323:B I *D sky130_fd_sc_hd__nand2_1
*I *1449:A1 I *D sky130_fd_sc_hd__o21ai_0
*I *1322:Y O *D sky130_fd_sc_hd__inv_1
*CAP
1 *1323:B 3.60708e-05
2 *1449:A1 0.000372542
3 *1322:Y 0.000293916
4 *500:14 0.000702529
5 *1449:A1 *1392:S 2.59855e-05
6 *1449:A1 *1065:12 5.27944e-05
7 *1449:A1 *1109:356 3.13443e-07
8 *500:14 *1322:A 2.82123e-05
9 *500:14 *1324:A2 6.93171e-05
10 *500:14 *1324:B1 0.000186348
11 *500:14 *1109:356 4.39463e-06
12 *1323:A *1323:B 2.91008e-06
*RES
1 *1322:Y *500:14 23.6084 
2 *500:14 *1449:A1 25.118 
3 *500:14 *1323:B 10.2378 
*END

*D_NET *501 0.000517127
*CONN
*I *1324:B1 I *D sky130_fd_sc_hd__o21ai_0
*I *1323:Y O *D sky130_fd_sc_hd__nand2_1
*CAP
1 *1324:B1 8.89436e-05
2 *1323:Y 8.89436e-05
3 *1324:B1 *2030:CLK 3.13805e-06
4 *1323:A *1324:B1 8.40171e-05
5 *436:44 *1324:B1 6.57357e-05
6 *500:14 *1324:B1 0.000186348
*RES
1 *1323:Y *1324:B1 22.7663 
*END

*D_NET *502 0.00658969
*CONN
*I *1326:A2 I *D sky130_fd_sc_hd__a21oi_1
*I *1324:Y O *D sky130_fd_sc_hd__o21ai_0
*CAP
1 *1326:A2 0.00151564
2 *1324:Y 0.000567515
3 *502:14 0.00208316
4 *1326:A2 *1336:A 1.43848e-05
5 *1326:A2 *1339:A1 1.9503e-05
6 *1326:A2 *1339:A2 4.92912e-05
7 *1326:A2 *1339:A3 9.63981e-05
8 *1326:A2 *1339:B1 0.000116156
9 *1326:A2 *1425:B 7.56341e-06
10 *1326:A2 *1427:A 0.000120742
11 *1326:A2 *2075:RESET_B 1.77566e-05
12 *1326:A2 *1113:20 0
13 *1326:A2 *1122:38 2.73521e-05
14 *502:14 *1426:B 6.49003e-05
15 *502:14 *1427:A 6.92705e-05
16 *502:14 *1427:B 0.000419456
17 *502:14 *2021:CLK 0.000326398
18 *502:14 *684:16 0.000835893
19 *502:14 *1119:16 0
20 *2004:D *502:14 6.92705e-05
21 *2030:D *502:14 0.000169041
22 *2067:D *1326:A2 0
*RES
1 *1324:Y *502:14 38.0214 
2 *502:14 *1326:A2 42.71 
*END

*D_NET *503 0.000602976
*CONN
*I *1326:B1 I *D sky130_fd_sc_hd__a21oi_1
*I *1325:Y O *D sky130_fd_sc_hd__nor2_1
*CAP
1 *1326:B1 7.11622e-05
2 *1325:Y 7.11622e-05
3 *1326:B1 *1325:B 6.27332e-05
4 *1326:B1 *1107:292 8.82095e-05
5 *1326:B1 *1107:310 0.000309709
*RES
1 *1325:Y *1326:B1 22.5734 
*END

*D_NET *504 0.00140394
*CONN
*I *1328:B I *D sky130_fd_sc_hd__nand2_1
*I *1451:A1 I *D sky130_fd_sc_hd__o21ai_0
*I *1327:Y O *D sky130_fd_sc_hd__inv_1
*CAP
1 *1328:B 5.07754e-05
2 *1451:A1 0.000291698
3 *1327:Y 0
4 *504:4 0.000342474
5 *1328:B *685:14 0.000174592
6 *1451:A1 *1327:A 3.20544e-05
7 *1451:A1 *1450:A 7.71723e-05
8 *1451:A1 *1451:B1 6.55265e-05
9 *1451:A1 *685:14 0.000369644
*RES
1 *1327:Y *504:4 9.24915 
2 *504:4 *1451:A1 19.5334 
3 *504:4 *1328:B 11.3832 
*END

*D_NET *505 0.00057599
*CONN
*I *1329:B1 I *D sky130_fd_sc_hd__o21ai_0
*I *1328:Y O *D sky130_fd_sc_hd__nand2_1
*CAP
1 *1329:B1 0.000221742
2 *1328:Y 0.000221742
3 *1329:B1 *1329:A2 2.71397e-05
4 *1329:B1 *506:16 6.50586e-05
5 *1329:B1 *685:14 2.53985e-05
6 *1329:B1 *1104:350 0
7 *1328:A *1329:B1 7.69707e-06
8 *1329:A1 *1329:B1 7.21184e-06
*RES
1 *1328:Y *1329:B1 31.4416 
*END

*D_NET *506 0.00414407
*CONN
*I *1331:A2 I *D sky130_fd_sc_hd__a21oi_1
*I *1329:Y O *D sky130_fd_sc_hd__o21ai_0
*CAP
1 *1331:A2 0
2 *1329:Y 0.00128615
3 *506:16 0.00128615
4 *506:16 *1311:A 0.000289514
5 *506:16 *1312:A1 3.90325e-05
6 *506:16 *1330:A 1.47389e-05
7 *506:16 *1330:B 4.76161e-06
8 *506:16 *1331:B1 0.000144042
9 *506:16 *1437:B 9.86489e-05
10 *506:16 *1438:A 0.000165902
11 *506:16 *1438:B 1.3808e-05
12 *506:16 *1439:B 3.06533e-05
13 *506:16 *2000:RESET_B 2.23519e-05
14 *506:16 *2026:RESET_B 9.15567e-05
15 *506:16 *685:14 8.10032e-05
16 *506:16 *1104:344 6.50586e-05
17 *506:16 *1104:350 0.00011818
18 *506:16 *1107:240 9.54357e-06
19 *506:16 *1107:352 2.17834e-05
20 *506:16 *1107:359 1.83992e-05
21 *1312:A3 *506:16 0.000109427
22 *1312:B1 *506:16 0.000168313
23 *1329:B1 *506:16 6.50586e-05
*RES
1 *1329:Y *506:16 45.7324 
2 *506:16 *1331:A2 9.24915 
*END

*D_NET *507 0.0005906
*CONN
*I *1331:B1 I *D sky130_fd_sc_hd__a21oi_1
*I *1330:Y O *D sky130_fd_sc_hd__nor2_1
*CAP
1 *1331:B1 0.000178286
2 *1330:Y 0.000178286
3 *1331:B1 *1311:A 3.00174e-06
4 *1331:B1 *1330:B 4.29314e-06
5 *1331:B1 *2074:RESET_B 0
6 *1331:B1 *2074:CLK 0
7 *1331:B1 *1107:352 6.46815e-05
8 *1331:B1 *1107:359 7.28567e-06
9 *2074:D *1331:B1 1.07248e-05
10 *506:16 *1331:B1 0.000144042
*RES
1 *1330:Y *1331:B1 31.471 
*END

*D_NET *508 0.00114348
*CONN
*I *1335:A2 I *D sky130_fd_sc_hd__a31oi_1
*I *1332:Y O *D sky130_fd_sc_hd__nand2_1
*CAP
1 *1335:A2 0.000333385
2 *1332:Y 0.000333385
3 *442:16 *1335:A2 0.000476712
*RES
1 *1332:Y *1335:A2 24.2131 
*END

*D_NET *509 0.00024006
*CONN
*I *1335:A3 I *D sky130_fd_sc_hd__a31oi_1
*I *1333:Y O *D sky130_fd_sc_hd__nand2_1
*CAP
1 *1335:A3 7.54193e-05
2 *1333:Y 7.54193e-05
3 *1335:A3 *1335:A1 0
4 *1335:A3 *1335:B1 0
5 *1333:A *1335:A3 6.50727e-05
6 *442:16 *1335:A3 2.41483e-05
*RES
1 *1333:Y *1335:A3 20.9337 
*END

*D_NET *510 0.000179994
*CONN
*I *1335:B1 I *D sky130_fd_sc_hd__a31oi_1
*I *1334:Y O *D sky130_fd_sc_hd__nor2_1
*CAP
1 *1335:B1 6.87704e-05
2 *1334:Y 6.87704e-05
3 *1335:B1 *1335:A1 4.24529e-05
4 *1335:A3 *1335:B1 0
*RES
1 *1334:Y *1335:B1 20.355 
*END

*D_NET *511 0.000827471
*CONN
*I *1339:A2 I *D sky130_fd_sc_hd__a31oi_1
*I *1336:Y O *D sky130_fd_sc_hd__nand2_1
*CAP
1 *1339:A2 0.000172839
2 *1336:Y 0.000172839
3 *1339:A2 *1336:A 6.50586e-05
4 *1339:A2 *1339:A3 9.63981e-05
5 *1339:A2 *1425:B 0.000271044
6 *1326:A2 *1339:A2 4.92912e-05
*RES
1 *1336:Y *1339:A2 24.7677 
*END

*D_NET *512 0.000312827
*CONN
*I *1339:A3 I *D sky130_fd_sc_hd__a31oi_1
*I *1337:Y O *D sky130_fd_sc_hd__nand2_1
*CAP
1 *1339:A3 5.17759e-05
2 *1337:Y 5.17759e-05
3 *1339:A3 *1339:A1 1.64789e-05
4 *1326:A2 *1339:A3 9.63981e-05
5 *1339:A2 *1339:A3 9.63981e-05
*RES
1 *1337:Y *1339:A3 21.4642 
*END

*D_NET *513 0.000369177
*CONN
*I *1339:B1 I *D sky130_fd_sc_hd__a31oi_1
*I *1338:Y O *D sky130_fd_sc_hd__nor2_1
*CAP
1 *1339:B1 7.12123e-05
2 *1338:Y 7.12123e-05
3 *1339:B1 *1339:A1 0.000110596
4 *1326:A2 *1339:B1 0.000116156
*RES
1 *1338:Y *1339:B1 22.0188 
*END

*D_NET *514 0.000697882
*CONN
*I *1343:A2 I *D sky130_fd_sc_hd__a31oi_1
*I *1340:Y O *D sky130_fd_sc_hd__nand2_1
*CAP
1 *1343:A2 0.000263729
2 *1340:Y 0.000263729
3 *1343:A2 *1340:A 1.61631e-05
4 *1343:A2 *1343:A3 0.000118166
5 *1343:A2 *1073:16 1.00846e-05
6 *1343:A2 *1107:177 7.98425e-06
7 *1341:A *1343:A2 1.80257e-05
*RES
1 *1340:Y *1343:A2 22.5493 
*END

*D_NET *515 0.000244066
*CONN
*I *1343:A3 I *D sky130_fd_sc_hd__a31oi_1
*I *1341:Y O *D sky130_fd_sc_hd__nand2_1
*CAP
1 *1343:A3 4.05171e-05
2 *1341:Y 4.05171e-05
3 *1343:A3 *1340:A 0
4 *1343:A3 *1343:B1 0
5 *1343:A3 *1107:177 2.41274e-06
6 *1341:A *1343:A3 4.24529e-05
7 *1343:A2 *1343:A3 0.000118166
*RES
1 *1341:Y *1343:A3 20.355 
*END

*D_NET *516 0.000351509
*CONN
*I *1343:B1 I *D sky130_fd_sc_hd__a31oi_1
*I *1342:Y O *D sky130_fd_sc_hd__nor2_1
*CAP
1 *1343:B1 8.7737e-05
2 *1342:Y 8.7737e-05
3 *1343:B1 *1342:B 3.01683e-06
4 *1343:B1 *1107:184 7.22498e-05
5 *1343:B1 *1107:195 3.14978e-05
6 *1343:A3 *1343:B1 0
7 *2070:D *1343:B1 6.92705e-05
*RES
1 *1342:Y *1343:B1 21.4642 
*END

*D_NET *517 0.00190974
*CONN
*I *1456:A1 I *D sky130_fd_sc_hd__o21ai_0
*I *1346:A2 I *D sky130_fd_sc_hd__o21ai_0
*I *1344:Y O *D sky130_fd_sc_hd__inv_1
*CAP
1 *1456:A1 0.000269498
2 *1346:A2 0
3 *1344:Y 0.000346954
4 *517:12 0.000616452
5 *1456:A1 *1345:B 6.08467e-05
6 *1456:A1 *1346:A1 0.00011818
7 *1456:A1 *1455:A 4.06993e-05
8 *1456:A1 *1456:B1 1.19856e-05
9 *1456:A1 *1104:230 8.94429e-05
10 *1456:A1 *1109:123 6.50586e-05
11 *517:12 *674:18 0.000136722
12 *517:12 *1109:151 3.69148e-05
13 *517:12 *1110:352 0
14 *517:12 *1112:85 1.05272e-06
15 *1990:D *517:12 0
16 *1993:D *1456:A1 0.000115934
17 *2016:D *517:12 0
*RES
1 *1344:Y *517:12 25.3737 
2 *517:12 *1346:A2 9.24915 
3 *517:12 *1456:A1 17.2306 
*END

*D_NET *518 0.000579847
*CONN
*I *1346:B1 I *D sky130_fd_sc_hd__o21ai_0
*I *1345:Y O *D sky130_fd_sc_hd__nand2_1
*CAP
1 *1346:B1 0.00013685
2 *1345:Y 0.00013685
3 *1346:B1 *1104:230 0.000306147
*RES
1 *1345:Y *1346:B1 22.5734 
*END

*D_NET *519 0.00887409
*CONN
*I *1347:A1 I *D sky130_fd_sc_hd__mux2_1
*I *1668:A1 I *D sky130_fd_sc_hd__mux2_1
*I *1346:Y O *D sky130_fd_sc_hd__o21ai_0
*CAP
1 *1347:A1 0.00104605
2 *1668:A1 3.5247e-05
3 *1346:Y 6.58824e-05
4 *519:12 0.0031818
5 *519:10 0.00216639
6 *1347:A1 *1347:A0 0.000337031
7 *1347:A1 *1552:B2 5.12094e-05
8 *1347:A1 *2069:RESET_B 2.63639e-05
9 *1347:A1 *763:14 6.14949e-06
10 *1347:A1 *847:16 0
11 *1347:A1 *1137:12 1.79807e-05
12 *519:10 *1112:85 0
13 *519:12 *1307:A 5.67722e-05
14 *519:12 *1308:A1 0.000158357
15 *519:12 *2027:RESET_B 0.000237178
16 *519:12 *688:16 0.00109272
17 *519:12 *763:14 3.62662e-06
18 *519:12 *763:33 0.000103529
19 *1308:B1 *519:12 1.65872e-05
20 *1990:D *519:10 0
21 *2027:D *519:12 2.16355e-05
22 *224:38 *1347:A1 0.000249578
*RES
1 *1346:Y *519:10 19.6659 
2 *519:10 *519:12 33.9996 
3 *519:12 *1668:A1 10.2378 
4 *519:12 *1347:A1 37.5764 
*END

*D_NET *520 0.00170486
*CONN
*I *1458:A1 I *D sky130_fd_sc_hd__o21ai_0
*I *1350:A2 I *D sky130_fd_sc_hd__o21ai_0
*I *1348:Y O *D sky130_fd_sc_hd__inv_1
*CAP
1 *1458:A1 0
2 *1350:A2 0.000301541
3 *1348:Y 0.000181513
4 *520:8 0.000483054
5 *1350:A2 *1458:A2 0.000157495
6 *1350:A2 *1104:365 0.000260374
7 *1350:A2 *1109:376 0.000191541
8 *1350:A2 *1112:313 6.08467e-05
9 *520:8 *1348:A 5.90681e-05
10 *1992:D *520:8 9.43222e-06
*RES
1 *1348:Y *520:8 13.047 
2 *520:8 *1350:A2 27.5907 
3 *520:8 *1458:A1 9.24915 
*END

*D_NET *521 0.000712986
*CONN
*I *1350:B1 I *D sky130_fd_sc_hd__o21ai_0
*I *1349:Y O *D sky130_fd_sc_hd__nand2_1
*CAP
1 *1350:B1 0.000231633
2 *1349:Y 0.000231633
3 *1350:B1 *1458:B1 1.10375e-06
4 *1350:B1 *1104:365 6.50727e-05
5 *1350:B1 *1112:313 6.50586e-05
6 *1350:B1 *1119:12 0.000118485
7 *2025:D *1350:B1 0
*RES
1 *1349:Y *1350:B1 32.3015 
*END

*D_NET *522 0.00611853
*CONN
*I *1669:A1 I *D sky130_fd_sc_hd__mux2_1
*I *1351:A1 I *D sky130_fd_sc_hd__mux2_1
*I *1350:Y O *D sky130_fd_sc_hd__o21ai_0
*CAP
1 *1669:A1 0
2 *1351:A1 0.00030699
3 *1350:Y 0.00237604
4 *522:24 0.00268303
5 *1351:A1 *1351:A0 2.57986e-05
6 *1351:A1 *1107:310 7.74853e-06
7 *522:24 *1352:A 7.12632e-06
8 *522:24 *2501:A 0
9 *522:24 *2504:A 4.04556e-05
10 *522:24 *525:8 0.000120254
11 *522:24 *1119:12 1.05601e-05
12 *522:24 *1142:82 0.000225663
13 *522:24 *1142:86 0
14 *1670:S *1351:A1 0
15 *1670:S *522:24 0
16 *2046:D *522:24 5.39635e-06
17 *224:117 *1351:A1 0.000309468
*RES
1 *1350:Y *522:24 44.0174 
2 *522:24 *1351:A1 21.8422 
3 *522:24 *1669:A1 13.7491 
*END

*D_NET *523 0.000930282
*CONN
*I *1354:A2 I *D sky130_fd_sc_hd__o21ai_0
*I *1460:A1 I *D sky130_fd_sc_hd__o21ai_0
*I *1352:Y O *D sky130_fd_sc_hd__inv_1
*CAP
1 *1354:A2 1.0654e-05
2 *1460:A1 0.00015439
3 *1352:Y 7.8076e-05
4 *523:6 0.00024312
5 *1460:A1 *1353:A 2.99287e-05
6 *1460:A1 *1112:335 5.4109e-05
7 *1460:A1 *1112:348 7.28922e-05
8 *523:6 *1352:A 2.59857e-05
9 *523:6 *1353:A 1.88014e-05
10 *523:6 *525:8 0.000242324
*RES
1 *1352:Y *523:6 12.4683 
2 *523:6 *1460:A1 13.3243 
3 *523:6 *1354:A2 9.82786 
*END

*D_NET *524 0.000411117
*CONN
*I *1354:B1 I *D sky130_fd_sc_hd__o21ai_0
*I *1353:Y O *D sky130_fd_sc_hd__nand2_1
*CAP
1 *1354:B1 0.000140388
2 *1353:Y 0.000140388
3 *1354:B1 *1353:A 0.000108707
4 *1354:B1 *850:16 2.16355e-05
*RES
1 *1353:Y *1354:B1 30.4689 
*END

*D_NET *525 0.00678953
*CONN
*I *1670:A1 I *D sky130_fd_sc_hd__mux2_1
*I *1355:A1 I *D sky130_fd_sc_hd__mux2_1
*I *1354:Y O *D sky130_fd_sc_hd__o21ai_0
*CAP
1 *1670:A1 0.000450249
2 *1355:A1 0.00030444
3 *1354:Y 0.00150381
4 *525:8 0.0022585
5 *1355:A1 *1555:B2 0.000108746
6 *1355:A1 *2066:RESET_B 0.000146519
7 *1355:A1 *2124:D 0
8 *1355:A1 *837:12 0.000137827
9 *1355:A1 *1122:16 0.000217587
10 *1670:A1 *1670:A0 0.000261817
11 *1670:A1 *2118:D 0
12 *1670:A1 *2124:D 0
13 *1670:A1 *1122:16 8.62625e-06
14 *1670:A1 *1122:79 0.000109859
15 *1670:A1 *1122:90 0.000797986
16 *525:8 *1352:A 8.11974e-05
17 *525:8 *837:14 2.54062e-05
18 *1670:S *1670:A1 1.43848e-05
19 *522:24 *525:8 0.000120254
20 *523:6 *525:8 0.000242324
*RES
1 *1354:Y *525:8 36.6567 
2 *525:8 *1355:A1 24.7167 
3 *525:8 *1670:A1 30.8384 
*END

*D_NET *526 0.00178066
*CONN
*I *1357:A I *D sky130_fd_sc_hd__nand2_1
*I *1879:A1 I *D sky130_fd_sc_hd__a32oi_1
*I *1356:Y O *D sky130_fd_sc_hd__inv_1
*CAP
1 *1357:A 2.70396e-05
2 *1879:A1 0.000248925
3 *1356:Y 9.48767e-05
4 *526:8 0.000370841
5 *1357:A *749:10 1.19705e-05
6 *1879:A1 *1358:B 1.87125e-05
7 *1879:A1 *1878:B1 0
8 *1879:A1 *527:10 3.24207e-05
9 *1879:A1 *719:19 1.07248e-05
10 *1879:A1 *719:28 0.000271246
11 *526:8 *749:10 5.04829e-06
12 *1240:B2 *1879:A1 1.03594e-05
13 *1877:A *1879:A1 0.000119244
14 *1879:B1 *1879:A1 0.000319209
15 *1879:B2 *1879:A1 2.15266e-05
16 *424:10 *1879:A1 0.000218517
*RES
1 *1356:Y *526:8 11.3832 
2 *526:8 *1879:A1 29.6319 
3 *526:8 *1357:A 9.97254 
*END

*D_NET *527 0.00177688
*CONN
*I *1874:B I *D sky130_fd_sc_hd__xnor2_1
*I *1359:A I *D sky130_fd_sc_hd__xnor2_1
*I *1358:Y O *D sky130_fd_sc_hd__nand2_1
*CAP
1 *1874:B 2.9545e-05
2 *1359:A 5.5674e-05
3 *1358:Y 0.000478695
4 *527:10 0.000563914
5 *1359:A *1359:B 1.09551e-05
6 *1359:A *528:14 2.20702e-05
7 *1359:A *1086:29 6.23875e-05
8 *1359:A *1105:62 0.000217937
9 *1874:B *1105:62 0.00011818
10 *527:10 *1240:A1 6.3152e-05
11 *527:10 *1240:A2 1.79807e-05
12 *527:10 *2061:CLK 7.62627e-06
13 *527:10 *749:10 7.26606e-05
14 *527:10 *1086:10 2.36813e-05
15 *527:10 *1092:14 0
16 *527:10 *1139:10 0
17 *527:10 *1139:12 0
18 *527:10 *1139:14 0
19 *1240:B2 *527:10 0
20 *1879:A1 *527:10 3.24207e-05
*RES
1 *1358:Y *527:10 30.8777 
2 *527:10 *1359:A 12.2151 
3 *527:10 *1874:B 10.5271 
*END

*D_NET *528 0.00401103
*CONN
*I *1875:A I *D sky130_fd_sc_hd__nand2_1
*I *1879:A3 I *D sky130_fd_sc_hd__a32oi_1
*I *1360:B I *D sky130_fd_sc_hd__xor2_1
*I *1359:Y O *D sky130_fd_sc_hd__xnor2_1
*CAP
1 *1875:A 0
2 *1879:A3 0.000403139
3 *1360:B 6.33278e-05
4 *1359:Y 0.000299535
5 *528:27 0.000623896
6 *528:14 0.000583621
7 *1360:B *1360:A 6.4127e-05
8 *1360:B *1092:16 2.16355e-05
9 *1879:A3 *1239:A 0.000310067
10 *1879:A3 *1878:B1 5.41377e-05
11 *1879:A3 *1092:31 8.36586e-06
12 *528:14 *1086:29 0.000213725
13 *528:14 *1092:14 0.000130931
14 *528:14 *1092:16 4.56831e-05
15 *528:27 *2059:RESET_B 0
16 *528:27 *1092:14 5.68225e-06
17 *528:27 *1092:31 0.000318333
18 *1240:B2 *528:27 0
19 *1359:A *528:14 2.20702e-05
20 *1878:A2 *1879:A3 0.000200236
21 *2062:D *528:14 0.000127194
22 *2062:D *528:27 3.31733e-05
23 *2063:D *1879:A3 0.000164829
24 *364:8 *1879:A3 0.000317327
*RES
1 *1359:Y *528:14 25.2708 
2 *528:14 *1360:B 11.1059 
3 *528:14 *528:27 11.315 
4 *528:27 *1879:A3 28.6847 
5 *528:27 *1875:A 13.7491 
*END

*D_NET *529 0.00285199
*CONN
*I *1786:A2 I *D sky130_fd_sc_hd__o21ai_0
*I *1364:A1 I *D sky130_fd_sc_hd__o21ai_0
*I *1361:Y O *D sky130_fd_sc_hd__inv_1
*CAP
1 *1786:A2 0.000541765
2 *1364:A1 4.05373e-05
3 *1361:Y 0.000209991
4 *529:6 0.000792293
5 *1364:A1 *1363:B 2.53191e-05
6 *1364:A1 *530:14 5.39193e-05
7 *1786:A2 *1785:A 6.08467e-05
8 *1786:A2 *1872:A 0
9 *1786:A2 *2036:CLK 0
10 *1786:A2 *2049:CLK 5.9955e-05
11 *1786:A2 *1091:28 6.08467e-05
12 *1786:A2 *1110:727 5.36397e-05
13 *1786:A2 *1110:729 0.00012038
14 *1786:A2 *1110:731 6.00269e-05
15 *529:6 *1361:A 6.36709e-05
16 *529:6 *1363:B 0.00016386
17 *529:6 *1364:B1 2.30636e-05
18 *529:6 *1872:A 3.82887e-05
19 *1271:B1 *1786:A2 6.27782e-05
20 *1873:A1 *1786:A2 0.000151922
21 *1907:D *1786:A2 0.000155993
22 *2036:D *1786:A2 2.93144e-05
23 *2036:D *529:6 6.27718e-05
24 *456:10 *1786:A2 2.08133e-05
*RES
1 *1361:Y *529:6 15.2413 
2 *529:6 *1364:A1 10.5513 
3 *529:6 *1786:A2 36.1958 
*END

*D_NET *530 0.00115198
*CONN
*I *1364:A2 I *D sky130_fd_sc_hd__o21ai_0
*I *1363:B I *D sky130_fd_sc_hd__nand2_1
*I *1362:Y O *D sky130_fd_sc_hd__nor2_1
*CAP
1 *1364:A2 0
2 *1363:B 3.50943e-05
3 *1362:Y 0.000221987
4 *530:14 0.000257081
5 *1363:B *1364:B1 6.46815e-05
6 *1363:B *1872:A 3.91078e-05
7 *530:14 *1362:A 1.83992e-05
8 *530:14 *1872:A 0.00015589
9 *1362:B *530:14 3.13805e-06
10 *1364:A1 *1363:B 2.53191e-05
11 *1364:A1 *530:14 5.39193e-05
12 *1873:B1 *530:14 0.000110458
13 *462:28 *530:14 3.04755e-06
14 *529:6 *1363:B 0.00016386
*RES
1 *1362:Y *530:14 15.7597 
2 *530:14 *1363:B 11.6605 
3 *530:14 *1364:A2 9.24915 
*END

*D_NET *531 0.000231606
*CONN
*I *1364:B1 I *D sky130_fd_sc_hd__o21ai_0
*I *1363:Y O *D sky130_fd_sc_hd__nand2_1
*CAP
1 *1364:B1 1.47951e-05
2 *1363:Y 1.47951e-05
3 *1364:B1 *1872:A 0.000114271
4 *1363:B *1364:B1 6.46815e-05
5 *529:6 *1364:B1 2.30636e-05
*RES
1 *1363:Y *1364:B1 19.7763 
*END

*D_NET *532 0.00156987
*CONN
*I *1369:B I *D sky130_fd_sc_hd__nand2_1
*I *1367:A1 I *D sky130_fd_sc_hd__a21oi_2
*I *1365:Y O *D sky130_fd_sc_hd__inv_1
*CAP
1 *1369:B 0
2 *1367:A1 0.000224275
3 *1365:Y 0.000149711
4 *532:16 0.000373986
5 *1367:A1 *1866:A2 2.02035e-05
6 *1367:A1 *1866:B1 9.25659e-05
7 *1367:A1 *538:21 0
8 *1367:A1 *1139:81 0
9 *532:16 *1365:A 5.93083e-05
10 *532:16 *1369:A 0.000295351
11 *532:16 *1370:B 8.61197e-05
12 *532:16 *1866:B1 6.36477e-05
13 *532:16 *534:10 7.90101e-05
14 *1867:B *1367:A1 0.000125695
*RES
1 *1365:Y *532:16 15.9647 
2 *532:16 *1367:A1 24.2687 
3 *532:16 *1369:B 9.24915 
*END

*D_NET *533 0.00244724
*CONN
*I *1367:B1 I *D sky130_fd_sc_hd__a21oi_2
*I *1366:Y O *D sky130_fd_sc_hd__nand2_1
*CAP
1 *1367:B1 0
2 *1366:Y 0.000898329
3 *533:14 0.000898329
4 *533:14 *1366:A 0
5 *533:14 *1371:A 0.000126679
6 *533:14 *2063:RESET_B 0.000353316
7 *533:14 *1139:81 0.000170592
8 *1867:B *533:14 0
*RES
1 *1366:Y *533:14 43.6813 
2 *533:14 *1367:B1 9.24915 
*END

*D_NET *534 0.00174398
*CONN
*I *1370:A I *D sky130_fd_sc_hd__nand2_1
*I *1866:A2 I *D sky130_fd_sc_hd__o21ai_0
*I *1368:Y O *D sky130_fd_sc_hd__nand2_1
*CAP
1 *1370:A 0
2 *1866:A2 0.000487422
3 *1368:Y 0.000193351
4 *534:10 0.000680773
5 *1866:A2 *1369:A 2.14842e-06
6 *1866:A2 *1408:B 2.1558e-06
7 *1866:A2 *1104:121 1.07248e-05
8 *1866:A2 *1142:198 0
9 *534:10 *1365:A 0.000192077
10 *534:10 *1370:B 3.41459e-05
11 *534:10 *1086:29 2.16052e-05
12 *1367:A1 *1866:A2 2.02035e-05
13 *1368:A *534:10 1.61631e-05
14 *2058:D *1866:A2 4.20184e-06
15 *532:16 *534:10 7.90101e-05
*RES
1 *1368:Y *534:10 15.0122 
2 *534:10 *1866:A2 26.6352 
3 *534:10 *1370:A 9.24915 
*END

*D_NET *535 0.000728473
*CONN
*I *1370:B I *D sky130_fd_sc_hd__nand2_1
*I *1866:B1 I *D sky130_fd_sc_hd__o21ai_0
*I *1369:Y O *D sky130_fd_sc_hd__nand2_1
*CAP
1 *1370:B 0.000105785
2 *1866:B1 0.000120211
3 *1369:Y 0.000225997
4 *1367:A1 *1866:B1 9.25659e-05
5 *532:16 *1370:B 8.61197e-05
6 *532:16 *1866:B1 6.36477e-05
7 *534:10 *1370:B 3.41459e-05
*RES
1 *1369:Y *1866:B1 22.0188 
2 *1369:Y *1370:B 21.4883 
*END

*D_NET *536 0.000989934
*CONN
*I *1371:B I *D sky130_fd_sc_hd__xor2_1
*I *1370:Y O *D sky130_fd_sc_hd__nand2_1
*CAP
1 *1371:B 0.000231555
2 *1370:Y 0.000231555
3 *1371:B *1371:A 0.000335017
4 *1371:B *2063:RESET_B 1.22289e-05
5 *1371:B *1139:81 2.09707e-05
6 *2058:D *1371:B 0.000158607
*RES
1 *1370:Y *1371:B 36.8048 
*END

*D_NET *537 0.000815574
*CONN
*I *1374:A I *D sky130_fd_sc_hd__nor2_2
*I *1372:Y O *D sky130_fd_sc_hd__inv_1
*CAP
1 *1374:A 0.000149139
2 *1372:Y 0.000149139
3 *1374:A *1374:B 0
4 *1374:A *2486:A 0.000129485
5 *1374:A *1088:8 0.000349292
6 *1374:A *1104:8 3.8519e-05
*RES
1 *1372:Y *1374:A 33.9289 
*END

*D_NET *538 0.00197875
*CONN
*I *1408:B I *D sky130_fd_sc_hd__nor2_2
*I *1866:A1 I *D sky130_fd_sc_hd__o21ai_0
*I *1374:B I *D sky130_fd_sc_hd__nor2_2
*I *1373:Y O *D sky130_fd_sc_hd__inv_1
*CAP
1 *1408:B 0.000197661
2 *1866:A1 7.0356e-05
3 *1374:B 0.000203098
4 *1373:Y 2.18493e-05
5 *538:21 0.000425875
6 *538:8 0.000382806
7 *1374:B *1367:A2 7.69814e-05
8 *1374:B *2486:A 0
9 *1408:B *1372:A 3.21692e-05
10 *1408:B *1047:8 2.04806e-05
11 *1408:B *1088:25 0.000134645
12 *1408:B *1104:8 0.000158931
13 *1408:B *1104:121 7.60324e-05
14 *1866:A1 *1104:8 1.03434e-05
15 *1866:A1 *1104:121 6.50727e-05
16 *538:8 *1373:A 5.04829e-06
17 *538:8 *752:8 4.92098e-06
18 *538:21 *1367:A2 1.44611e-05
19 *538:21 *2486:A 0
20 *538:21 *1047:8 7.58595e-05
21 *1367:A1 *538:21 0
22 *1374:A *1374:B 0
23 *1866:A2 *1408:B 2.1558e-06
24 *1867:B *538:21 0
*RES
1 *1373:Y *538:8 14.1952 
2 *538:8 *1374:B 19.2141 
3 *538:8 *538:21 3.493 
4 *538:21 *1866:A1 15.6059 
5 *538:21 *1408:B 20.4896 
*END

*D_NET *539 0.000589318
*CONN
*I *2486:A I *D sky130_fd_sc_hd__buf_4
*I *1374:Y O *D sky130_fd_sc_hd__nor2_2
*CAP
1 *2486:A 0.000180479
2 *1374:Y 0.000180479
3 *2486:A *1047:8 8.71199e-05
4 *2486:A *1088:8 9.98029e-06
5 *2486:A *1088:25 1.77537e-06
6 *1374:A *2486:A 0.000129485
7 *1374:B *2486:A 0
8 *538:21 *2486:A 0
*RES
1 *1374:Y *2486:A 33.4828 
*END

*D_NET *541 0.000320985
*CONN
*I *1377:B1 I *D sky130_fd_sc_hd__o21ai_0
*I *1376:Y O *D sky130_fd_sc_hd__nand2_1
*CAP
1 *1377:B1 9.13255e-05
2 *1376:Y 9.13255e-05
3 *1377:B1 *667:14 0.000138334
*RES
1 *1376:Y *1377:B1 30.1608 
*END

*D_NET *542 0.000514047
*CONN
*I *1379:B1 I *D sky130_fd_sc_hd__o21ai_0
*I *1378:Y O *D sky130_fd_sc_hd__nand2_1
*CAP
1 *1379:B1 0.00010878
2 *1378:Y 0.00010878
3 *1379:B1 *1378:B 0.000146581
4 *1379:B1 *1412:B 1.19705e-05
5 *1379:B1 *667:14 0.000137936
*RES
1 *1378:Y *1379:B1 30.8842 
*END

*D_NET *543 0.000794414
*CONN
*I *1381:B1 I *D sky130_fd_sc_hd__o21ai_0
*I *1380:Y O *D sky130_fd_sc_hd__nand2_1
*CAP
1 *1381:B1 9.70721e-05
2 *1380:Y 9.70721e-05
3 *1381:B1 *1381:A2 0.00016195
4 *1381:B1 *1108:51 0.000423936
5 *2033:D *1381:B1 1.43832e-05
*RES
1 *1380:Y *1381:B1 23.1039 
*END

*D_NET *544 0.000198969
*CONN
*I *1403:B1 I *D sky130_fd_sc_hd__o21ai_0
*I *1402:Y O *D sky130_fd_sc_hd__nand2_1
*CAP
1 *1403:B1 1.36944e-05
2 *1402:Y 1.36944e-05
3 *1403:B1 *1402:A 0.000115934
4 *1403:A1 *1403:B1 5.56461e-05
*RES
1 *1402:Y *1403:B1 19.7763 
*END

*D_NET *545 0.00127658
*CONN
*I *1405:B1 I *D sky130_fd_sc_hd__o21ai_0
*I *1404:Y O *D sky130_fd_sc_hd__nand2_1
*CAP
1 *1405:B1 0.00031459
2 *1404:Y 0.00031459
3 *1405:B1 *1247:A 2.48716e-05
4 *1405:B1 *1104:131 3.63593e-05
5 *1405:B1 *1104:145 9.12416e-06
6 *1405:B1 *1104:172 0.000274309
7 *1405:B1 *1110:530 0.000130663
8 *1407:A1 *1405:B1 6.26533e-05
9 *1476:A1 *1405:B1 0.000109421
*RES
1 *1404:Y *1405:B1 35.653 
*END

*D_NET *546 0.000449246
*CONN
*I *1407:B1 I *D sky130_fd_sc_hd__o21ai_0
*I *1406:Y O *D sky130_fd_sc_hd__nand2_1
*CAP
1 *1407:B1 9.44399e-05
2 *1406:Y 9.44399e-05
3 *1407:B1 *1406:A 2.93744e-05
4 *1407:A1 *1407:B1 3.83281e-05
5 *2010:D *1407:B1 0.000169085
6 *468:12 *1407:B1 2.35793e-05
*RES
1 *1406:Y *1407:B1 22.0188 
*END

*D_NET *547 0.000436124
*CONN
*I *2491:A I *D sky130_fd_sc_hd__buf_4
*I *1408:Y O *D sky130_fd_sc_hd__nor2_2
*CAP
1 *2491:A 0.000218062
2 *1408:Y 0.000218062
3 *2491:A *1047:8 0
4 *2491:A *1088:8 0
5 *2491:A *1088:25 0
6 *2491:A *1110:613 0
*RES
1 *1408:Y *2491:A 32.2371 
*END

*D_NET *548 0.0275379
*CONN
*I *1440:A I *D sky130_fd_sc_hd__nand2_1
*I *1425:A I *D sky130_fd_sc_hd__nand2_1
*I *1437:A I *D sky130_fd_sc_hd__nand2_1
*I *1428:A I *D sky130_fd_sc_hd__nand2_1
*I *1431:A I *D sky130_fd_sc_hd__nand2_1
*I *1434:A I *D sky130_fd_sc_hd__nand2_1
*I *1860:A I *D sky130_fd_sc_hd__nand2_1
*I *1422:A I *D sky130_fd_sc_hd__nand2_1
*I *1419:A I *D sky130_fd_sc_hd__nand2_1
*I *1410:A I *D sky130_fd_sc_hd__nand2_1
*I *1414:A I *D sky130_fd_sc_hd__nand2_1
*I *1470:A I *D sky130_fd_sc_hd__nand2_1
*I *1409:Y O *D sky130_fd_sc_hd__inv_4
*CAP
1 *1440:A 0.000228346
2 *1425:A 0
3 *1437:A 0.000137199
4 *1428:A 2.01148e-05
5 *1431:A 3.67971e-05
6 *1434:A 0
7 *1860:A 0.000660615
8 *1422:A 0.000174429
9 *1419:A 0.000178046
10 *1410:A 1.03879e-05
11 *1414:A 6.69934e-05
12 *1470:A 0
13 *1409:Y 0.00083785
14 *548:102 0.00282538
15 *548:65 0.000703591
16 *548:52 0.00182901
17 *548:44 0.00187291
18 *548:40 0.00282058
19 *548:32 0.00109453
20 *548:24 0.00102689
21 *548:22 0.00141572
22 *548:12 0.00166014
23 *548:10 0.000577022
24 *548:6 0.00128213
25 *1410:A *1410:B 6.92705e-05
26 *1410:A *2010:CLK 1.19856e-05
27 *1414:A *1410:B 3.88949e-05
28 *1414:A *1413:A 0.000107496
29 *1414:A *2010:CLK 0
30 *1419:A *1419:B 2.65831e-05
31 *1419:A *1461:A 0
32 *1419:A *688:16 9.27177e-05
33 *1419:A *1112:157 0
34 *1422:A *2073:CLK 4.94e-06
35 *1422:A *1112:132 8.64054e-06
36 *1428:A *1428:B 4.87301e-05
37 *1431:A *1431:B 0.000114584
38 *1437:A *2079:CLK 5.04829e-06
39 *1437:A *1112:274 2.51852e-05
40 *1440:A *1440:B 2.36292e-05
41 *1440:A *1442:A 0.000258216
42 *1860:A *1263:B 0.00017419
43 *1860:A *1908:CLK 0
44 *1860:A *2494:A 0.000412594
45 *1860:A *1051:12 1.07248e-05
46 *1860:A *1110:904 0
47 *1860:A *1112:132 0.000114847
48 *548:6 *1441:B 0.000131494
49 *548:6 *1442:A 0.000307799
50 *548:6 *1442:B 0.000114271
51 *548:6 *684:20 8.859e-05
52 *548:6 *1109:348 4.78464e-05
53 *548:6 *1109:350 2.41274e-06
54 *548:6 *1109:403 9.67912e-06
55 *548:6 *1109:422 1.77588e-05
56 *548:10 *1336:B 0.00014705
57 *548:10 *2000:CLK 0
58 *548:10 *2004:RESET_B 3.70431e-05
59 *548:12 *1336:B 1.07248e-05
60 *548:12 *1437:B 2.91598e-05
61 *548:12 *2000:CLK 0
62 *548:12 *1112:282 7.52101e-05
63 *548:12 *1112:286 0
64 *548:22 *1437:B 1.37421e-05
65 *548:22 *2000:RESET_B 1.83257e-05
66 *548:22 *2029:RESET_B 0.000140512
67 *548:22 *2079:CLK 9.67231e-05
68 *548:22 *1073:16 5.88983e-05
69 *548:24 *2003:RESET_B 0
70 *548:24 *2003:CLK 0.000173161
71 *548:32 *1431:B 0.000130702
72 *548:32 *1434:B 3.91432e-05
73 *548:32 *1893:A 0.000579559
74 *548:32 *2001:CLK 6.09039e-05
75 *548:32 *2003:RESET_B 0
76 *548:32 *2076:CLK 6.3657e-05
77 *548:32 *1041:10 5.23577e-05
78 *548:32 *1071:10 6.28795e-05
79 *548:32 *1115:100 3.8626e-05
80 *548:40 *1305:B 5.20674e-05
81 *548:40 *1386:S 0
82 *548:40 *1387:A0 0.000149728
83 *548:40 *1434:B 1.41307e-05
84 *548:40 *1436:A 1.41976e-05
85 *548:40 *686:22 0
86 *548:40 *1115:16 0
87 *548:44 *2496:A 6.54077e-05
88 *548:44 *1142:173 1.98309e-05
89 *548:52 *1461:A 6.50727e-05
90 *548:52 *1470:B 2.90438e-05
91 *548:52 *691:22 0.000243224
92 *548:52 *1104:193 0.000120594
93 *548:52 *1104:212 0.000504087
94 *548:52 *1110:178 0.000265583
95 *548:52 *1110:180 0.00027707
96 *548:52 *1112:157 0
97 *548:65 *1257:A2 8.92568e-06
98 *548:65 *1283:A1 2.58696e-05
99 *548:65 *1288:A 7.86982e-05
100 *548:65 *1470:B 6.50586e-05
101 *548:65 *1108:19 7.50722e-05
102 *548:65 *1108:32 0.0003214
103 *548:65 *1108:47 0.000392233
104 *548:65 *1109:42 0
105 *548:65 *1112:31 0
106 *548:65 *1112:55 9.27017e-05
107 *548:65 *1112:103 0
108 *548:102 *1142:173 1.80842e-05
109 *1256:A *548:52 1.75637e-06
110 *1264:A2 *1860:A 9.98029e-06
111 *1283:B1 *548:65 7.25424e-05
112 *1312:A2 *1437:A 0.000112367
113 *1476:A1 *548:65 2.33548e-05
114 *1896:A2 *548:32 3.34802e-05
115 *1896:A3 *548:32 7.07271e-05
116 *1908:D *1860:A 0
117 *1984:D *548:65 1.35449e-05
118 *1990:D *548:52 9.90116e-05
119 *2003:D *548:24 0
120 *2004:D *548:10 0
121 *2027:D *1419:A 0.000118485
122 *2057:D *1422:A 0
123 *2073:D *1860:A 2.02035e-05
124 *436:71 *548:12 0
125 *436:86 *548:22 2.82673e-05
126 *436:88 *548:22 5.29898e-05
127 *436:88 *548:24 5.71312e-05
128 *436:88 *548:32 2.55661e-06
129 *436:94 *548:32 2.59819e-05
130 *436:126 *1860:A 1.96527e-05
131 *436:132 *1860:A 7.69146e-05
132 *436:249 *548:12 0
133 *462:16 *548:65 9.76854e-05
134 *480:8 *1428:A 0.000114584
135 *485:20 *548:22 3.34114e-05
*RES
1 *1409:Y *548:6 23.283 
2 *548:6 *548:10 10.4845 
3 *548:10 *548:12 9.30653 
4 *548:12 *548:22 31.3994 
5 *548:22 *548:24 6.81502 
6 *548:24 *548:32 27.7231 
7 *548:32 *548:40 15.6148 
8 *548:40 *548:44 4.56602 
9 *548:44 *548:52 31.9381 
10 *548:52 *1470:A 9.24915 
11 *548:52 *548:65 29.8265 
12 *548:65 *1414:A 11.6846 
13 *548:65 *1410:A 9.97254 
14 *548:44 *1419:A 18.5884 
15 *548:40 *548:102 3.97976 
16 *548:102 *1422:A 18.1529 
17 *548:102 *1860:A 34.4242 
18 *548:32 *1434:A 9.24915 
19 *548:24 *1431:A 15.0271 
20 *548:22 *1428:A 15.0271 
21 *548:12 *1437:A 16.9005 
22 *548:10 *1425:A 13.7491 
23 *548:6 *1440:A 13.7342 
*END

*D_NET *549 0.00119021
*CONN
*I *1413:A I *D sky130_fd_sc_hd__nand2_1
*I *1410:Y O *D sky130_fd_sc_hd__nand2_1
*CAP
1 *1413:A 0.000225678
2 *1410:Y 0.000225678
3 *1413:A *1413:B 4.65954e-06
4 *1413:A *1414:B 3.14978e-05
5 *1413:A *1416:A 0.000534349
6 *1413:A *2010:CLK 6.08467e-05
7 *1414:A *1413:A 0.000107496
*RES
1 *1410:Y *1413:A 26.8656 
*END

*D_NET *551 0.000758334
*CONN
*I *1413:B I *D sky130_fd_sc_hd__nand2_1
*I *1412:Y O *D sky130_fd_sc_hd__nand2_1
*CAP
1 *1413:B 0.00027805
2 *1412:Y 0.00027805
3 *1413:B *1280:A 0
4 *1413:B *1416:A 2.71303e-05
5 *1413:B *1416:B 4.99469e-05
6 *1413:B *1104:40 5.79027e-06
7 *1282:A *1413:B 0
8 *1413:A *1413:B 4.65954e-06
9 *2008:D *1413:B 0.000114708
10 *2009:D *1413:B 0
*RES
1 *1412:Y *1413:B 34.6512 
*END

*D_NET *552 0.00160055
*CONN
*I *1416:A I *D sky130_fd_sc_hd__nand2_1
*I *1414:Y O *D sky130_fd_sc_hd__nand2_1
*CAP
1 *1416:A 0.000510488
2 *1414:Y 0.000510488
3 *1416:A *1416:B 1.59756e-05
4 *1413:A *1416:A 0.000534349
5 *1413:B *1416:A 2.71303e-05
6 *2008:D *1416:A 2.11837e-06
*RES
1 *1414:Y *1416:A 27.8301 
*END

*D_NET *553 0.000620033
*CONN
*I *1416:B I *D sky130_fd_sc_hd__nand2_1
*I *1415:Y O *D sky130_fd_sc_hd__nand2_1
*CAP
1 *1416:B 0.000144222
2 *1415:Y 0.000144222
3 *1416:B *1280:A 8.52766e-05
4 *1282:C *1416:B 9.1084e-05
5 *1379:A1 *1416:B 8.93059e-05
6 *1413:B *1416:B 4.99469e-05
7 *1416:A *1416:B 1.59756e-05
*RES
1 *1415:Y *1416:B 24.2372 
*END

*D_NET *554 0.000210766
*CONN
*I *1418:B1 I *D sky130_fd_sc_hd__o21ai_0
*I *1417:Y O *D sky130_fd_sc_hd__nand2_1
*CAP
1 *1418:B1 2.94481e-05
2 *1417:Y 2.94481e-05
3 *1418:B1 *1418:A2 0.000109421
4 *1418:B1 *2033:CLK 4.24488e-05
*RES
1 *1417:Y *1418:B1 19.7763 
*END

*D_NET *555 0.00247067
*CONN
*I *1421:A I *D sky130_fd_sc_hd__nand2_1
*I *1419:Y O *D sky130_fd_sc_hd__nand2_1
*CAP
1 *1421:A 0.000465333
2 *1419:Y 0.000465333
3 *1421:A *1420:A 1.59362e-06
4 *1421:A *1461:A 0.000663372
5 *1421:A *1104:212 0.000184946
6 *1421:A *1104:442 0.000313495
7 *1990:D *1421:A 0
8 *2006:D *1421:A 0.000376597
*RES
1 *1419:Y *1421:A 43.208 
*END

*D_NET *556 0.000477098
*CONN
*I *1421:B I *D sky130_fd_sc_hd__nand2_1
*I *1420:Y O *D sky130_fd_sc_hd__nand2_1
*CAP
1 *1421:B 5.08568e-05
2 *1420:Y 5.08568e-05
3 *1421:B *1382:A1 4.37727e-05
4 *1421:B *1420:A 0.000114584
5 *2032:D *1421:B 0.000217028
*RES
1 *1420:Y *1421:B 21.4642 
*END

*D_NET *557 0.000180698
*CONN
*I *1424:A I *D sky130_fd_sc_hd__nand2_1
*I *1422:Y O *D sky130_fd_sc_hd__nand2_1
*CAP
1 *1424:A 6.19283e-05
2 *1422:Y 6.19283e-05
3 *1424:A *1422:B 4.04393e-05
4 *1424:A *1424:B 1.64026e-05
*RES
1 *1422:Y *1424:A 20.355 
*END

*D_NET *558 0.000336099
*CONN
*I *1424:B I *D sky130_fd_sc_hd__nand2_1
*I *1423:Y O *D sky130_fd_sc_hd__nand2_1
*CAP
1 *1424:B 6.18454e-05
2 *1423:Y 6.18454e-05
3 *1424:B *1423:B 0.000165459
4 *1424:B *1109:497 3.05464e-05
5 *1424:A *1424:B 1.64026e-05
*RES
1 *1423:Y *1424:B 20.9096 
*END

*D_NET *559 0.000407081
*CONN
*I *1427:A I *D sky130_fd_sc_hd__nand2_1
*I *1425:Y O *D sky130_fd_sc_hd__nand2_1
*CAP
1 *1427:A 9.10805e-05
2 *1425:Y 9.10805e-05
3 *1427:A *1425:B 1.84293e-05
4 *1427:A *1427:B 1.64789e-05
5 *1326:A2 *1427:A 0.000120742
6 *502:14 *1427:A 6.92705e-05
*RES
1 *1425:Y *1427:A 22.5734 
*END

*D_NET *560 0.000719456
*CONN
*I *1427:B I *D sky130_fd_sc_hd__nand2_1
*I *1426:Y O *D sky130_fd_sc_hd__nand2_1
*CAP
1 *1427:B 0.000141761
2 *1426:Y 0.000141761
3 *1427:A *1427:B 1.64789e-05
4 *502:14 *1427:B 0.000419456
*RES
1 *1426:Y *1427:B 23.6826 
*END

*D_NET *561 0.000272717
*CONN
*I *1430:A I *D sky130_fd_sc_hd__nand2_1
*I *1428:Y O *D sky130_fd_sc_hd__nand2_1
*CAP
1 *1430:A 5.8381e-05
2 *1428:Y 5.8381e-05
3 *1430:A *1428:B 6.3657e-05
4 *1430:A *1430:B 1.64789e-05
5 *480:8 *1430:A 7.58194e-05
*RES
1 *1428:Y *1430:A 20.9096 
*END

*D_NET *562 0.000417288
*CONN
*I *1430:B I *D sky130_fd_sc_hd__nand2_1
*I *1429:Y O *D sky130_fd_sc_hd__nand2_1
*CAP
1 *1430:B 0.0001416
2 *1429:Y 0.0001416
3 *1430:B *1109:289 9.7422e-05
4 *1430:A *1430:B 1.64789e-05
5 *480:8 *1430:B 2.01874e-05
*RES
1 *1429:Y *1430:B 21.7295 
*END

*D_NET *563 0.000534334
*CONN
*I *1433:A I *D sky130_fd_sc_hd__nand2_1
*I *1431:Y O *D sky130_fd_sc_hd__nand2_1
*CAP
1 *1433:A 0.000252202
2 *1431:Y 0.000252202
3 *1433:A *1431:B 2.99287e-05
*RES
1 *1431:Y *1433:A 24.2372 
*END

*D_NET *564 0.00078974
*CONN
*I *1433:B I *D sky130_fd_sc_hd__nand2_1
*I *1432:Y O *D sky130_fd_sc_hd__nand2_1
*CAP
1 *1433:B 0.000270885
2 *1432:Y 0.000270885
3 *1433:B *1109:295 5.26306e-05
4 *1433:B *1112:190 2.43971e-05
5 *1433:B *1112:203 3.15977e-05
6 *1834:B1 *1433:B 2.91831e-05
7 *2002:D *1433:B 9.29919e-05
8 *343:10 *1433:B 1.71698e-05
*RES
1 *1432:Y *1433:B 34.3456 
*END

*D_NET *565 0.000218643
*CONN
*I *1436:A I *D sky130_fd_sc_hd__nand2_1
*I *1434:Y O *D sky130_fd_sc_hd__nand2_1
*CAP
1 *1436:A 9.06199e-05
2 *1434:Y 9.06199e-05
3 *1436:A *1434:B 1.84443e-05
4 *1436:A *1436:B 4.76161e-06
5 *548:40 *1436:A 1.41976e-05
*RES
1 *1434:Y *1436:A 20.9337 
*END

*D_NET *566 0.000361858
*CONN
*I *1436:B I *D sky130_fd_sc_hd__nand2_1
*I *1435:Y O *D sky130_fd_sc_hd__nand2_1
*CAP
1 *1436:B 8.83893e-05
2 *1435:Y 8.83893e-05
3 *1436:B *1434:B 7.62098e-06
4 *1436:B *1435:A 0.000109421
5 *1436:A *1436:B 4.76161e-06
6 *2001:D *1436:B 6.32762e-05
*RES
1 *1435:Y *1436:B 21.4642 
*END

*D_NET *567 0.000548245
*CONN
*I *1439:A I *D sky130_fd_sc_hd__nand2_1
*I *1437:Y O *D sky130_fd_sc_hd__nand2_1
*CAP
1 *1439:A 0.000147461
2 *1437:Y 0.000147461
3 *1439:A *1309:B 7.93481e-05
4 *1439:A *2026:RESET_B 3.20433e-05
5 *1439:A *1112:274 3.25052e-05
6 *1312:A2 *1439:A 0.000109427
*RES
1 *1437:Y *1439:A 23.128 
*END

*D_NET *568 0.000534965
*CONN
*I *1439:B I *D sky130_fd_sc_hd__nand2_1
*I *1438:Y O *D sky130_fd_sc_hd__nand2_1
*CAP
1 *1439:B 0.000198122
2 *1438:Y 0.000198122
3 *1439:B *1438:A 4.17531e-06
4 *1439:B *2026:RESET_B 3.12323e-05
5 *2000:D *1439:B 7.26606e-05
6 *506:16 *1439:B 3.06533e-05
*RES
1 *1438:Y *1439:B 31.5781 
*END

*D_NET *569 0.00100139
*CONN
*I *1442:A I *D sky130_fd_sc_hd__nand2_1
*I *1440:Y O *D sky130_fd_sc_hd__nand2_1
*CAP
1 *1442:A 0.000130212
2 *1440:Y 0.000130212
3 *1442:A *1440:B 2.58757e-05
4 *1442:A *1442:B 1.63255e-05
5 *1442:A *1109:422 0.000132746
6 *1440:A *1442:A 0.000258216
7 *548:6 *1442:A 0.000307799
*RES
1 *1440:Y *1442:A 25.3464 
*END

*D_NET *570 0.000245756
*CONN
*I *1442:B I *D sky130_fd_sc_hd__nand2_1
*I *1441:Y O *D sky130_fd_sc_hd__nand2_1
*CAP
1 *1442:B 3.03723e-05
2 *1441:Y 3.03723e-05
3 *1442:B *1441:A 1.02267e-05
4 *1442:B *1109:403 3.00829e-05
5 *1442:B *1109:422 1.4106e-05
6 *1442:A *1442:B 1.63255e-05
7 *548:6 *1442:B 0.000114271
*RES
1 *1441:Y *1442:B 20.355 
*END

*D_NET *571 0.0017604
*CONN
*I *1445:A1 I *D sky130_fd_sc_hd__o21ai_0
*I *1889:B I *D sky130_fd_sc_hd__nand2_1
*I *1443:Y O *D sky130_fd_sc_hd__inv_1
*CAP
1 *1445:A1 0.000296386
2 *1889:B 1.71099e-05
3 *1443:Y 1.98627e-05
4 *571:6 0.000333358
5 *1445:A1 *1391:A0 0.000121681
6 *1445:A1 *1444:A 3.93092e-05
7 *1445:A1 *1445:B1 2.43806e-05
8 *1445:A1 *1890:A2 3.66984e-05
9 *1445:A1 *2202:A 2.94253e-05
10 *1445:A1 *679:10 0.000337744
11 *1445:A1 *683:22 0.000136381
12 *1445:A1 *1109:178 2.58616e-05
13 *1445:A1 *1118:14 0.000133015
14 *1889:B *1443:A 6.88088e-06
15 *571:6 *1391:A0 9.19075e-05
16 *571:6 *1443:A 1.94663e-05
17 *571:6 *1890:A2 1.17766e-05
18 *1889:A *1445:A1 6.3657e-05
19 *436:200 *1445:A1 1.55025e-05
*RES
1 *1443:Y *571:6 10.2498 
2 *571:6 *1889:B 9.82786 
3 *571:6 *1445:A1 30.5569 
*END

*D_NET *572 0.000593167
*CONN
*I *1445:B1 I *D sky130_fd_sc_hd__o21ai_0
*I *1444:Y O *D sky130_fd_sc_hd__nand2_1
*CAP
1 *1445:B1 9.38677e-05
2 *1444:Y 9.38677e-05
3 *1445:B1 *1444:A 0.000114271
4 *1445:B1 *679:10 1.04731e-05
5 *1445:B1 *1109:178 4.76794e-05
6 *1445:A1 *1445:B1 2.43806e-05
7 *1998:D *1445:B1 0.000208627
*RES
1 *1444:Y *1445:B1 22.4167 
*END

*D_NET *573 0.000497075
*CONN
*I *1447:B1 I *D sky130_fd_sc_hd__o21ai_0
*I *1446:Y O *D sky130_fd_sc_hd__nand2_1
*CAP
1 *1447:B1 8.80602e-05
2 *1446:Y 8.80602e-05
3 *1447:B1 *1109:161 1.67988e-05
4 *1447:B1 *1109:174 6.78596e-05
5 *1447:B1 *1118:14 6.78596e-05
6 *1447:A1 *1447:B1 0.000157481
7 *496:8 *1447:B1 1.09551e-05
*RES
1 *1446:Y *1447:B1 22.0188 
*END

*D_NET *574 0.000726511
*CONN
*I *1449:B1 I *D sky130_fd_sc_hd__o21ai_0
*I *1448:Y O *D sky130_fd_sc_hd__nand2_1
*CAP
1 *1449:B1 9.7451e-05
2 *1448:Y 9.7451e-05
3 *1449:B1 *1324:A2 6.28701e-05
4 *1449:B1 *1392:A0 0.000208621
5 *1449:B1 *1392:S 7.01935e-06
6 *1449:B1 *1448:A 9.34905e-05
7 *1449:B1 *1065:12 5.0187e-05
8 *1449:B1 *1109:356 0.000109421
*RES
1 *1448:Y *1449:B1 31.4416 
*END

*D_NET *575 0.000547688
*CONN
*I *1451:B1 I *D sky130_fd_sc_hd__o21ai_0
*I *1450:Y O *D sky130_fd_sc_hd__nand2_1
*CAP
1 *1451:B1 7.01859e-05
2 *1450:Y 7.01859e-05
3 *1451:B1 *1450:A 1.98846e-05
4 *1451:B1 *685:14 0.000321905
5 *1451:A1 *1451:B1 6.55265e-05
*RES
1 *1450:Y *1451:B1 21.9947 
*END

*D_NET *576 0.00236003
*CONN
*I *1834:A2 I *D sky130_fd_sc_hd__o21ai_0
*I *1454:A1 I *D sky130_fd_sc_hd__o21ai_0
*I *1452:Y O *D sky130_fd_sc_hd__inv_1
*CAP
1 *1834:A2 4.00911e-05
2 *1454:A1 0.000636317
3 *1452:Y 2.25415e-05
4 *576:6 0.00069895
5 *1454:A1 *1394:A0 0.000228921
6 *1454:A1 *1454:A2 9.95922e-06
7 *1454:A1 *1109:250 3.00829e-05
8 *1454:A1 *1109:263 0.000182095
9 *1454:A1 *1112:190 5.17747e-05
10 *1454:A1 *1112:203 2.81104e-05
11 *1454:A1 *1117:8 1.03403e-05
12 *1454:A1 *1117:10 0.000184837
13 *1454:A1 *1117:12 0.000166735
14 *1834:A2 *1834:A1 6.92705e-05
*RES
1 *1452:Y *576:6 9.69524 
2 *576:6 *1454:A1 36.6573 
3 *576:6 *1834:A2 10.5271 
*END

*D_NET *577 0.00122008
*CONN
*I *1454:B1 I *D sky130_fd_sc_hd__o21ai_0
*I *1453:Y O *D sky130_fd_sc_hd__nand2_1
*CAP
1 *1454:B1 0.000537745
2 *1453:Y 0.000537745
3 *1454:B1 *1394:A0 0
4 *1454:B1 *1994:CLK 1.92369e-05
5 *1454:B1 *1109:159 9.18559e-06
6 *1454:B1 *1109:250 0
7 *1454:B1 *1109:263 1.74385e-05
8 *1454:B1 *1110:226 0
9 *1994:D *1454:B1 9.8732e-05
*RES
1 *1453:Y *1454:B1 37.5338 
*END

*D_NET *578 0.00053877
*CONN
*I *1456:B1 I *D sky130_fd_sc_hd__o21ai_0
*I *1455:Y O *D sky130_fd_sc_hd__nand2_1
*CAP
1 *1456:B1 8.97733e-05
2 *1455:Y 8.97733e-05
3 *1456:B1 *1455:A 0.000116528
4 *1456:B1 *1104:230 0.000211492
5 *1456:B1 *1109:123 1.92172e-05
6 *1456:A1 *1456:B1 1.19856e-05
*RES
1 *1455:Y *1456:B1 22.0188 
*END

*D_NET *579 0.000991778
*CONN
*I *1458:B1 I *D sky130_fd_sc_hd__o21ai_0
*I *1457:Y O *D sky130_fd_sc_hd__nand2_1
*CAP
1 *1458:B1 0.000366314
2 *1457:Y 0.000366314
3 *1458:B1 *1349:B 1.19856e-05
4 *1458:B1 *1457:A 0.000136559
5 *1458:B1 *1458:A2 4.86366e-05
6 *1458:B1 *1119:10 6.08656e-05
7 *1350:B1 *1458:B1 1.10375e-06
*RES
1 *1457:Y *1458:B1 34.7664 
*END

*D_NET *580 0.000711857
*CONN
*I *1460:B1 I *D sky130_fd_sc_hd__o21ai_0
*I *1459:Y O *D sky130_fd_sc_hd__nand2_1
*CAP
1 *1460:B1 0.000276509
2 *1459:Y 0.000276509
3 *1460:B1 *1353:A 0
4 *1460:B1 *1459:A 5.04734e-05
5 *1460:B1 *850:16 0.000103139
6 *1460:B1 *1109:422 5.22654e-06
*RES
1 *1459:Y *1460:B1 32.6874 
*END

*D_NET *581 0.0013471
*CONN
*I *1830:A2 I *D sky130_fd_sc_hd__o21ai_0
*I *1463:A1 I *D sky130_fd_sc_hd__o21ai_0
*I *1461:Y O *D sky130_fd_sc_hd__inv_1
*CAP
1 *1830:A2 0.000139203
2 *1463:A1 0.00038934
3 *1461:Y 0
4 *581:4 0.000528543
5 *1463:A1 *1461:A 1.13587e-05
6 *1463:A1 *1462:A 6.9116e-05
7 *1463:A1 *1463:B1 0.000111352
8 *1463:A1 *1109:147 3.13805e-06
9 *1463:A1 *1109:442 3.00829e-05
10 *1830:A2 *1398:A0 6.49659e-05
*RES
1 *1461:Y *581:4 9.24915 
2 *581:4 *1463:A1 18.593 
3 *581:4 *1830:A2 21.9123 
*END

*D_NET *582 0.000221429
*CONN
*I *1463:B1 I *D sky130_fd_sc_hd__o21ai_0
*I *1462:Y O *D sky130_fd_sc_hd__nand2_1
*CAP
1 *1463:B1 2.36211e-05
2 *1462:Y 2.36211e-05
3 *1463:B1 *1462:A 6.2835e-05
4 *1463:A1 *1463:B1 0.000111352
*RES
1 *1462:Y *1463:B1 19.7763 
*END

*D_NET *583 0.000425466
*CONN
*I *1465:B1 I *D sky130_fd_sc_hd__o21ai_0
*I *1464:Y O *D sky130_fd_sc_hd__nand2_1
*CAP
1 *1465:B1 0.00012498
2 *1464:Y 0.00012498
3 *1465:B1 *686:16 6.08467e-05
4 *1465:B1 *1109:108 0.000114659
*RES
1 *1464:Y *1465:B1 30.4689 
*END

*D_NET *584 0.000596155
*CONN
*I *1467:B1 I *D sky130_fd_sc_hd__o21ai_0
*I *1466:Y O *D sky130_fd_sc_hd__nand2_1
*CAP
1 *1467:B1 0.000248085
2 *1466:Y 0.000248085
3 *1467:B1 *1466:A 2.65667e-05
4 *1467:B1 *1109:263 1.41215e-05
5 *1467:B1 *1109:272 4.5539e-05
6 *1467:B1 *1109:289 1.37563e-05
*RES
1 *1466:Y *1467:B1 31.9934 
*END

*D_NET *585 0.00121362
*CONN
*I *1469:B1 I *D sky130_fd_sc_hd__o21ai_0
*I *1468:Y O *D sky130_fd_sc_hd__nand2_1
*CAP
1 *1469:B1 0.000241873
2 *1468:Y 0.000241873
3 *1469:B1 *1469:A2 0.000572471
4 *1469:A1 *1469:B1 4.56831e-05
5 *1987:D *1469:B1 0.000111722
*RES
1 *1468:Y *1469:B1 26.4556 
*END

*D_NET *586 0.000666188
*CONN
*I *1472:A I *D sky130_fd_sc_hd__nand2_1
*I *1470:Y O *D sky130_fd_sc_hd__nand2_1
*CAP
1 *1472:A 0.000222422
2 *1470:Y 0.000222422
3 *1472:A *1470:B 6.50727e-05
4 *1472:A *1472:B 1.59756e-05
5 *1256:A *1472:A 0.000132946
6 *1986:D *1472:A 7.34948e-06
*RES
1 *1470:Y *1472:A 25.3464 
*END

*D_NET *587 0.000506482
*CONN
*I *1472:B I *D sky130_fd_sc_hd__nand2_1
*I *1471:Y O *D sky130_fd_sc_hd__nand2_1
*CAP
1 *1472:B 0.000149207
2 *1471:Y 0.000149207
3 *1472:B *1255:A 3.20984e-05
4 *1472:B *1471:A 6.50586e-05
5 *1256:A *1472:B 3.13319e-05
6 *1403:A1 *1472:B 6.3604e-05
7 *1472:A *1472:B 1.59756e-05
*RES
1 *1471:Y *1472:B 23.128 
*END

*D_NET *588 0.000559862
*CONN
*I *1474:B1 I *D sky130_fd_sc_hd__o21ai_0
*I *1473:Y O *D sky130_fd_sc_hd__nand2_1
*CAP
1 *1474:B1 0.00018283
2 *1473:Y 0.00018283
3 *1474:B1 *1109:486 1.27122e-05
4 *1474:B1 *1109:497 2.20471e-05
5 *1474:A1 *1474:B1 9.01717e-05
6 *1985:D *1474:B1 6.92705e-05
*RES
1 *1473:Y *1474:B1 23.5138 
*END

*D_NET *589 0.000272333
*CONN
*I *1476:B1 I *D sky130_fd_sc_hd__o21ai_0
*I *1475:Y O *D sky130_fd_sc_hd__nand2_1
*CAP
1 *1476:B1 0.00011441
2 *1475:Y 0.00011441
3 *1476:A1 *1476:B1 4.35135e-05
*RES
1 *1475:Y *1476:B1 20.6805 
*END

*D_NET *590 0.00220505
*CONN
*I *1853:B I *D sky130_fd_sc_hd__xor2_1
*I *1480:A I *D sky130_fd_sc_hd__xnor2_1
*I *1477:Y O *D sky130_fd_sc_hd__nand2_1
*CAP
1 *1853:B 0.000363142
2 *1480:A 5.21001e-05
3 *1477:Y 0.000261597
4 *590:8 0.000676839
5 *1480:A *592:21 3.00829e-05
6 *1480:A *592:38 3.82887e-05
7 *1480:A *593:6 4.47179e-05
8 *1480:A *593:10 4.89251e-05
9 *1853:B *2106:CLK 8.62474e-06
10 *1853:B *733:12 0
11 *1853:B *839:38 0.000364631
12 *590:8 *1857:A2 2.12377e-05
13 *590:8 *1857:A3 0.000154568
14 *590:8 *2106:CLK 0.000140293
15 *1208:A *590:8 0
*RES
1 *1477:Y *590:8 22.6404 
2 *590:8 *1480:A 16.1364 
3 *590:8 *1853:B 23.8862 
*END

*D_NET *591 0.00105292
*CONN
*I *1479:A2 I *D sky130_fd_sc_hd__a21oi_2
*I *1478:Y O *D sky130_fd_sc_hd__inv_1
*CAP
1 *1479:A2 0.000421107
2 *1478:Y 0.000421107
3 *1479:A2 *2054:RESET_B 0
4 *1643:B1 *1479:A2 9.75356e-05
5 *1883:B1 *1479:A2 0.000113165
*RES
1 *1478:Y *1479:A2 37.5408 
*END

*D_NET *592 0.00834894
*CONN
*I *1483:A I *D sky130_fd_sc_hd__inv_2
*I *1858:B I *D sky130_fd_sc_hd__nor2_1
*I *1480:B I *D sky130_fd_sc_hd__xnor2_1
*I *1841:B I *D sky130_fd_sc_hd__xor2_1
*I *1479:Y O *D sky130_fd_sc_hd__a21oi_2
*CAP
1 *1483:A 6.26504e-05
2 *1858:B 0
3 *1480:B 2.12792e-05
4 *1841:B 8.80472e-05
5 *1479:Y 7.25971e-05
6 *592:38 0.0025243
7 *592:21 0.00285527
8 *592:10 0.00053299
9 *1483:A *1858:A 4.72592e-05
10 *1483:A *1027:26 3.01683e-06
11 *592:21 *1481:A 2.30636e-05
12 *592:21 *1481:B 0.000211313
13 *592:21 *593:10 1.47964e-05
14 *592:38 *1482:A 0
15 *592:38 *1484:A 0
16 *592:38 *1796:A 1.32814e-05
17 *592:38 *1803:A 5.63099e-06
18 *592:38 *2101:D 9.44631e-06
19 *592:38 *2101:RESET_B 1.83257e-05
20 *592:38 *2106:CLK 6.55265e-05
21 *592:38 *893:14 0.000264612
22 *592:38 *899:10 6.08467e-05
23 *592:38 *1134:64 1.26726e-05
24 *592:38 *1134:66 4.81101e-05
25 *592:38 *1134:83 0.000297
26 *1480:A *592:21 3.00829e-05
27 *1480:A *592:38 3.82887e-05
28 *1801:A *592:38 1.44836e-06
29 *1859:A *1483:A 7.97944e-05
30 *2049:D *1841:B 0.00016386
31 *2054:D *592:21 0.000659059
32 *320:10 *592:38 1.5115e-06
33 *422:10 *592:10 0.000122858
*RES
1 *1479:Y *592:10 20.4964 
2 *592:10 *1841:B 12.2151 
3 *592:10 *592:21 12.3701 
4 *592:21 *1480:B 9.82786 
5 *592:21 *592:38 48.593 
6 *592:38 *1858:B 9.24915 
7 *592:38 *1483:A 12.2392 
*END

*D_NET *593 0.0022094
*CONN
*I *1857:A3 I *D sky130_fd_sc_hd__a31oi_1
*I *1481:B I *D sky130_fd_sc_hd__xor2_1
*I *1854:A I *D sky130_fd_sc_hd__nand2_1
*I *1480:Y O *D sky130_fd_sc_hd__xnor2_1
*CAP
1 *1857:A3 0.000285191
2 *1481:B 0.000110884
3 *1854:A 0.000129322
4 *1480:Y 7.27951e-05
5 *593:10 0.000388793
6 *593:6 0.000506573
7 *1481:B *1481:A 6.27718e-05
8 *1481:B *1025:10 5.46384e-06
9 *1481:B *1025:16 1.35317e-05
10 *1854:A *1025:16 3.30578e-05
11 *1208:A *1857:A3 3.14544e-05
12 *1480:A *593:6 4.47179e-05
13 *1480:A *593:10 4.89251e-05
14 *1855:B *1857:A3 0
15 *1857:B1 *1857:A3 9.52473e-05
16 *590:8 *1857:A3 0.000154568
17 *592:21 *1481:B 0.000211313
18 *592:21 *593:10 1.47964e-05
*RES
1 *1480:Y *593:6 10.5271 
2 *593:6 *593:10 6.88721 
3 *593:10 *1854:A 17.2744 
4 *593:10 *1481:B 17.5531 
5 *593:6 *1857:A3 26.5056 
*END

*D_NET *594 0.000665098
*CONN
*I *1484:A I *D sky130_fd_sc_hd__nor2_4
*I *1482:Y O *D sky130_fd_sc_hd__inv_1
*CAP
1 *1484:A 0.000247939
2 *1482:Y 0.000247939
3 *1484:A *1482:A 0.000101133
4 *1484:A *1587:A 0
5 *1484:A *1133:16 0
6 *1859:A *1484:A 6.80864e-05
7 *1913:D *1484:A 0
8 *592:38 *1484:A 0
*RES
1 *1482:Y *1484:A 33.9289 
*END

*D_NET *595 0.000899349
*CONN
*I *1587:B I *D sky130_fd_sc_hd__nor2_4
*I *1484:B I *D sky130_fd_sc_hd__nor2_4
*I *1483:Y O *D sky130_fd_sc_hd__inv_2
*CAP
1 *1587:B 0
2 *1484:B 0.000148882
3 *1483:Y 0.000194634
4 *595:8 0.000343516
5 *1484:B *1587:A 0.000104733
6 *1484:B *1133:16 0
7 *595:8 *1858:A 5.04829e-06
8 *595:8 *1027:26 4.31703e-05
9 *1588:B *1484:B 5.93657e-05
*RES
1 *1483:Y *595:8 13.8789 
2 *595:8 *1484:B 22.8808 
3 *595:8 *1587:B 9.24915 
*END

*D_NET *596 0.00144357
*CONN
*I *1486:A I *D sky130_fd_sc_hd__clkinv_4
*I *1485:B I *D sky130_fd_sc_hd__nand2_4
*I *1859:B I *D sky130_fd_sc_hd__nor2_1
*I *1484:Y O *D sky130_fd_sc_hd__nor2_4
*CAP
1 *1486:A 0.000176401
2 *1485:B 0
3 *1859:B 0.000132882
4 *1484:Y 0
5 *596:21 0.000508296
6 *596:4 0.000464777
7 *1486:A *598:493 6.27718e-05
8 *596:21 *1587:A 2.91752e-05
9 *2056:D *1859:B 6.92705e-05
10 *2056:D *596:21 0
*RES
1 *1484:Y *596:4 9.24915 
2 *596:4 *1859:B 12.7938 
3 *596:4 *596:21 11.7625 
4 *596:21 *1485:B 13.7491 
5 *596:21 *1486:A 18.1049 
*END

*D_NET *597 0.0152285
*CONN
*I *1503:A I *D sky130_fd_sc_hd__nand2_1
*I *1507:A I *D sky130_fd_sc_hd__nand2_1
*I *1499:A I *D sky130_fd_sc_hd__nand2_1
*I *1505:A I *D sky130_fd_sc_hd__nand2_1
*I *1495:A I *D sky130_fd_sc_hd__nand2_1
*I *1501:A I *D sky130_fd_sc_hd__nand2_1
*I *1489:A I *D sky130_fd_sc_hd__nand2_1
*I *1509:A I *D sky130_fd_sc_hd__nand2_1
*I *1491:A I *D sky130_fd_sc_hd__nand2_1
*I *1493:A I *D sky130_fd_sc_hd__nand2_1
*I *1497:A I *D sky130_fd_sc_hd__nand2_1
*I *1852:A I *D sky130_fd_sc_hd__nand2_1
*I *1850:A I *D sky130_fd_sc_hd__nand2_1
*I *1485:Y O *D sky130_fd_sc_hd__nand2_4
*CAP
1 *1503:A 6.48964e-05
2 *1507:A 0.000192216
3 *1499:A 0
4 *1505:A 0.00012449
5 *1495:A 0.000566036
6 *1501:A 8.51274e-05
7 *1489:A 4.6898e-05
8 *1509:A 0
9 *1491:A 0.000128834
10 *1493:A 0
11 *1497:A 0
12 *1852:A 0.000143237
13 *1850:A 0.000187891
14 *1485:Y 0.000432478
15 *597:146 0.000937056
16 *597:129 0.000993701
17 *597:112 0.00102286
18 *597:99 0.00109362
19 *597:95 0.000803743
20 *597:86 0.000358524
21 *597:75 0.000587027
22 *597:62 0.000571306
23 *597:53 0.000416604
24 *597:40 0.000625365
25 *597:14 0.000421733
26 *597:10 0.000836106
27 *1489:A *1489:B 2.85139e-05
28 *1491:A *1491:B 5.96679e-05
29 *1495:A *2170:A 3.18904e-05
30 *1501:A *1500:B 9.9774e-06
31 *1501:A *1501:B 1.08142e-05
32 *1503:A *1488:B 3.41459e-05
33 *1503:A *1489:B 6.90268e-06
34 *1503:A *1503:B 4.58883e-05
35 *1505:A *1185:B 3.60363e-05
36 *1505:A *1505:B 5.75336e-05
37 *1507:A *1182:A 3.74935e-05
38 *1507:A *1507:B 0.000262481
39 *1507:A *598:651 0.000275322
40 *1507:A *1127:27 0
41 *1850:A *2056:RESET_B 0.000110306
42 *597:40 *598:499 0.000362216
43 *597:40 *1133:10 0
44 *597:53 *1496:A 1.61631e-05
45 *597:53 *1497:B 8.55206e-05
46 *597:53 *1982:CLK 0.000324944
47 *597:53 *2515:A 0.000556406
48 *597:53 *598:499 9.35753e-06
49 *597:53 *598:514 0
50 *597:62 *2515:A 0.000188074
51 *597:75 *2515:A 0.000190349
52 *597:75 *1113:559 5.7545e-05
53 *597:75 *1132:10 0
54 *597:75 *1143:85 2.02035e-05
55 *597:86 *1983:RESET_B 0.000101355
56 *597:86 *1113:559 4.90082e-05
57 *597:95 *1489:B 4.81849e-05
58 *597:99 *1929:RESET_B 0.000210172
59 *597:99 *1942:CLK 0
60 *597:99 *1976:RESET_B 6.38014e-05
61 *597:99 *1983:RESET_B 5.72478e-05
62 *597:99 *598:582 0
63 *597:99 *1018:10 0
64 *597:112 *1975:RESET_B 0
65 *597:112 *598:582 0
66 *597:112 *598:599 0
67 *597:112 *727:20 0
68 *597:146 *1111:582 0
69 *597:146 *1111:595 0
70 *597:146 *1127:33 0
71 *597:146 *1127:71 0
72 *1588:A *597:10 3.57698e-05
73 *1588:B *597:10 4.24629e-05
74 *1680:A *597:86 0
75 *1746:A *1495:A 9.44631e-06
76 *1850:B *1850:A 0.000107496
77 *1852:B *1852:A 2.99287e-05
78 *1910:D *1850:A 0.000134976
79 *1975:D *1505:A 2.55108e-05
80 *1976:D *1503:A 0.000114594
81 *1976:D *597:95 6.22703e-05
82 *1976:D *597:99 6.88045e-05
83 *1977:D *1501:A 1.78942e-05
84 *1978:D *597:146 9.78191e-05
85 *1979:D *597:53 7.87336e-05
86 *1981:D *597:75 0.000140516
87 *1981:D *597:86 4.54854e-05
88 *1982:D *597:62 0
89 *183:39 *1852:A 2.99287e-05
90 *183:39 *597:10 0.00016195
91 *184:10 *1850:A 1.59966e-05
92 *458:148 *597:10 2.16355e-05
*RES
1 *1485:Y *597:10 21.0072 
2 *597:10 *597:14 1.73429 
3 *597:14 *1850:A 18.9354 
4 *597:14 *1852:A 16.329 
5 *597:10 *597:40 13.3913 
6 *597:40 *1497:A 9.24915 
7 *597:40 *597:53 17.603 
8 *597:53 *1493:A 13.7491 
9 *597:53 *597:62 3.493 
10 *597:62 *1491:A 17.2697 
11 *597:62 *597:75 10.137 
12 *597:75 *1509:A 13.7491 
13 *597:75 *597:86 11.315 
14 *597:86 *1489:A 10.5271 
15 *597:86 *597:95 2.38721 
16 *597:95 *597:99 21.6963 
17 *597:99 *1501:A 16.0158 
18 *597:99 *597:112 7.4379 
19 *597:112 *1495:A 23.0832 
20 *597:112 *597:129 2.87013 
21 *597:129 *1505:A 17.2697 
22 *597:129 *597:146 17.4162 
23 *597:146 *1499:A 13.7491 
24 *597:146 *1507:A 20.5992 
25 *597:95 *1503:A 12.2392 
*END

*D_NET *598 0.0667499
*CONN
*I *1851:A I *D sky130_fd_sc_hd__nand2_1
*I *1849:A I *D sky130_fd_sc_hd__nand2_1
*I *1500:A I *D sky130_fd_sc_hd__nand2_1
*I *1506:A I *D sky130_fd_sc_hd__nand2_1
*I *1498:A I *D sky130_fd_sc_hd__nand2_1
*I *1522:A1 I *D sky130_fd_sc_hd__o21ai_0
*I *1521:A I *D sky130_fd_sc_hd__nand2_1
*I *1556:A I *D sky130_fd_sc_hd__nand2_1
*I *1504:A I *D sky130_fd_sc_hd__nand2_1
*I *1494:A I *D sky130_fd_sc_hd__nand2_1
*I *1502:A I *D sky130_fd_sc_hd__nand2_1
*I *1488:A I *D sky130_fd_sc_hd__nand2_1
*I *1490:A I *D sky130_fd_sc_hd__nand2_1
*I *1492:A I *D sky130_fd_sc_hd__nand2_1
*I *1496:A I *D sky130_fd_sc_hd__nand2_1
*I *1537:A1 I *D sky130_fd_sc_hd__o21ai_0
*I *1508:A I *D sky130_fd_sc_hd__nand2_1
*I *1539:A I *D sky130_fd_sc_hd__nand2_1
*I *1540:A1 I *D sky130_fd_sc_hd__o21ai_0
*I *1536:A I *D sky130_fd_sc_hd__nand2_1
*I *1525:A1 I *D sky130_fd_sc_hd__o21ai_0
*I *1566:A I *D sky130_fd_sc_hd__nand2_1
*I *1567:A1 I *D sky130_fd_sc_hd__o21ai_0
*I *1573:A I *D sky130_fd_sc_hd__nand2_1
*I *1574:A1 I *D sky130_fd_sc_hd__o21ai_0
*I *1515:A I *D sky130_fd_sc_hd__nand2_1
*I *1516:A1 I *D sky130_fd_sc_hd__o21ai_0
*I *1579:A I *D sky130_fd_sc_hd__nand2_1
*I *1530:A I *D sky130_fd_sc_hd__nand2_1
*I *1557:A1 I *D sky130_fd_sc_hd__o21ai_0
*I *1542:A I *D sky130_fd_sc_hd__nand2_1
*I *1531:A1 I *D sky130_fd_sc_hd__o21ai_0
*I *1580:A1 I *D sky130_fd_sc_hd__o21ai_0
*I *1518:A I *D sky130_fd_sc_hd__nand2_1
*I *1519:A1 I *D sky130_fd_sc_hd__o21ai_0
*I *1534:A1 I *D sky130_fd_sc_hd__o21ai_0
*I *1533:A I *D sky130_fd_sc_hd__nand2_1
*I *1559:A I *D sky130_fd_sc_hd__nand2_1
*I *1560:A1 I *D sky130_fd_sc_hd__o21ai_0
*I *1543:A1 I *D sky130_fd_sc_hd__o21ai_0
*I *1545:A I *D sky130_fd_sc_hd__nand2_1
*I *1546:A1 I *D sky130_fd_sc_hd__o21ai_0
*I *1551:A1 I *D sky130_fd_sc_hd__o21ai_0
*I *1550:A I *D sky130_fd_sc_hd__nand2_1
*I *1585:A I *D sky130_fd_sc_hd__nand2_1
*I *1586:A1 I *D sky130_fd_sc_hd__o21ai_0
*I *1524:A I *D sky130_fd_sc_hd__nand2_1
*I *1553:A I *D sky130_fd_sc_hd__nand2_1
*I *1554:A1 I *D sky130_fd_sc_hd__o21ai_0
*I *1527:A I *D sky130_fd_sc_hd__nand2_1
*I *1528:A1 I *D sky130_fd_sc_hd__o21ai_0
*I *1513:A1 I *D sky130_fd_sc_hd__o21ai_0
*I *1512:A I *D sky130_fd_sc_hd__nand2_1
*I *1486:Y O *D sky130_fd_sc_hd__clkinv_4
*CAP
1 *1851:A 1.52839e-05
2 *1849:A 0.000101093
3 *1500:A 0
4 *1506:A 0
5 *1498:A 0.00016984
6 *1522:A1 0.000161351
7 *1521:A 0
8 *1556:A 1.84256e-05
9 *1504:A 0
10 *1494:A 0.000115814
11 *1502:A 9.37799e-05
12 *1488:A 7.243e-05
13 *1490:A 0.000140853
14 *1492:A 0.000167917
15 *1496:A 0.000153826
16 *1537:A1 0.000153788
17 *1508:A 0.000182427
18 *1539:A 1.6785e-05
19 *1540:A1 1.72755e-05
20 *1536:A 0.000107684
21 *1525:A1 0
22 *1566:A 3.68047e-05
23 *1567:A1 0
24 *1573:A 0
25 *1574:A1 0.000105613
26 *1515:A 0
27 *1516:A1 0.000128395
28 *1579:A 0
29 *1530:A 0
30 *1557:A1 0.000118491
31 *1542:A 0
32 *1531:A1 0
33 *1580:A1 9.76473e-05
34 *1518:A 0.000155162
35 *1519:A1 0
36 *1534:A1 0.000123035
37 *1533:A 0
38 *1559:A 3.7228e-05
39 *1560:A1 0.000533909
40 *1543:A1 3.46245e-05
41 *1545:A 3.62951e-05
42 *1546:A1 9.75444e-05
43 *1551:A1 1.6854e-05
44 *1550:A 0
45 *1585:A 0
46 *1586:A1 0.00027595
47 *1524:A 0
48 *1553:A 0
49 *1554:A1 0
50 *1527:A 0
51 *1528:A1 0.000358475
52 *1513:A1 2.06324e-05
53 *1512:A 0
54 *1486:Y 0.000558307
55 *598:686 0.000580613
56 *598:651 0.000596155
57 *598:636 0.00060331
58 *598:629 0.000643767
59 *598:614 0.00124027
60 *598:599 0.000821382
61 *598:582 0.000531901
62 *598:578 0.000471671
63 *598:561 0.000637352
64 *598:548 0.000908036
65 *598:535 0.00100626
66 *598:514 0.000788287
67 *598:499 0.000768664
68 *598:493 0.00109572
69 *598:459 0.000360892
70 *598:450 0.000278473
71 *598:435 0.000500412
72 *598:396 0.000120628
73 *598:376 0.000833533
74 *598:370 0.00113248
75 *598:366 0.000561185
76 *598:360 0.00043869
77 *598:332 0.000492093
78 *598:324 0.000454508
79 *598:288 0.000292653
80 *598:266 0.000512137
81 *598:258 0.0007802
82 *598:232 0.0006583
83 *598:228 0.000467956
84 *598:217 0.000486058
85 *598:191 0.000508759
86 *598:185 0.00084047
87 *598:179 0.000571535
88 *598:177 0.00049983
89 *598:173 0.000448327
90 *598:167 0.000553309
91 *598:147 1.6854e-05
92 *598:145 0.00167628
93 *598:128 0.00135607
94 *598:115 0.000824562
95 *598:109 0.000850519
96 *598:107 0.000239115
97 *598:96 0.000827181
98 *598:88 0.000963076
99 *598:86 0.000457896
100 *598:77 0.000748582
101 *598:64 0.000855028
102 *598:51 0.000452563
103 *598:36 0.00112927
104 *598:21 0.000904778
105 *598:12 0.00036677
106 *1488:A *1213:B 0.000113197
107 *1488:A *1488:B 3.50319e-05
108 *1488:A *1503:B 0.000375848
109 *1490:A *1210:B 2.98906e-05
110 *1490:A *1491:B 0.000111722
111 *1492:A *1493:B 3.41328e-05
112 *1494:A *1216:B 4.04393e-05
113 *1494:A *1231:A 2.84661e-05
114 *1494:A *1494:B 3.01683e-06
115 *1494:A *1111:273 1.9503e-05
116 *1496:A *1496:B 2.42295e-05
117 *1496:A *1497:B 0.000226792
118 *1498:A *1182:A 0.000177828
119 *1498:A *1498:B 5.25767e-05
120 *1498:A *1008:12 9.89388e-06
121 *1498:A *1111:578 2.67514e-05
122 *1498:A *1111:580 3.00174e-06
123 *1502:A axi_lite_o[3] 6.55265e-05
124 *1508:A *1508:B 1.47892e-05
125 *1508:A *1509:B 4.00421e-05
126 *1508:A *1539:B 0.000317612
127 *1508:A *1681:A 1.88422e-05
128 *1508:A *725:18 0.000359298
129 *1508:A *996:14 6.27782e-05
130 *1516:A1 *1515:B 0.000113254
131 *1516:A1 *1516:A2 2.58757e-05
132 *1516:A1 *1516:B1 2.29454e-05
133 *1518:A *1233:B 0
134 *1518:A *1518:B 6.62732e-05
135 *1518:A *1519:B1 3.76492e-05
136 *1522:A1 *1522:A2 6.3657e-05
137 *1522:A1 *1522:B1 0.000196454
138 *1522:A1 *1113:441 0.000288962
139 *1528:A1 *1527:B 0.000118166
140 *1528:A1 *1528:B1 0.000199954
141 *1528:A1 *1972:CLK 6.88361e-05
142 *1534:A1 *1533:B 0.00010072
143 *1534:A1 *1617:A2 0.000232467
144 *1534:A1 *626:14 6.92705e-05
145 *1536:A *1132:37 3.52807e-05
146 *1537:A1 *1537:A2 6.46815e-05
147 *1537:A1 *1537:B1 4.9e-05
148 *1537:A1 *2168:A 0.000208599
149 *1537:A1 *1113:773 2.09447e-05
150 *1539:A *1539:B 9.95922e-06
151 *1543:A1 *1962:CLK 6.50586e-05
152 *1543:A1 *838:39 4.58003e-05
153 *1546:A1 *1529:A2 0.000221415
154 *1546:A1 *1545:B 1.47688e-05
155 *1546:A1 *1546:A2 6.09386e-05
156 *1546:A1 *1546:B1 0.000117376
157 *1546:A1 *634:6 5.04829e-06
158 *1551:A1 *1550:B 2.58757e-05
159 *1551:A1 *1551:B1 2.58757e-05
160 *1556:A *1706:B 6.27718e-05
161 *1557:A1 *642:22 0.000433687
162 *1560:A1 *1541:A1 1.83827e-06
163 *1560:A1 *1560:A2 1.03594e-05
164 *1560:A1 *1560:B1 8.76174e-05
165 *1560:A1 *642:16 8.61152e-06
166 *1566:A *1566:B 6.97444e-05
167 *1566:A *630:10 1.0759e-05
168 *1574:A1 *1573:B 1.43387e-05
169 *1574:A1 *1574:B1 0.000117376
170 *1574:A1 *777:14 0.000310394
171 *1580:A1 *969:8 7.77309e-06
172 *1580:A1 *1113:292 0
173 *1580:A1 *1129:74 0
174 *1586:A1 *1585:B 1.00766e-05
175 *1849:A *1905:B 7.75738e-05
176 *1849:A *1906:A1 6.27782e-05
177 *1849:A *1111:434 5.88519e-05
178 *1851:A *1111:434 6.08467e-05
179 *598:12 *1512:B 4.94e-06
180 *598:21 *1513:B1 7.58194e-05
181 *598:21 *612:10 2.65667e-05
182 *598:21 *728:20 1.61631e-05
183 *598:36 *2103:D 3.20069e-06
184 *598:36 *612:10 0.000262266
185 *598:36 *1106:235 2.652e-05
186 *598:51 *1106:235 1.70077e-05
187 *598:64 *1628:B 5.62569e-05
188 *598:64 *1106:235 0.000751703
189 *598:77 *1554:A2 2.12954e-05
190 *598:77 *1554:B1 0.000118166
191 *598:77 *1702:B 6.73186e-05
192 *598:77 *992:16 2.14842e-06
193 *598:77 *1111:65 0
194 *598:77 *1132:39 0
195 *598:86 *1959:RESET_B 6.36611e-05
196 *598:86 *992:16 2.92569e-05
197 *598:86 *1001:16 0
198 *598:86 *1113:773 4.27741e-06
199 *598:96 *1001:16 0.000106683
200 *598:96 *1111:100 4.7798e-05
201 *598:107 *1524:B 1.46024e-05
202 *598:107 *1525:A2 1.65872e-05
203 *598:107 *1525:B1 0.000477587
204 *598:109 *1525:A2 0.000110458
205 *598:109 *1002:12 1.96344e-05
206 *598:115 *1937:RESET_B 0
207 *598:115 *1953:RESET_B 0
208 *598:115 *611:136 0.000231926
209 *598:115 *985:12 4.91278e-05
210 *598:115 *1002:12 2.41274e-06
211 *598:115 *1113:161 0
212 *598:115 *1130:29 0.000134849
213 *598:128 *985:12 2.59855e-05
214 *598:145 *1585:B 0.000112367
215 *598:145 *1731:A 0.00016448
216 *598:145 *1731:B 1.3808e-05
217 *598:145 *1937:CLK 7.28567e-06
218 *598:145 *2145:A 0.000587963
219 *598:145 *638:12 4.43331e-05
220 *598:145 *985:12 5.03545e-06
221 *598:167 *1579:B 4.80635e-06
222 *598:167 *1627:A2 6.91967e-05
223 *598:167 *2510:A 4.28109e-05
224 *598:167 *638:12 3.00174e-06
225 *598:167 *1106:235 0
226 *598:167 *1111:164 0.000311249
227 *598:173 *1580:B1 7.50722e-05
228 *598:173 *1728:B 8.10514e-06
229 *598:173 *980:12 0.000149059
230 *598:173 *1106:235 9.46878e-05
231 *598:177 *1531:A2 6.64392e-05
232 *598:177 *1615:A2 0.000249205
233 *598:191 *1922:RESET_B 2.65732e-05
234 *598:217 *722:12 0
235 *598:217 *838:39 2.36813e-05
236 *598:228 *1962:CLK 0.000180125
237 *598:228 *838:39 5.57008e-05
238 *598:232 *1541:A1 1.04731e-05
239 *598:232 *632:6 0.000252308
240 *598:258 *1713:B 0.000112897
241 *598:258 *1934:CLK 0
242 *598:258 *838:39 1.49898e-05
243 *598:266 *1616:B 5.64241e-05
244 *598:266 *1926:RESET_B 0
245 *598:266 *1957:RESET_B 4.25153e-05
246 *598:266 *962:14 2.17699e-05
247 *598:266 *1013:14 0.000206696
248 *598:288 *962:14 2.08274e-05
249 *598:324 *1615:A2 7.78326e-05
250 *598:332 *1543:B1 1.41976e-05
251 *598:332 *642:22 1.19856e-05
252 *598:332 *1106:235 0.00058389
253 *598:360 *1525:A2 1.41205e-05
254 *598:360 *1968:CLK 0.000103211
255 *598:360 *778:18 3.94515e-05
256 *598:360 *1002:12 3.94515e-05
257 *598:360 *1113:170 1.67913e-05
258 *598:366 *1538:A1 6.24474e-06
259 *598:366 *1566:B 9.81288e-06
260 *598:366 *1567:B1 0.000306791
261 *598:366 *1635:A2 2.86829e-05
262 *598:366 *611:136 8.2476e-06
263 *598:366 *630:10 0.000545043
264 *598:366 *650:10 6.08467e-05
265 *598:370 *1768:A 0
266 *598:370 *1924:RESET_B 0
267 *598:370 *611:136 7.10735e-06
268 *598:370 *611:146 8.37438e-05
269 *598:370 *855:8 0
270 *598:370 *1113:174 0
271 *598:376 *1924:RESET_B 0
272 *598:376 *1924:CLK 0
273 *598:376 *2492:A 0.000175676
274 *598:376 *839:38 0.000102367
275 *598:376 *1110:436 0
276 *598:376 *1110:438 0
277 *598:376 *1111:23 0.000142614
278 *598:396 *1573:B 6.50586e-05
279 *598:396 *777:14 1.00766e-05
280 *598:435 *1001:16 9.77432e-05
281 *598:450 *1540:A2 1.8489e-05
282 *598:459 *1539:B 1.4106e-05
283 *598:459 *1540:A2 2.57986e-05
284 *598:459 *1540:B1 6.97525e-05
285 *598:493 *1911:CLK 5.84505e-05
286 *598:499 *2515:A 0
287 *598:499 *1133:10 0
288 *598:499 *1133:66 0
289 *598:514 *1982:CLK 8.58301e-05
290 *598:514 *734:16 6.26724e-05
291 *598:535 *1951:RESET_B 2.52414e-06
292 *598:535 *1979:RESET_B 9.49895e-06
293 *598:535 *1017:12 0.00014142
294 *598:535 *1113:617 4.3317e-05
295 *598:548 *1942:CLK 0
296 *598:548 *1945:CLK 0
297 *598:548 *2173:A 3.50791e-05
298 *598:548 *725:18 1.09013e-05
299 *598:548 *1017:12 5.41377e-05
300 *598:548 *1111:339 0.000370031
301 *598:548 *1113:615 3.80222e-05
302 *598:548 *1113:617 0.00029359
303 *598:548 *1132:88 0
304 *598:561 *1502:B 5.23577e-05
305 *598:561 *1503:B 2.74215e-05
306 *598:561 *1942:CLK 0
307 *598:561 *1977:RESET_B 3.00174e-06
308 *598:561 *1111:333 1.00004e-05
309 *598:561 *1111:339 3.04443e-05
310 *598:561 *1111:519 0.000225191
311 *598:561 *1128:22 0
312 *598:578 *1500:B 0.000326398
313 *598:578 *1977:RESET_B 4.05431e-05
314 *598:578 *1128:16 0.000195896
315 *598:578 *1128:67 0.000116454
316 *598:582 *2139:A 1.44467e-05
317 *598:582 *1128:67 0
318 *598:599 *2139:A 0.000270358
319 *598:599 *1009:12 5.77383e-05
320 *598:614 *1556:B 3.13805e-06
321 *598:614 *1706:B 3.32903e-05
322 *598:614 *2139:A 0.00112051
323 *598:614 *1111:595 7.28994e-06
324 *598:629 *1521:B 0.000139037
325 *598:629 *1522:B1 6.27782e-05
326 *598:629 *1557:B1 2.99929e-05
327 *598:629 *1111:185 1.59362e-06
328 *598:629 *1111:196 0.000261742
329 *598:629 *1111:209 3.20069e-06
330 *598:651 *1507:B 0.000122917
331 *598:651 *1522:B1 6.27332e-05
332 *598:651 *1943:CLK 0.000380965
333 *598:651 *1111:561 0.000164815
334 *598:686 *1851:B 1.03594e-05
335 *598:686 *1911:RESET_B 0.000114313
336 *598:686 *1113:894 0.000253459
337 *1214:B1 *1488:A 5.04829e-06
338 *1217:B1 *1494:A 0.000165521
339 *1233:A *598:258 0.000163344
340 *1233:A *598:288 6.27718e-05
341 *1486:A *598:493 6.27718e-05
342 *1507:A *598:651 0.000275322
343 *1538:B1 *598:370 3.42037e-06
344 *1586:B1 *1586:A1 0.000413806
345 *1590:A1 *1490:A 0
346 *1600:A *1492:A 0.000297592
347 *1600:A *598:535 0.000283966
348 *1605:B1 *598:376 7.04109e-05
349 *1615:A1 *598:324 3.5063e-05
350 *1616:A *598:266 0.000208627
351 *1617:A1 *598:266 4.99937e-05
352 *1623:A1 *598:232 6.08467e-05
353 *1628:A *598:77 6.41655e-05
354 *1633:B1 *1560:A1 0.000460071
355 *1698:A *1580:A1 0.000146655
356 *1698:A *598:217 4.91625e-05
357 *1704:A *598:77 6.92705e-05
358 *1704:B *598:77 2.692e-05
359 *1707:B *598:614 9.28161e-05
360 *1714:B *598:258 1.79484e-05
361 *1732:B *598:145 2.8212e-05
362 *1852:B *1849:A 7.66391e-06
363 *1924:D *598:376 0
364 *1952:D *1488:A 7.6719e-06
365 *1952:D *598:561 0.000101133
366 *1953:D *1586:A1 6.27782e-05
367 *1955:D *1574:A1 2.39769e-05
368 *1955:D *598:370 0
369 *1958:D *598:332 0
370 *1959:D *598:86 0
371 *1961:D *1546:A1 3.67918e-05
372 *1968:D *598:96 0.000453648
373 *1970:D *1518:A 0.000164843
374 *1970:D *598:288 1.1957e-05
375 *1971:D *1516:A1 0.000159038
376 *1974:D *598:651 0.000277488
377 *1977:D *598:578 0.000612612
378 *1979:D *598:514 4.8694e-05
379 *1981:D *1492:A 6.24474e-06
380 *183:39 *1849:A 0.000325601
381 *183:39 *1851:A 1.88422e-05
382 *183:52 *598:686 0.000155293
383 *183:138 *598:578 0
384 *185:28 *598:77 0
385 *185:128 *598:370 0
386 *185:237 *598:217 0.000553696
387 *185:237 *598:228 0.000321023
388 *185:237 *598:258 2.03171e-05
389 *185:250 *598:258 4.00002e-05
390 *185:278 *598:266 8.01546e-06
391 *185:335 *1557:A1 0.000277502
392 *185:335 *598:332 0
393 *185:337 *598:167 0
394 *185:345 *598:167 0
395 *388:10 *1522:A1 3.89073e-05
396 *388:125 *598:107 0.00067861
397 *388:212 *598:145 4.78554e-05
398 *388:212 *598:167 8.28997e-05
399 *458:105 *598:366 1.88755e-05
400 *458:105 *598:370 1.66626e-05
401 *458:142 *598:21 3.32053e-05
402 *458:253 *598:258 0
403 *458:262 *598:232 4.19182e-05
404 *597:40 *598:499 0.000362216
405 *597:53 *1496:A 1.61631e-05
406 *597:53 *598:499 9.35753e-06
407 *597:53 *598:514 0
408 *597:99 *598:582 0
409 *597:112 *598:582 0
410 *597:112 *598:599 0
*RES
1 *1486:Y *598:12 22.1896 
2 *598:12 *1512:A 9.24915 
3 *598:12 *598:21 4.62973 
4 *598:21 *1513:A1 9.82786 
5 *598:21 *598:36 17.2017 
6 *598:36 *1528:A1 21.7306 
7 *598:36 *598:51 1.00149 
8 *598:51 *1527:A 13.7491 
9 *598:51 *598:64 18.6919 
10 *598:64 *1554:A1 9.24915 
11 *598:64 *598:77 15.3904 
12 *598:77 *1553:A 13.7491 
13 *598:77 *598:86 7.64553 
14 *598:86 *598:88 4.5 
15 *598:88 *598:96 20.8443 
16 *598:96 *1524:A 9.24915 
17 *598:96 *598:107 8.946 
18 *598:107 *598:109 2.38721 
19 *598:109 *598:115 18.4122 
20 *598:115 *1586:A1 21.1519 
21 *598:115 *598:128 1.00149 
22 *598:128 *1585:A 13.7491 
23 *598:128 *598:145 31.8287 
24 *598:145 *598:147 4.5 
25 *598:147 *1550:A 9.24915 
26 *598:147 *1551:A1 9.97254 
27 *598:145 *598:167 14.9749 
28 *598:167 *598:173 15.3998 
29 *598:173 *598:177 4.62973 
30 *598:177 *598:179 7.37864 
31 *598:179 *598:185 3.13472 
32 *598:185 *598:191 12.8773 
33 *598:191 *1546:A1 18.403 
34 *598:191 *1545:A 14.7506 
35 *598:185 *598:217 14.637 
36 *598:217 *1543:A1 15.0271 
37 *598:217 *598:228 5.98452 
38 *598:228 *598:232 7.99641 
39 *598:232 *1560:A1 27.7626 
40 *598:232 *1559:A 10.2378 
41 *598:228 *598:258 11.315 
42 *598:258 *598:266 20.2869 
43 *598:266 *1533:A 9.24915 
44 *598:266 *1534:A1 14.6264 
45 *598:258 *598:288 3.52053 
46 *598:288 *1519:A1 9.24915 
47 *598:288 *1518:A 14.3129 
48 *598:179 *1580:A1 21.3269 
49 *598:177 *1531:A1 9.24915 
50 *598:173 *598:324 2.41132 
51 *598:324 *598:332 20.2757 
52 *598:332 *1542:A 9.24915 
53 *598:332 *1557:A1 15.5186 
54 *598:324 *1530:A 9.24915 
55 *598:167 *1579:A 9.24915 
56 *598:109 *598:360 15.3998 
57 *598:360 *598:366 11.7709 
58 *598:366 *598:370 10.4546 
59 *598:370 *598:376 23.5289 
60 *598:376 *1516:A1 13.903 
61 *598:376 *1515:A 9.24915 
62 *598:370 *598:396 5.2234 
63 *598:396 *1574:A1 14.3129 
64 *598:396 *1573:A 9.24915 
65 *598:366 *1567:A1 13.7491 
66 *598:360 *1566:A 10.9612 
67 *598:107 *1525:A1 9.24915 
68 *598:88 *598:435 4.60562 
69 *598:435 *1536:A 20.4964 
70 *598:435 *598:450 1.85672 
71 *598:450 *1540:A1 9.82786 
72 *598:450 *598:459 4.05102 
73 *598:459 *1539:A 9.82786 
74 *598:459 *1508:A 16.6519 
75 *598:86 *1537:A1 18.3836 
76 *1486:Y *598:493 17.737 
77 *598:493 *598:499 12.4631 
78 *598:499 *1496:A 18.2342 
79 *598:499 *598:514 13.8065 
80 *598:514 *1492:A 15.1991 
81 *598:514 *598:535 14.5411 
82 *598:535 *1490:A 16.5704 
83 *598:535 *598:548 17.6116 
84 *598:548 *1488:A 18.3789 
85 *598:548 *598:561 7.64553 
86 *598:561 *1502:A 16.1605 
87 *598:561 *598:578 17.3029 
88 *598:578 *598:582 8.82351 
89 *598:582 *1494:A 17.8243 
90 *598:582 *598:599 7.30355 
91 *598:599 *1504:A 13.7491 
92 *598:599 *598:614 23.4389 
93 *598:614 *1556:A 9.97254 
94 *598:614 *598:629 26.9197 
95 *598:629 *1521:A 9.24915 
96 *598:629 *598:636 0.578717 
97 *598:636 *1522:A1 16.2661 
98 *598:636 *598:651 15.1672 
99 *598:651 *1498:A 23.4354 
100 *598:651 *1506:A 9.24915 
101 *598:578 *1500:A 9.24915 
102 *598:493 *598:686 21.8677 
103 *598:686 *1849:A 14.5179 
104 *598:686 *1851:A 9.97254 
*END

*D_NET *600 0.00132096
*CONN
*I *1489:B I *D sky130_fd_sc_hd__nand2_1
*I *1488:Y O *D sky130_fd_sc_hd__nand2_1
*CAP
1 *1489:B 0.000506689
2 *1488:Y 0.000506689
3 *1489:B *1503:B 0.000219249
4 *1489:A *1489:B 2.85139e-05
5 *1503:A *1489:B 6.90268e-06
6 *1983:D *1489:B 4.73037e-06
7 *597:95 *1489:B 4.81849e-05
*RES
1 *1488:Y *1489:B 27.2755 
*END

*D_NET *601 0.0010476
*CONN
*I *1491:B I *D sky130_fd_sc_hd__nand2_1
*I *1490:Y O *D sky130_fd_sc_hd__nand2_1
*CAP
1 *1491:B 0.000424813
2 *1490:Y 0.000424813
3 *1491:B *1210:B 2.65831e-05
4 *1490:A *1491:B 0.000111722
5 *1491:A *1491:B 5.96679e-05
*RES
1 *1490:Y *1491:B 28.1195 
*END

*D_NET *602 0.000167802
*CONN
*I *1493:B I *D sky130_fd_sc_hd__nand2_1
*I *1492:Y O *D sky130_fd_sc_hd__nand2_1
*CAP
1 *1493:B 5.87532e-05
2 *1492:Y 5.87532e-05
3 *1492:A *1493:B 3.41328e-05
4 *1981:D *1493:B 1.61631e-05
*RES
1 *1492:Y *1493:B 20.3791 
*END

*D_NET *603 0.0016397
*CONN
*I *1495:B I *D sky130_fd_sc_hd__nand2_1
*I *1494:Y O *D sky130_fd_sc_hd__nand2_1
*CAP
1 *1495:B 0.000629806
2 *1494:Y 0.000629806
3 *1495:B *1216:B 1.00846e-05
4 *1495:B *1494:B 3.14978e-05
5 *1495:B *1975:RESET_B 5.69771e-05
6 *1495:B *1980:RESET_B 0.000107852
7 *1495:B *1980:CLK 2.01623e-05
8 *1495:B *1111:273 0.000139547
9 *1980:D *1495:B 1.39708e-05
*RES
1 *1494:Y *1495:B 38.2334 
*END

*D_NET *604 0.000729906
*CONN
*I *1497:B I *D sky130_fd_sc_hd__nand2_1
*I *1496:Y O *D sky130_fd_sc_hd__nand2_1
*CAP
1 *1497:B 0.000175577
2 *1496:Y 0.000175577
3 *1497:B *1496:B 6.64392e-05
4 *1496:A *1497:B 0.000226792
5 *597:53 *1497:B 8.55206e-05
*RES
1 *1496:Y *1497:B 24.2855 
*END

*D_NET *605 0.000290127
*CONN
*I *1499:B I *D sky130_fd_sc_hd__nand2_1
*I *1498:Y O *D sky130_fd_sc_hd__nand2_1
*CAP
1 *1499:B 8.24427e-05
2 *1498:Y 8.24427e-05
3 *1499:B *1498:B 1.8606e-05
4 *1499:B *1111:578 9.25052e-05
5 *1978:D *1499:B 1.41307e-05
*RES
1 *1498:Y *1499:B 21.4642 
*END

*D_NET *606 0.000765889
*CONN
*I *1501:B I *D sky130_fd_sc_hd__nand2_1
*I *1500:Y O *D sky130_fd_sc_hd__nand2_1
*CAP
1 *1501:B 0.000244799
2 *1500:Y 0.000244799
3 *1501:A *1501:B 1.08142e-05
4 *1977:D *1501:B 0.000265476
*RES
1 *1500:Y *1501:B 22.9833 
*END

*D_NET *607 0.00205855
*CONN
*I *1503:B I *D sky130_fd_sc_hd__nand2_1
*I *1502:Y O *D sky130_fd_sc_hd__nand2_1
*CAP
1 *1503:B 0.000456983
2 *1502:Y 0.000456983
3 *1503:B *1214:A1 6.08467e-05
4 *1503:B *1488:B 2.74378e-05
5 *1503:B *1111:333 1.91246e-05
6 *1503:B *1111:339 5.13937e-05
7 *1503:B *1111:519 0.000229639
8 *1214:B1 *1503:B 5.51483e-06
9 *1488:A *1503:B 0.000375848
10 *1489:B *1503:B 0.000219249
11 *1503:A *1503:B 4.58883e-05
12 *183:121 *1503:B 0
13 *183:125 *1503:B 8.22196e-05
14 *598:561 *1503:B 2.74215e-05
*RES
1 *1502:Y *1503:B 42.8199 
*END

*D_NET *608 0.00029481
*CONN
*I *1505:B I *D sky130_fd_sc_hd__nand2_1
*I *1504:Y O *D sky130_fd_sc_hd__nand2_1
*CAP
1 *1505:B 9.0736e-05
2 *1504:Y 9.0736e-05
3 *1505:B *1185:B 2.58757e-05
4 *1505:A *1505:B 5.75336e-05
5 *1975:D *1505:B 2.99287e-05
*RES
1 *1504:Y *1505:B 21.4642 
*END

*D_NET *609 0.000834068
*CONN
*I *1507:B I *D sky130_fd_sc_hd__nand2_1
*I *1506:Y O *D sky130_fd_sc_hd__nand2_1
*CAP
1 *1507:B 0.000224335
2 *1506:Y 0.000224335
3 *1507:A *1507:B 0.000262481
4 *598:651 *1507:B 0.000122917
*RES
1 *1506:Y *1507:B 25.3464 
*END

*D_NET *610 0.000192039
*CONN
*I *1509:B I *D sky130_fd_sc_hd__nand2_1
*I *1508:Y O *D sky130_fd_sc_hd__nand2_1
*CAP
1 *1509:B 4.29043e-05
2 *1508:Y 4.29043e-05
3 *1509:B *1508:B 5.6112e-05
4 *1509:B *725:18 1.00766e-05
5 *1508:A *1509:B 4.00421e-05
*RES
1 *1508:Y *1509:B 20.355 
*END

*D_NET *611 0.0319966
*CONN
*I *1667:B I *D sky130_fd_sc_hd__nor4_4
*I *1517:A1 I *D sky130_fd_sc_hd__a21oi_1
*I *1529:A1 I *D sky130_fd_sc_hd__a21oi_1
*I *1535:A1 I *D sky130_fd_sc_hd__a21oi_1
*I *1538:A1 I *D sky130_fd_sc_hd__a21oi_1
*I *1526:A1 I *D sky130_fd_sc_hd__a21oi_1
*I *1511:A1 I *D sky130_fd_sc_hd__a21oi_1
*I *1514:A1 I *D sky130_fd_sc_hd__a21oi_1
*I *1523:A1 I *D sky130_fd_sc_hd__a21oi_1
*I *1541:A1 I *D sky130_fd_sc_hd__a21oi_1
*I *1555:A2 I *D sky130_fd_sc_hd__a221oi_1
*I *1520:A1 I *D sky130_fd_sc_hd__a21oi_1
*I *1532:A1 I *D sky130_fd_sc_hd__a21oi_1
*I *1558:A2 I *D sky130_fd_sc_hd__a221oi_1
*I *1544:A1 I *D sky130_fd_sc_hd__a21oi_1
*I *1549:A2 I *D sky130_fd_sc_hd__a221oi_1
*I *1548:B I *D sky130_fd_sc_hd__nor2_1
*I *1552:A2 I *D sky130_fd_sc_hd__a221oi_1
*I *1510:Y O *D sky130_fd_sc_hd__inv_6
*CAP
1 *1667:B 0
2 *1517:A1 0.000183436
3 *1529:A1 0.000370384
4 *1535:A1 0.00034129
5 *1538:A1 0.000154481
6 *1526:A1 6.28337e-05
7 *1511:A1 0.000214333
8 *1514:A1 0.00137513
9 *1523:A1 0
10 *1541:A1 0.00121524
11 *1555:A2 0
12 *1520:A1 0.000211426
13 *1532:A1 0
14 *1558:A2 0.000198826
15 *1544:A1 0
16 *1549:A2 0.000170177
17 *1548:B 0.000157959
18 *1552:A2 0.000136345
19 *1510:Y 3.29728e-05
20 *611:247 0.000785588
21 *611:212 0.00105291
22 *611:152 0.00113756
23 *611:146 0.000945616
24 *611:136 0.00109625
25 *611:132 0.00120639
26 *611:125 0.000717842
27 *611:91 0.000375706
28 *611:70 0.000407847
29 *611:66 0.000208851
30 *611:64 0.00123378
31 *611:53 0.00107911
32 *611:49 0.00128505
33 *611:10 0.000632754
34 *611:8 0.000508628
35 *611:6 0.000347016
36 *1511:A1 *1511:A2 5.04829e-06
37 *1511:A1 *612:10 7.02172e-06
38 *1514:A1 *1197:B 7.92757e-06
39 *1514:A1 *839:23 9.82896e-06
40 *1514:A1 *839:38 0.000207399
41 *1517:A1 *1713:A 0.000130052
42 *1517:A1 *1931:CLK 0.00011911
43 *1517:A1 *838:39 6.93171e-05
44 *1520:A1 *1957:CLK 1.41181e-05
45 *1520:A1 *626:14 4.79321e-06
46 *1526:A1 *1526:A2 0.000156076
47 *1526:A1 *1636:B 7.01935e-06
48 *1529:A1 *1713:A 2.69795e-05
49 *1529:A1 *1931:CLK 4.42142e-05
50 *1529:A1 *1113:316 0
51 *1529:A1 *1113:323 0
52 *1535:A1 *2512:A 6.49003e-05
53 *1535:A1 *832:43 7.50872e-05
54 *1535:A1 *1130:94 3.00073e-05
55 *1538:A1 *1538:A2 2.58616e-05
56 *1538:A1 *650:10 2.60765e-05
57 *1541:A1 *1560:B1 0.00015146
58 *1541:A1 *642:16 6.95248e-05
59 *1548:B *1564:A2 0.000326668
60 *1548:B *1564:B1 2.74378e-05
61 *1548:B *1565:B1 5.99529e-06
62 *1548:B *831:19 0.000546121
63 *1549:A2 *638:10 1.41181e-05
64 *1552:A2 *1552:A1 6.36477e-05
65 *1552:A2 *1564:B1 5.46907e-05
66 *1552:A2 *2127:CLK 6.64392e-05
67 *1552:A2 *846:10 0.0001739
68 *1552:A2 *846:12 2.75449e-05
69 *611:6 *836:31 1.41181e-05
70 *611:10 *1564:B1 0.000196526
71 *611:10 *846:10 0.000434929
72 *611:49 *1901:A 2.83829e-05
73 *611:49 *836:31 8.34649e-05
74 *611:53 *1584:A1 0.000250224
75 *611:53 *1751:B1 7.75163e-05
76 *611:53 *1903:B1 0.000251587
77 *611:53 *652:19 2.53624e-06
78 *611:64 *1751:B1 0.000302076
79 *611:64 *642:16 0
80 *611:64 *776:18 0.000255748
81 *611:64 *776:22 0.000139435
82 *611:64 *788:14 0.000159131
83 *611:66 *642:16 5.62568e-05
84 *611:70 *1555:A1 1.03594e-05
85 *611:70 *790:22 2.10465e-05
86 *611:91 *1532:A2 9.95542e-06
87 *611:91 *790:22 2.8322e-05
88 *611:136 *1635:A2 0.000158651
89 *611:136 *1953:CLK 4.55235e-05
90 *611:136 *1113:161 0
91 *611:146 *1111:46 0.000256656
92 *611:152 *777:8 0.000496147
93 *611:152 *840:18 2.02035e-05
94 *611:212 *1541:A2 0.000164013
95 *611:212 *1713:A 6.08467e-05
96 *611:212 *1931:CLK 8.55826e-05
97 *611:212 *1934:CLK 0
98 *611:247 *839:23 0.0005768
99 *611:247 *1136:63 7.17067e-05
100 *1268:B *611:247 0.00026179
101 *1514:B1 *611:247 0.000207294
102 *1517:B1 *1517:A1 5.80109e-06
103 *1529:B1 *1517:A1 5.1493e-06
104 *1529:B1 *1529:A1 0.000226291
105 *1532:B1 *1520:A1 0.000110458
106 *1532:B1 *611:91 0.000110297
107 *1535:B1 *1535:A1 0.000299284
108 *1535:B1 *611:132 0.000213725
109 *1555:C1 *1558:A2 1.05106e-05
110 *1558:C1 *1558:A2 8.93845e-05
111 *1560:A1 *1541:A1 1.83827e-06
112 *1584:C1 *611:53 4.03125e-05
113 *1607:A1 *1517:A1 0
114 *1633:B1 *1541:A1 6.43652e-05
115 *1635:B1 *611:136 1.21985e-05
116 *1742:A2 *611:70 1.13359e-05
117 *1742:A2 *611:91 1.47291e-05
118 *1749:B *611:53 0.000200595
119 *1749:B *611:64 5.03545e-06
120 *1750:B *611:64 0.000201649
121 *1767:A2 *611:152 4.05936e-05
122 *1853:A *1514:A1 2.65831e-05
123 *1926:D *1541:A1 0.000213449
124 *1956:D *611:136 8.36586e-06
125 *1956:D *611:146 0.000100054
126 *185:128 *611:136 9.7563e-05
127 *185:128 *611:146 0.000445038
128 *185:316 *1517:A1 0
129 *388:143 *1511:A1 0.000192462
130 *388:143 *1514:A1 8.88534e-05
131 *450:43 *611:247 0.000331378
132 *450:56 *611:247 0.000632438
133 *450:78 *611:53 0.000202176
134 *453:29 *1552:A2 0
135 *453:31 *611:10 0
136 *453:40 *1549:A2 0
137 *453:40 *611:10 0
138 *457:38 *611:53 0.000134302
139 *457:55 *611:53 0.000183368
140 *458:94 *611:49 0.000164829
141 *458:94 *611:125 0.000235492
142 *458:101 *611:125 0.000114594
143 *458:101 *611:132 0.000570541
144 *458:105 *611:136 0
145 *458:126 *611:146 0.000409789
146 *458:128 *611:152 0
147 *458:195 *611:53 0.000142349
148 *458:206 *611:64 8.20492e-06
149 *458:210 *1558:A2 8.93134e-05
150 *458:210 *611:66 0.000257494
151 *458:239 *1520:A1 9.32983e-05
152 *458:262 *1541:A1 0.000112367
153 *598:115 *611:136 0.000231926
154 *598:232 *1541:A1 1.04731e-05
155 *598:366 *1538:A1 6.24474e-06
156 *598:366 *611:136 8.2476e-06
157 *598:370 *611:136 7.10735e-06
158 *598:370 *611:146 8.37438e-05
*RES
1 *1510:Y *611:6 9.97254 
2 *611:6 *611:8 4.5 
3 *611:8 *611:10 10.137 
4 *611:10 *1552:A2 18.3808 
5 *611:10 *1548:B 21.0072 
6 *611:8 *1549:A2 17.6896 
7 *611:6 *611:49 7.01694 
8 *611:49 *611:53 30.4166 
9 *611:53 *1544:A1 13.7491 
10 *611:53 *611:64 17.9591 
11 *611:64 *611:66 4.60562 
12 *611:66 *611:70 5.50149 
13 *611:70 *1558:A2 19.1264 
14 *611:70 *611:91 7.74935 
15 *611:91 *1532:A1 9.24915 
16 *611:91 *1520:A1 12.7456 
17 *611:66 *1555:A2 9.24915 
18 *611:64 *1541:A1 24.778 
19 *611:49 *611:125 4.05102 
20 *611:125 *1523:A1 9.24915 
21 *611:125 *611:132 8.48785 
22 *611:132 *611:136 16.7133 
23 *611:136 *611:146 26.9598 
24 *611:146 *611:152 15.2477 
25 *611:152 *1514:A1 18.8462 
26 *611:152 *1511:A1 12.7456 
27 *611:146 *1526:A1 15.5817 
28 *611:136 *1538:A1 16.1364 
29 *611:132 *1535:A1 24.8261 
30 *1541:A1 *611:212 31.1265 
31 *611:212 *1529:A1 23.8862 
32 *611:212 *1517:A1 18.4879 
33 *1514:A1 *611:247 44.5639 
34 *611:247 *1667:B 9.24915 
*END

*D_NET *612 0.00378508
*CONN
*I *1513:A2 I *D sky130_fd_sc_hd__o21ai_0
*I *1603:A2 I *D sky130_fd_sc_hd__o21ai_0
*I *1511:Y O *D sky130_fd_sc_hd__a21oi_1
*CAP
1 *1513:A2 0
2 *1603:A2 0.000350495
3 *1511:Y 0.000397385
4 *612:10 0.00074788
5 *612:10 *1511:A2 3.14978e-05
6 *612:10 *2103:D 0.000110971
7 *612:10 *2103:CLK 2.65831e-05
8 *1188:A *1603:A2 6.27718e-05
9 *1511:A1 *612:10 7.02172e-06
10 *1602:A *1603:A2 2.58616e-05
11 *1745:A *1603:A2 0
12 *1972:D *1603:A2 3.37843e-05
13 *388:143 *612:10 1.43983e-05
14 *458:142 *612:10 0.0016876
15 *598:21 *612:10 2.65667e-05
16 *598:36 *612:10 0.000262266
*RES
1 *1511:Y *612:10 32.3496 
2 *612:10 *1603:A2 25.7876 
3 *612:10 *1513:A2 9.24915 
*END

*D_NET *613 0.000284819
*CONN
*I *1513:B1 I *D sky130_fd_sc_hd__o21ai_0
*I *1512:Y O *D sky130_fd_sc_hd__nand2_1
*CAP
1 *1513:B1 2.03437e-05
2 *1512:Y 2.03437e-05
3 *458:142 *1513:B1 0.000168313
4 *598:21 *1513:B1 7.58194e-05
*RES
1 *1512:Y *1513:B1 20.3309 
*END

*D_NET *614 0.00134885
*CONN
*I *1605:A2 I *D sky130_fd_sc_hd__o21ai_0
*I *1516:A2 I *D sky130_fd_sc_hd__o21ai_0
*I *1514:Y O *D sky130_fd_sc_hd__a21oi_1
*CAP
1 *1605:A2 0.000233194
2 *1516:A2 0.000124849
3 *1514:Y 0
4 *614:6 0.000358044
5 *1516:A2 *1110:438 0.00015324
6 *1516:A2 *1136:63 0
7 *1605:A2 *652:10 0
8 *1605:A2 *1110:436 0.000201144
9 *1605:A2 *1110:438 0.000190896
10 *1605:A2 *1136:63 0
11 *1516:A1 *1516:A2 2.58757e-05
12 *1940:D *1605:A2 4.96492e-05
13 *1971:D *1516:A2 1.1957e-05
*RES
1 *1514:Y *614:6 13.7491 
2 *614:6 *1516:A2 17.6896 
3 *614:6 *1605:A2 20.9794 
*END

*D_NET *615 0.000159467
*CONN
*I *1516:B1 I *D sky130_fd_sc_hd__o21ai_0
*I *1515:Y O *D sky130_fd_sc_hd__nand2_1
*CAP
1 *1516:B1 3.54766e-05
2 *1515:Y 3.54766e-05
3 *1516:B1 *1515:B 6.5568e-05
4 *1516:A1 *1516:B1 2.29454e-05
*RES
1 *1515:Y *1516:B1 19.7763 
*END

*D_NET *616 0.00166676
*CONN
*I *1607:A2 I *D sky130_fd_sc_hd__o21ai_0
*I *1519:A2 I *D sky130_fd_sc_hd__o21ai_0
*I *1517:Y O *D sky130_fd_sc_hd__a21oi_1
*CAP
1 *1607:A2 0.00034036
2 *1519:A2 4.41859e-05
3 *1517:Y 4.51842e-05
4 *616:6 0.00042973
5 *1519:A2 *2175:A 0.0001195
6 *1519:A2 *838:58 0.000122992
7 *1607:A2 *1518:B 7.80873e-05
8 *1607:A2 *1939:RESET_B 5.04829e-06
9 *1607:A2 *618:10 0.000293586
10 *1607:A2 *1113:333 9.085e-06
11 *616:6 *618:10 6.08467e-05
12 *1607:A1 *1607:A2 0.00011815
*RES
1 *1517:Y *616:6 9.97254 
2 *616:6 *1519:A2 20.4964 
3 *616:6 *1607:A2 25.6861 
*END

*D_NET *617 0.000366755
*CONN
*I *1519:B1 I *D sky130_fd_sc_hd__o21ai_0
*I *1518:Y O *D sky130_fd_sc_hd__nand2_1
*CAP
1 *1519:B1 0.000155353
2 *1518:Y 0.000155353
3 *1519:B1 *1518:B 1.83992e-05
4 *1518:A *1519:B1 3.76492e-05
*RES
1 *1518:Y *1519:B1 22.0309 
*END

*D_NET *618 0.0072159
*CONN
*I *1522:A2 I *D sky130_fd_sc_hd__o21ai_0
*I *1609:A2 I *D sky130_fd_sc_hd__o21ai_0
*I *1520:Y O *D sky130_fd_sc_hd__a21oi_1
*CAP
1 *1522:A2 9.94119e-05
2 *1609:A2 0.000195169
3 *1520:Y 0.00190075
4 *618:12 0.000294581
5 *618:10 0.00190075
6 *1522:A2 *1113:441 3.96696e-05
7 *1609:A2 *1969:CLK 7.73683e-05
8 *618:10 *1517:A2 4.89392e-05
9 *618:10 *1632:B 0.00012816
10 *618:10 *1712:B 0.000122337
11 *618:10 *1713:B 1.83294e-06
12 *618:10 *1957:RESET_B 1.72432e-05
13 *618:10 *1969:CLK 7.98171e-06
14 *618:10 *2174:A 0.000114271
15 *618:10 *626:14 0.000398158
16 *1522:A1 *1522:A2 6.3657e-05
17 *1606:A *1522:A2 0.000134676
18 *1606:A *1609:A2 0.000129406
19 *1607:A2 *618:10 0.000293586
20 *1608:A *1609:A2 4.94594e-05
21 *1695:A *618:10 0.000114271
22 *1714:A *618:10 9.3518e-05
23 *1957:D *618:10 9.43222e-06
24 *117:14 *1522:A2 5.65046e-05
25 *117:14 *1609:A2 0.000203959
26 *185:436 *1609:A2 6.08467e-05
27 *388:10 *1522:A2 0.000159917
28 *388:16 *618:10 0.000164243
29 *388:30 *618:10 0.000274953
30 *616:6 *618:10 6.08467e-05
*RES
1 *1520:Y *618:10 48.9877 
2 *618:10 *618:12 4.5 
3 *618:12 *1609:A2 20.2544 
4 *618:12 *1522:A2 18.2442 
*END

*D_NET *619 0.00154031
*CONN
*I *1522:B1 I *D sky130_fd_sc_hd__o21ai_0
*I *1521:Y O *D sky130_fd_sc_hd__nand2_1
*CAP
1 *1522:B1 0.000277213
2 *1521:Y 0.000277213
3 *1522:A1 *1522:B1 0.000196454
4 *388:10 *1522:B1 0.000663915
5 *598:629 *1522:B1 6.27782e-05
6 *598:651 *1522:B1 6.27332e-05
*RES
1 *1521:Y *1522:B1 28.1436 
*END

*D_NET *620 0.00425283
*CONN
*I *1611:A2 I *D sky130_fd_sc_hd__o21ai_0
*I *1525:A2 I *D sky130_fd_sc_hd__o21ai_0
*I *1523:Y O *D sky130_fd_sc_hd__a21oi_1
*CAP
1 *1611:A2 0.000204264
2 *1525:A2 0.000174097
3 *1523:Y 0.000914104
4 *620:8 0.00129247
5 *1525:A2 *1968:CLK 0
6 *1525:A2 *1002:12 5.04829e-06
7 *1611:A2 *628:22 5.39004e-05
8 *1611:A2 *638:10 5.51483e-06
9 *1611:A2 *832:43 0.000200236
10 *620:8 *832:43 0.000903252
11 *620:8 *1130:8 0.000220183
12 *1610:A *1611:A2 2.65831e-05
13 *185:154 *1525:A2 1.42919e-05
14 *185:154 *1611:A2 6.31213e-05
15 *388:125 *1525:A2 3.46021e-05
16 *598:107 *1525:A2 1.65872e-05
17 *598:109 *1525:A2 0.000110458
18 *598:360 *1525:A2 1.41205e-05
*RES
1 *1523:Y *620:8 29.4468 
2 *620:8 *1525:A2 18.2442 
3 *620:8 *1611:A2 20.4599 
*END

*D_NET *621 0.000759938
*CONN
*I *1525:B1 I *D sky130_fd_sc_hd__o21ai_0
*I *1524:Y O *D sky130_fd_sc_hd__nand2_1
*CAP
1 *1525:B1 0.000126211
2 *1524:Y 0.000126211
3 *1525:B1 *1524:B 2.99287e-05
4 *598:107 *1525:B1 0.000477587
*RES
1 *1524:Y *1525:B1 23.6585 
*END

*D_NET *622 0.00185115
*CONN
*I *1613:A2 I *D sky130_fd_sc_hd__o21ai_0
*I *1528:A2 I *D sky130_fd_sc_hd__o21ai_0
*I *1526:Y O *D sky130_fd_sc_hd__a21oi_1
*CAP
1 *1613:A2 9.10555e-05
2 *1528:A2 0.000214178
3 *1526:Y 0.000192424
4 *622:6 0.000497658
5 *1528:A2 *1131:21 1.37921e-05
6 *1528:A2 *1131:23 3.76373e-05
7 *1528:A2 *1131:25 4.79669e-05
8 *1528:A2 *1131:27 9.34396e-06
9 *1613:A2 *1936:CLK 3.44843e-05
10 *622:6 *1526:A2 0.000159016
11 *622:6 *1721:B 0.000109427
12 *622:6 *1936:CLK 6.76659e-05
13 *1613:A1 *1613:A2 6.3657e-05
14 *1967:D *1528:A2 0.000127683
15 *185:67 *1528:A2 2.1667e-05
16 *185:73 *1528:A2 0.000163492
*RES
1 *1526:Y *622:6 14.4094 
2 *622:6 *1528:A2 25.4794 
3 *622:6 *1613:A2 11.6605 
*END

*D_NET *623 0.000767112
*CONN
*I *1528:B1 I *D sky130_fd_sc_hd__o21ai_0
*I *1527:Y O *D sky130_fd_sc_hd__nand2_1
*CAP
1 *1528:B1 5.23658e-05
2 *1527:Y 5.23658e-05
3 *1528:B1 *1527:B 3.14978e-05
4 *1528:B1 *1972:CLK 0.000430929
5 *1528:A1 *1528:B1 0.000199954
*RES
1 *1527:Y *1528:B1 23.1039 
*END

*D_NET *624 0.00258739
*CONN
*I *1615:A2 I *D sky130_fd_sc_hd__o21ai_0
*I *1531:A2 I *D sky130_fd_sc_hd__o21ai_0
*I *1529:Y O *D sky130_fd_sc_hd__a21oi_1
*CAP
1 *1615:A2 0.000161017
2 *1531:A2 1.51299e-05
3 *1529:Y 0.000646795
4 *624:12 0.000822942
5 *1615:A2 *1531:B1 0.000201483
6 *624:12 *1529:A2 0.00016386
7 *624:12 *1966:RESET_B 3.34925e-05
8 *1615:A1 *1615:A2 4.03096e-05
9 *1966:D *1531:A2 1.41181e-05
10 *1966:D *1615:A2 2.41274e-06
11 *1966:D *624:12 9.23516e-05
12 *598:177 *1531:A2 6.64392e-05
13 *598:177 *1615:A2 0.000249205
14 *598:324 *1615:A2 7.78326e-05
*RES
1 *1529:Y *624:12 28.8449 
2 *624:12 *1531:A2 9.97254 
3 *624:12 *1615:A2 16.2902 
*END

*D_NET *625 0.000491622
*CONN
*I *1531:B1 I *D sky130_fd_sc_hd__o21ai_0
*I *1530:Y O *D sky130_fd_sc_hd__nand2_1
*CAP
1 *1531:B1 0.00014507
2 *1530:Y 0.00014507
3 *1615:A2 *1531:B1 0.000201483
*RES
1 *1530:Y *1531:B1 22.5734 
*END

*D_NET *626 0.00310621
*CONN
*I *1617:A2 I *D sky130_fd_sc_hd__o21ai_0
*I *1534:A2 I *D sky130_fd_sc_hd__o21ai_0
*I *1532:Y O *D sky130_fd_sc_hd__a21oi_1
*CAP
1 *1617:A2 0.000202685
2 *1534:A2 0
3 *1532:Y 0.000504113
4 *626:14 0.000706797
5 *1617:A2 *1533:B 0.000101056
6 *1617:A2 *1534:B1 0.000169872
7 *626:14 *1520:A2 0
8 *626:14 *1532:A2 0.000158877
9 *626:14 *1926:RESET_B 5.36834e-05
10 *626:14 *1957:RESET_B 0
11 *626:14 *1957:CLK 0.000351493
12 *626:14 *788:14 0
13 *1235:B *1617:A2 0
14 *1520:A1 *626:14 4.79321e-06
15 *1532:B1 *626:14 1.00766e-05
16 *1534:A1 *1617:A2 0.000232467
17 *1534:A1 *626:14 6.92705e-05
18 *1934:D *1617:A2 1.61631e-05
19 *1965:D *1617:A2 6.50586e-05
20 *1965:D *626:14 4.33819e-05
21 *458:239 *626:14 1.82679e-05
22 *618:10 *626:14 0.000398158
*RES
1 *1532:Y *626:14 33.8602 
2 *626:14 *1534:A2 9.24915 
3 *626:14 *1617:A2 17.2547 
*END

*D_NET *627 0.00049865
*CONN
*I *1534:B1 I *D sky130_fd_sc_hd__o21ai_0
*I *1533:Y O *D sky130_fd_sc_hd__nand2_1
*CAP
1 *1534:B1 0.000137328
2 *1533:Y 0.000137328
3 *1534:B1 *1926:RESET_B 5.41227e-05
4 *1534:B1 *1934:CLK 0
5 *1617:A2 *1534:B1 0.000169872
6 *1617:B1 *1534:B1 0
*RES
1 *1533:Y *1534:B1 30.3324 
*END

*D_NET *628 0.00416868
*CONN
*I *1619:A2 I *D sky130_fd_sc_hd__o21ai_0
*I *1537:A2 I *D sky130_fd_sc_hd__o21ai_0
*I *1535:Y O *D sky130_fd_sc_hd__a21oi_1
*CAP
1 *1619:A2 4.42907e-05
2 *1537:A2 0.000327342
3 *1535:Y 0.000916589
4 *628:22 0.00128822
5 *1537:A2 *1537:B1 8.62625e-06
6 *1537:A2 *1964:CLK 4.20662e-05
7 *1537:A2 *1113:773 0
8 *1619:A2 *1618:B 2.11945e-05
9 *628:22 *1610:B 0.000540713
10 *628:22 *1618:B 3.14978e-05
11 *628:22 *638:10 0.000365582
12 *628:22 *1130:94 0
13 *1202:A *1537:A2 0
14 *1535:B1 *628:22 2.41274e-06
15 *1537:A1 *1537:A2 6.46815e-05
16 *1611:A2 *628:22 5.39004e-05
17 *1618:A *1619:A2 9.10079e-05
18 *1619:A1 *1619:A2 7.21184e-07
19 *1619:B1 *1619:A2 0.000153494
20 *1964:D *1537:A2 0.000153746
21 *185:154 *628:22 4.0143e-05
22 *185:178 *628:22 2.24484e-05
23 *388:125 *1537:A2 0
24 *388:212 *1537:A2 0
*RES
1 *1535:Y *628:22 39.9281 
2 *628:22 *1537:A2 26.2517 
3 *628:22 *1619:A2 11.6605 
*END

*D_NET *629 0.00109437
*CONN
*I *1537:B1 I *D sky130_fd_sc_hd__o21ai_0
*I *1536:Y O *D sky130_fd_sc_hd__nand2_1
*CAP
1 *1537:B1 0.000315906
2 *1536:Y 0.000315906
3 *1537:B1 *2168:A 0.00040493
4 *1537:B1 *1113:773 0
5 *1202:A *1537:B1 0
6 *1537:A1 *1537:B1 4.9e-05
7 *1537:A2 *1537:B1 8.62625e-06
*RES
1 *1536:Y *1537:B1 33.5207 
*END

*D_NET *630 0.0061009
*CONN
*I *1621:A2 I *D sky130_fd_sc_hd__o21ai_0
*I *1540:A2 I *D sky130_fd_sc_hd__o21ai_0
*I *1538:Y O *D sky130_fd_sc_hd__a21oi_1
*CAP
1 *1621:A2 0.000328636
2 *1540:A2 0.000227046
3 *1538:Y 0.00137049
4 *630:10 0.00192618
5 *1540:A2 *1959:RESET_B 6.49659e-05
6 *1540:A2 *1001:16 0.000161243
7 *1540:A2 *1132:37 0.000144525
8 *1621:A2 *1963:RESET_B 0
9 *1621:A2 *1963:CLK 6.3657e-05
10 *1621:A2 *1132:39 0
11 *630:10 *1566:B 1.80601e-05
12 *630:10 *1959:RESET_B 0.000104815
13 *630:10 *650:10 0.000176959
14 *630:10 *992:16 2.60765e-05
15 *630:10 *1111:46 6.8293e-05
16 *630:10 *1111:55 0.000711255
17 *1566:A *630:10 1.0759e-05
18 *1720:B *630:10 4.89392e-05
19 *1959:D *630:10 2.16355e-05
20 *1963:D *1621:A2 3.80309e-05
21 *598:366 *630:10 0.000545043
22 *598:450 *1540:A2 1.8489e-05
23 *598:459 *1540:A2 2.57986e-05
*RES
1 *1538:Y *630:10 40.524 
2 *630:10 *1540:A2 25.1556 
3 *630:10 *1621:A2 25.4168 
*END

*D_NET *631 0.000227378
*CONN
*I *1540:B1 I *D sky130_fd_sc_hd__o21ai_0
*I *1539:Y O *D sky130_fd_sc_hd__nand2_1
*CAP
1 *1540:B1 4.74236e-05
2 *1539:Y 4.74236e-05
3 *1540:B1 *1539:B 6.27782e-05
4 *598:459 *1540:B1 6.97525e-05
*RES
1 *1539:Y *1540:B1 20.3309 
*END

*D_NET *632 0.00196722
*CONN
*I *1623:A2 I *D sky130_fd_sc_hd__o21ai_0
*I *1543:A2 I *D sky130_fd_sc_hd__o21ai_0
*I *1541:Y O *D sky130_fd_sc_hd__a21oi_1
*CAP
1 *1623:A2 8.82274e-05
2 *1543:A2 0.000117345
3 *1541:Y 0.000284644
4 *632:6 0.000490216
5 *1543:A2 *722:12 0.000301374
6 *1543:A2 *838:39 0.000297777
7 *1623:A2 *1713:A 1.65872e-05
8 *1623:A1 *1623:A2 6.27718e-05
9 *1623:A1 *632:6 5.12085e-05
10 *1623:B1 *1623:A2 4.76161e-06
11 *598:232 *632:6 0.000252308
*RES
1 *1541:Y *632:6 13.8548 
2 *632:6 *1543:A2 23.8184 
3 *632:6 *1623:A2 11.6846 
*END

*D_NET *633 0.00144514
*CONN
*I *1543:B1 I *D sky130_fd_sc_hd__o21ai_0
*I *1542:Y O *D sky130_fd_sc_hd__nand2_1
*CAP
1 *1543:B1 0.000360226
2 *1542:Y 0.000360226
3 *1543:B1 *1542:B 6.08467e-05
4 *1543:B1 *1962:CLK 2.65831e-05
5 *1543:B1 *642:22 0.000564663
6 *1962:D *1543:B1 5.84033e-05
7 *598:332 *1543:B1 1.41976e-05
*RES
1 *1542:Y *1543:B1 32.7733 
*END

*D_NET *634 0.0023074
*CONN
*I *1546:A2 I *D sky130_fd_sc_hd__o21ai_0
*I *1625:A2 I *D sky130_fd_sc_hd__o21ai_0
*I *1544:Y O *D sky130_fd_sc_hd__a21oi_1
*CAP
1 *1546:A2 2.61546e-05
2 *1625:A2 0.000278914
3 *1544:Y 0.000173998
4 *634:6 0.000479067
5 *1546:A2 *1529:A2 4.85806e-05
6 *1625:A2 *1578:A1 0
7 *1625:A2 *1124:20 5.6562e-05
8 *634:6 *1529:A2 0.000647162
9 *634:6 *1544:A2 2.99747e-05
10 *634:6 *1749:A 0.000122337
11 *634:6 *834:23 6.27718e-05
12 *1544:B1 *634:6 7.01935e-06
13 *1546:A1 *1546:A2 6.09386e-05
14 *1546:A1 *634:6 5.04829e-06
15 *1625:A1 *1625:A2 9.402e-05
16 *1750:B *634:6 9.44631e-06
17 *1922:D *1625:A2 0.000163784
18 *1930:D *1625:A2 4.16236e-05
*RES
1 *1544:Y *634:6 17.1824 
2 *634:6 *1625:A2 25.9269 
3 *634:6 *1546:A2 10.5513 
*END

*D_NET *635 0.000228161
*CONN
*I *1546:B1 I *D sky130_fd_sc_hd__o21ai_0
*I *1545:Y O *D sky130_fd_sc_hd__nand2_1
*CAP
1 *1546:B1 1.92263e-05
2 *1545:Y 1.92263e-05
3 *1546:B1 *1545:B 6.81572e-05
4 *1546:A1 *1546:B1 0.000117376
5 *1961:D *1546:B1 4.17531e-06
*RES
1 *1545:Y *1546:B1 19.7763 
*END

*D_NET *636 0.00480612
*CONN
*I *1571:A2 I *D sky130_fd_sc_hd__o21ai_0
*I *1564:A2 I *D sky130_fd_sc_hd__o221ai_1
*I *1548:A I *D sky130_fd_sc_hd__nor2_1
*I *1667:C I *D sky130_fd_sc_hd__nor4_4
*I *1547:Y O *D sky130_fd_sc_hd__nand2_4
*CAP
1 *1571:A2 0
2 *1564:A2 9.3883e-05
3 *1548:A 0
4 *1667:C 0.000333701
5 *1547:Y 4.1182e-05
6 *636:29 0.000424021
7 *636:23 0.000663131
8 *636:6 0.000707876
9 *1564:A2 *1564:B1 7.48273e-05
10 *1564:A2 *1565:B1 1.58551e-05
11 *1667:C *839:23 0.000134849
12 *636:6 *839:23 2.16355e-05
13 *636:23 *1601:A 0
14 *636:23 *847:16 5.34502e-05
15 *636:29 *1552:B1 0.000124988
16 *636:29 *1564:C1 0.000493012
17 *636:29 *1571:B1 0.000214609
18 *636:29 *637:23 3.55179e-05
19 *636:29 *847:16 0.000417622
20 *1272:A1 *636:23 8.01987e-05
21 *1284:A1 *1667:C 0
22 *1286:C *1667:C 0
23 *1286:D *1667:C 0
24 *1286:D *636:23 3.14544e-05
25 *1548:B *1564:A2 0.000326668
26 *453:29 *636:23 0.00050888
27 *453:29 *636:29 8.75441e-06
*RES
1 *1547:Y *636:6 9.97254 
2 *636:6 *1667:C 24.4081 
3 *636:6 *636:23 15.4675 
4 *636:23 *636:29 19.2537 
5 *636:29 *1548:A 9.24915 
6 *636:29 *1564:A2 13.3243 
7 *636:23 *1571:A2 13.7491 
*END

*D_NET *637 0.008812
*CONN
*I *1549:B1 I *D sky130_fd_sc_hd__a221oi_1
*I *1558:B1 I *D sky130_fd_sc_hd__a221oi_1
*I *1555:B1 I *D sky130_fd_sc_hd__a221oi_1
*I *1552:B1 I *D sky130_fd_sc_hd__a221oi_1
*I *1548:Y O *D sky130_fd_sc_hd__nor2_1
*CAP
1 *1549:B1 0.000111855
2 *1558:B1 3.15294e-05
3 *1555:B1 0.000131236
4 *1552:B1 0.000209988
5 *1548:Y 0
6 *637:31 0.00121884
7 *637:23 0.00162016
8 *637:6 0.000662217
9 *1549:B1 *1549:A1 1.41307e-05
10 *1549:B1 *1549:B2 6.53744e-05
11 *1549:B1 *638:6 9.9774e-06
12 *1549:B1 *847:27 7.92757e-06
13 *1552:B1 *2127:CLK 0.000114976
14 *1552:B1 *847:16 0.000128571
15 *1555:B1 *1555:A1 4.58442e-05
16 *1555:B1 *642:16 0.000158877
17 *1558:B1 *786:20 4.4201e-05
18 *637:23 *1549:B2 0.000164843
19 *637:23 *1562:A 5.13058e-05
20 *637:23 *847:16 0.000716253
21 *637:31 cio_gpio_en_o[3] 0.000141202
22 *637:31 cio_gpio_o[1] 1.91246e-05
23 *637:31 *1555:B2 0
24 *637:31 *1576:A2 0.000209824
25 *637:31 *1582:A2 0
26 *637:31 *1930:CLK 4.37999e-05
27 *637:31 *2089:D 0
28 *637:31 *786:20 0.000146617
29 *637:31 *853:28 5.57646e-06
30 *637:31 *910:63 0.000185257
31 *637:31 *1123:8 5.62448e-05
32 *637:31 *1123:88 8.5219e-05
33 *1552:C1 *1552:B1 6.08467e-05
34 *1558:C1 *1555:B1 0.000216467
35 *1583:A *637:31 0.000775927
36 *1742:A2 *1555:B1 5.0187e-05
37 *1742:A2 *637:31 0
38 *453:40 *637:31 0.000175305
39 *453:55 *637:31 0.000416018
40 *458:10 *637:23 2.22198e-05
41 *458:10 *637:31 0.000222131
42 *458:23 *637:23 0.00016998
43 *458:210 *1555:B1 0.000141444
44 *636:29 *1552:B1 0.000124988
45 *636:29 *637:23 3.55179e-05
*RES
1 *1548:Y *637:6 13.7491 
2 *637:6 *1552:B1 20.0474 
3 *637:6 *637:23 21.0374 
4 *637:23 *637:31 40.8712 
5 *637:31 *1555:B1 27.8017 
6 *637:31 *1558:B1 14.7506 
7 *637:23 *1549:B1 12.0704 
*END

*D_NET *638 0.00867995
*CONN
*I *1627:A2 I *D sky130_fd_sc_hd__o21ai_0
*I *1551:A2 I *D sky130_fd_sc_hd__o21ai_0
*I *1549:Y O *D sky130_fd_sc_hd__a221oi_1
*CAP
1 *1627:A2 0.000280301
2 *1551:A2 0
3 *1549:Y 3.23147e-05
4 *638:12 0.000493276
5 *638:10 0.00280288
6 *638:6 0.00262222
7 *1627:A2 *2143:A 4.29314e-06
8 *1627:A2 *785:8 0.000115805
9 *638:10 *1610:B 0.000133753
10 *638:10 *1618:B 7.34948e-06
11 *638:10 *1953:CLK 3.52061e-05
12 *638:10 *790:8 0.000360145
13 *638:10 *985:12 0.000164843
14 *1535:B1 *638:10 2.77625e-06
15 *1549:A2 *638:10 1.41181e-05
16 *1549:B1 *638:6 9.9774e-06
17 *1610:A *638:10 0.000369413
18 *1611:A2 *638:10 5.51483e-06
19 *1626:A *1627:A2 2.29888e-05
20 *1904:A2 *638:10 4.97617e-05
21 *1904:B1 *638:10 1.19726e-05
22 *185:345 *1627:A2 7.57062e-05
23 *185:345 *638:12 0.000126655
24 *185:369 *1627:A2 0.000456573
25 *388:212 *638:12 0
26 *598:145 *638:12 4.43331e-05
27 *598:167 *1627:A2 6.91967e-05
28 *598:167 *638:12 3.00174e-06
29 *628:22 *638:10 0.000365582
*RES
1 *1549:Y *638:6 10.2378 
2 *638:6 *638:10 44.6003 
3 *638:10 *638:12 5.56926 
4 *638:12 *1551:A2 13.7491 
5 *638:12 *1627:A2 24.2297 
*END

*D_NET *639 0.000366185
*CONN
*I *1551:B1 I *D sky130_fd_sc_hd__o21ai_0
*I *1550:Y O *D sky130_fd_sc_hd__nand2_1
*CAP
1 *1551:B1 0.000155086
2 *1550:Y 0.000155086
3 *1551:B1 *1550:B 2.77242e-05
4 *1551:A1 *1551:B1 2.58757e-05
5 *1960:D *1551:B1 2.41274e-06
*RES
1 *1550:Y *1551:B1 22.0188 
*END

*D_NET *640 0.00624277
*CONN
*I *1554:A2 I *D sky130_fd_sc_hd__o21ai_0
*I *1629:A2 I *D sky130_fd_sc_hd__o21ai_0
*I *1552:Y O *D sky130_fd_sc_hd__a221oi_1
*CAP
1 *1554:A2 0.000339994
2 *1629:A2 0
3 *1552:Y 0.00212786
4 *640:18 0.000445778
5 *640:16 0.00223365
6 *1554:A2 *1928:RESET_B 0.000123626
7 *640:16 *1956:CLK 0.000422032
8 *640:16 *2127:D 2.9373e-05
9 *640:16 *2127:RESET_B 7.13387e-06
10 *640:16 *2127:CLK 0.000152969
11 *640:16 *784:14 0.000111802
12 *640:16 *1131:8 8.1597e-05
13 *640:18 *784:14 2.69435e-05
14 *640:18 *1131:19 0
15 *1628:A *1554:A2 1.41291e-05
16 *1629:B1 *1554:A2 3.8122e-05
17 *1928:D *1554:A2 6.36477e-05
18 *185:120 *640:18 2.81678e-06
19 *598:77 *1554:A2 2.12954e-05
*RES
1 *1552:Y *640:16 49.2438 
2 *640:16 *640:18 2.24725 
3 *640:18 *1629:A2 13.7491 
4 *640:18 *1554:A2 21.2368 
*END

*D_NET *641 0.00111049
*CONN
*I *1554:B1 I *D sky130_fd_sc_hd__o21ai_0
*I *1553:Y O *D sky130_fd_sc_hd__nand2_1
*CAP
1 *1554:B1 0.000309481
2 *1553:Y 0.000309481
3 *1554:B1 *784:14 0.000324166
4 *1554:B1 *1106:235 0
5 *1554:B1 *1111:65 2.7961e-05
6 *1959:D *1554:B1 2.12377e-05
7 *598:77 *1554:B1 0.000118166
*RES
1 *1553:Y *1554:B1 34.52 
*END

*D_NET *642 0.00886289
*CONN
*I *1631:A2 I *D sky130_fd_sc_hd__o21ai_0
*I *1557:A2 I *D sky130_fd_sc_hd__o21ai_0
*I *1555:Y O *D sky130_fd_sc_hd__a221oi_1
*CAP
1 *1631:A2 0.000106989
2 *1557:A2 0
3 *1555:Y 0.000855782
4 *642:22 0.00197351
5 *642:16 0.0027223
6 *642:16 *1751:A2 0
7 *642:16 *2506:A 0
8 *642:16 *644:16 9.54356e-05
9 *642:16 *788:14 0
10 *642:22 *1962:CLK 2.29203e-05
11 *642:22 *838:39 0.00130047
12 *1541:A1 *642:16 6.95248e-05
13 *1543:B1 *642:22 0.000564663
14 *1555:B1 *642:16 0.000158877
15 *1557:A1 *642:22 0.000433687
16 *1560:A1 *642:16 8.61152e-06
17 *1750:B *642:16 6.9916e-05
18 *1958:D *1631:A2 2.41483e-05
19 *1958:D *642:22 0.000163912
20 *185:335 *1631:A2 7.34948e-06
21 *185:335 *642:22 2.41483e-05
22 *185:407 *1631:A2 2.41483e-05
23 *458:210 *642:16 0.000168247
24 *598:332 *642:22 1.19856e-05
25 *611:64 *642:16 0
26 *611:66 *642:16 5.62568e-05
*RES
1 *1555:Y *642:16 36.3786 
2 *642:16 *642:22 36.2663 
3 *642:22 *1557:A2 9.24915 
4 *642:22 *1631:A2 20.829 
*END

*D_NET *643 0.00118688
*CONN
*I *1557:B1 I *D sky130_fd_sc_hd__o21ai_0
*I *1556:Y O *D sky130_fd_sc_hd__nand2_1
*CAP
1 *1557:B1 0.000398051
2 *1556:Y 0.000398051
3 *1630:A *1557:B1 0.000350688
4 *185:407 *1557:B1 1.00937e-05
5 *598:629 *1557:B1 2.99929e-05
*RES
1 *1556:Y *1557:B1 35.0639 
*END

*D_NET *644 0.00326363
*CONN
*I *1560:A2 I *D sky130_fd_sc_hd__o21ai_0
*I *1633:A2 I *D sky130_fd_sc_hd__o21ai_0
*I *1558:Y O *D sky130_fd_sc_hd__a221oi_1
*CAP
1 *1560:A2 0.000167426
2 *1633:A2 0
3 *1558:Y 0.000923681
4 *644:16 0.00109111
5 *1560:A2 *788:14 3.57378e-06
6 *644:16 *1541:A2 7.34948e-06
7 *644:16 *1555:B2 0.000413833
8 *644:16 *786:20 7.37686e-05
9 *644:16 *788:8 0.000158357
10 *644:16 *788:14 2.93302e-05
11 *644:16 *845:31 8.37016e-05
12 *644:16 *849:16 6.6775e-05
13 *644:16 *853:28 7.73661e-05
14 *1560:A1 *1560:A2 1.03594e-05
15 *1633:A1 *1560:A2 1.36862e-05
16 *1752:A2 *644:16 4.78808e-05
17 *642:16 *644:16 9.54356e-05
*RES
1 *1558:Y *644:16 39.8924 
2 *644:16 *1633:A2 13.7491 
3 *644:16 *1560:A2 18.0727 
*END

*D_NET *645 0.000741977
*CONN
*I *1560:B1 I *D sky130_fd_sc_hd__o21ai_0
*I *1559:Y O *D sky130_fd_sc_hd__nand2_1
*CAP
1 *1560:B1 9.26714e-05
2 *1559:Y 9.26714e-05
3 *1541:A1 *1560:B1 0.00015146
4 *1560:A1 *1560:B1 8.76174e-05
5 *1633:B1 *1560:B1 0.000317556
*RES
1 *1559:Y *1560:B1 24.2131 
*END

*D_NET *646 0.0041626
*CONN
*I *1564:A1 I *D sky130_fd_sc_hd__o221ai_1
*I *1832:A1 I *D sky130_fd_sc_hd__o21ai_0
*I *1561:Y O *D sky130_fd_sc_hd__inv_1
*CAP
1 *1564:A1 0.00101698
2 *1832:A1 0.000477142
3 *1561:Y 0
4 *646:4 0.00149413
5 *1564:A1 *1562:A 6.64843e-05
6 *1564:A1 *1564:B1 0.000132735
7 *1564:A1 *1898:A1 4.57062e-05
8 *1832:A1 *2084:CLK 6.64671e-06
9 *1832:A1 *1141:35 1.60037e-05
10 *1832:A1 *1142:167 1.17568e-05
11 *1832:A1 *1142:173 0
12 *1564:B2 *1564:A1 3.28433e-06
13 *1832:B1 *1832:A1 1.5714e-05
14 *1897:B *1564:A1 0.000136722
15 *1897:B *1832:A1 0.000284338
16 *1898:B1 *1564:A1 0.000258195
17 *224:46 *1832:A1 6.27782e-05
18 *224:55 *1832:A1 1.88422e-05
19 *224:68 *1564:A1 2.77625e-06
20 *340:10 *1832:A1 0.000112367
*RES
1 *1561:Y *646:4 9.24915 
2 *646:4 *1832:A1 31.0122 
3 *646:4 *1564:A1 35.2228 
*END

*D_NET *647 0.0043299
*CONN
*I *1901:B I *D sky130_fd_sc_hd__nor2_1
*I *1564:B1 I *D sky130_fd_sc_hd__o221ai_1
*I *1898:A1 I *D sky130_fd_sc_hd__o21ai_0
*I *1562:Y O *D sky130_fd_sc_hd__inv_1
*CAP
1 *1901:B 0.000467095
2 *1564:B1 0.000212163
3 *1898:A1 0.000718484
4 *1562:Y 0
5 *647:21 0.000710305
6 *647:4 0.00074953
7 *1564:B1 *1565:B1 0.000262694
8 *1898:A1 *1562:A 0.000113593
9 *1898:A1 *1898:A2 6.46815e-05
10 *1901:B *2092:RESET_B 1.32043e-05
11 *1901:B *2092:CLK 0.000255277
12 *1901:B *2128:D 9.29919e-05
13 *1901:B *832:43 2.71542e-05
14 *1901:B *846:10 0
15 *1548:B *1564:B1 2.74378e-05
16 *1552:A2 *1564:B1 5.46907e-05
17 *1564:A1 *1564:B1 0.000132735
18 *1564:A1 *1898:A1 4.57062e-05
19 *1564:A2 *1564:B1 7.48273e-05
20 *1898:B1 *1898:A1 4.61271e-05
21 *224:68 *1898:A1 6.46815e-05
22 *457:38 *1901:B 0
23 *611:10 *1564:B1 0.000196526
*RES
1 *1562:Y *647:4 9.24915 
2 *647:4 *1898:A1 22.2823 
3 *647:4 *647:21 0.446094 
4 *647:21 *1564:B1 27.0872 
5 *647:21 *1901:B 27.7301 
*END

*D_NET *648 0.00247845
*CONN
*I *1564:C1 I *D sky130_fd_sc_hd__o221ai_1
*I *1571:B1 I *D sky130_fd_sc_hd__o21ai_0
*I *1563:Y O *D sky130_fd_sc_hd__inv_1
*CAP
1 *1564:C1 0.000151762
2 *1571:B1 0.000166442
3 *1563:Y 9.65667e-05
4 *648:8 0.000414771
5 *1571:B1 *1572:C1 6.3657e-05
6 *648:8 *2127:RESET_B 0.000131487
7 *421:33 *1571:B1 0.000134306
8 *453:29 *1571:B1 6.24193e-05
9 *458:23 *1564:C1 0.000159127
10 *458:31 *1564:C1 0.00033617
11 *458:31 *1571:B1 5.41227e-05
12 *636:29 *1564:C1 0.000493012
13 *636:29 *1571:B1 0.000214609
*RES
1 *1563:Y *648:8 15.3044 
2 *648:8 *1571:B1 20.0687 
3 *648:8 *1564:C1 22.6404 
*END

*D_NET *649 0.00225703
*CONN
*I *1565:B1 I *D sky130_fd_sc_hd__a31oi_1
*I *1564:Y O *D sky130_fd_sc_hd__o221ai_1
*CAP
1 *1565:B1 0.000859759
2 *1564:Y 0.000859759
3 *1565:B1 *1565:A1 0.000110458
4 *1565:B1 *831:19 4.23858e-05
5 *1548:B *1565:B1 5.99529e-06
6 *1564:A2 *1565:B1 1.58551e-05
7 *1564:B1 *1565:B1 0.000262694
8 *1565:A3 *1565:B1 0.000100125
*RES
1 *1564:Y *1565:B1 33.4726 
*END

*D_NET *650 0.00180349
*CONN
*I *1567:A2 I *D sky130_fd_sc_hd__o21ai_0
*I *1635:A2 I *D sky130_fd_sc_hd__o21ai_0
*I *1565:Y O *D sky130_fd_sc_hd__a31oi_1
*CAP
1 *1567:A2 0
2 *1635:A2 8.96081e-05
3 *1565:Y 0.00024589
4 *650:10 0.000335499
5 *650:10 *1538:A2 0.000589588
6 *650:10 *1565:A1 6.08467e-05
7 *1538:A1 *650:10 2.60765e-05
8 *458:105 *1635:A2 3.08403e-05
9 *598:366 *1635:A2 2.86829e-05
10 *598:366 *650:10 6.08467e-05
11 *611:136 *1635:A2 0.000158651
12 *630:10 *650:10 0.000176959
*RES
1 *1565:Y *650:10 19.0391 
2 *650:10 *1635:A2 21.3269 
3 *650:10 *1567:A2 9.24915 
*END

*D_NET *651 0.00052717
*CONN
*I *1567:B1 I *D sky130_fd_sc_hd__o21ai_0
*I *1566:Y O *D sky130_fd_sc_hd__nand2_1
*CAP
1 *1567:B1 9.72519e-05
2 *1566:Y 9.72519e-05
3 *1567:B1 *1566:B 2.58757e-05
4 *598:366 *1567:B1 0.000306791
*RES
1 *1566:Y *1567:B1 21.9947 
*END

*D_NET *652 0.0081545
*CONN
*I *1583:B I *D sky130_fd_sc_hd__nor2_1
*I *1577:B I *D sky130_fd_sc_hd__nor2_1
*I *1569:B I *D sky130_fd_sc_hd__nor2_1
*I *1568:Y O *D sky130_fd_sc_hd__nand2_1
*CAP
1 *1583:B 0.000372624
2 *1577:B 0
3 *1569:B 0
4 *1568:Y 0.000454797
5 *652:19 0.00152749
6 *652:10 0.00160966
7 *1583:B *1578:A1 2.71366e-05
8 *1583:B *1584:A1 4.8363e-06
9 *1583:B *1930:CLK 0.000400321
10 *1583:B *790:12 3.06239e-05
11 *1583:B *1113:86 6.88784e-05
12 *652:10 *1110:436 0
13 *652:10 *1136:63 5.04829e-06
14 *652:19 *1565:A1 1.47716e-05
15 *652:19 *1572:A1 2.8322e-05
16 *652:19 *1572:B1 0.000178954
17 *652:19 *1578:A1 5.19347e-05
18 *652:19 *1578:C1 0
19 *652:19 *1584:A1 4.84618e-05
20 *652:19 *1769:A 0.000274413
21 *652:19 *1903:A2 2.09356e-05
22 *652:19 *1903:C1 0.000220747
23 *652:19 *778:50 0.000516021
24 *1569:A *652:10 5.03545e-06
25 *1569:A *652:19 1.94615e-05
26 *1583:A *1583:B 6.92705e-05
27 *1605:A2 *652:10 0
28 *1749:B *1583:B 5.05252e-05
29 *1768:B *652:19 3.26247e-05
30 *1940:D *652:10 0
31 *450:56 *652:10 0
32 *450:67 *652:19 0.000704908
33 *450:78 *652:19 0.00135331
34 *477:32 *1583:B 6.08467e-05
35 *611:53 *652:19 2.53624e-06
*RES
1 *1568:Y *652:10 21.0173 
2 *652:10 *1569:B 13.7491 
3 *652:10 *652:19 42.942 
4 *652:19 *1577:B 13.7491 
5 *652:19 *1583:B 30.9116 
*END

*D_NET *653 0.000817682
*CONN
*I *1572:B1 I *D sky130_fd_sc_hd__a311oi_1
*I *1569:Y O *D sky130_fd_sc_hd__nor2_1
*CAP
1 *1572:B1 0.000176139
2 *1569:Y 0.000176139
3 *1572:B1 *1526:A2 0.000107496
4 *1569:A *1572:B1 9.29777e-05
5 *1768:B *1572:B1 8.5976e-05
6 *652:19 *1572:B1 0.000178954
*RES
1 *1569:Y *1572:B1 32.2693 
*END

*D_NET *654 0.00148502
*CONN
*I *1571:A1 I *D sky130_fd_sc_hd__o21ai_0
*I *1672:A1 I *D sky130_fd_sc_hd__o21ai_0
*I *1570:Y O *D sky130_fd_sc_hd__inv_1
*CAP
1 *1571:A1 4.88223e-05
2 *1672:A1 0.00037738
3 *1570:Y 0
4 *654:4 0.000426203
5 *1672:A1 *1236:A 3.39578e-05
6 *1672:A1 *1570:A 3.19445e-05
7 *1672:A1 *2047:RESET_B 0.000112361
8 *224:12 *1672:A1 0.000159032
9 *224:21 *1672:A1 3.32903e-05
10 *421:6 *1672:A1 1.85511e-05
11 *421:33 *1571:A1 5.51254e-05
12 *421:33 *1672:A1 0.000188354
*RES
1 *1570:Y *654:4 9.24915 
2 *654:4 *1672:A1 19.7022 
3 *654:4 *1571:A1 10.8286 
*END

*D_NET *655 0.00198729
*CONN
*I *1572:C1 I *D sky130_fd_sc_hd__a311oi_1
*I *1571:Y O *D sky130_fd_sc_hd__o21ai_0
*CAP
1 *1572:C1 0.000568883
2 *1571:Y 0.000568883
3 *1572:C1 *1526:A2 0.000366027
4 *1571:B1 *1572:C1 6.3657e-05
5 *421:33 *1572:C1 0.000149337
6 *450:67 *1572:C1 0.000160047
7 *457:23 *1572:C1 0.000110458
*RES
1 *1571:Y *1572:C1 31.4953 
*END

*D_NET *656 0.00173411
*CONN
*I *1574:A2 I *D sky130_fd_sc_hd__o21ai_0
*I *1637:A2 I *D sky130_fd_sc_hd__o21ai_0
*I *1572:Y O *D sky130_fd_sc_hd__a311oi_1
*CAP
1 *1574:A2 0.000178101
2 *1637:A2 0.000106847
3 *1572:Y 0.000361021
4 *656:8 0.000645969
5 *1574:A2 *1924:CLK 4.88333e-05
6 *1637:A2 *1924:CLK 0.000112987
7 *656:8 *1526:A2 0.000100505
8 *1924:D *1574:A2 1.37566e-05
9 *1924:D *1637:A2 5.85936e-05
10 *421:33 *656:8 0.000107496
*RES
1 *1572:Y *656:8 19.464 
2 *656:8 *1637:A2 16.9002 
3 *656:8 *1574:A2 18.0727 
*END

*D_NET *657 0.000191769
*CONN
*I *1574:B1 I *D sky130_fd_sc_hd__o21ai_0
*I *1573:Y O *D sky130_fd_sc_hd__nand2_1
*CAP
1 *1574:B1 2.01447e-05
2 *1573:Y 2.01447e-05
3 *1574:B1 *1573:B 2.99287e-05
4 *1574:A1 *1574:B1 0.000117376
5 *1955:D *1574:B1 4.17531e-06
*RES
1 *1573:Y *1574:B1 19.7763 
*END

*D_NET *658 0.00314288
*CONN
*I *1576:A2 I *D sky130_fd_sc_hd__a21oi_1
*I *1674:A1 I *D sky130_fd_sc_hd__o21ai_0
*I *1575:Y O *D sky130_fd_sc_hd__inv_1
*CAP
1 *1576:A2 0.000347402
2 *1674:A1 0.0007233
3 *1575:Y 0
4 *658:4 0.0010707
5 *1576:A2 *1930:CLK 9.04224e-05
6 *1576:A2 *2042:RESET_B 0
7 *1576:A2 *2132:A 1.51778e-05
8 *1576:A2 *770:8 4.94526e-05
9 *1674:A1 *1293:A 2.38045e-05
10 *1674:A1 *2083:RESET_B 1.16404e-05
11 *1298:A1 *1674:A1 9.56067e-05
12 *1576:B1 *1576:A2 7.47061e-05
13 *1582:A1 *1576:A2 5.09367e-05
14 *1582:B1 *1576:A2 1.05106e-05
15 *1674:B1 *1674:A1 8.91956e-05
16 *224:79 *1674:A1 0
17 *453:55 *1576:A2 0.000114594
18 *477:32 *1576:A2 4.50582e-05
19 *477:32 *1674:A1 0.000120546
20 *637:31 *1576:A2 0.000209824
*RES
1 *1575:Y *658:4 9.24915 
2 *658:4 *1674:A1 30.3707 
3 *658:4 *1576:A2 27.7878 
*END

*D_NET *659 0.00266069
*CONN
*I *1578:B1 I *D sky130_fd_sc_hd__a311oi_1
*I *1576:Y O *D sky130_fd_sc_hd__a21oi_1
*CAP
1 *1578:B1 0
2 *1576:Y 0.00103217
3 *659:20 0.00103217
4 *659:20 *773:38 1.88529e-06
5 *659:20 *832:27 0.000508156
6 *659:20 *1141:46 2.41274e-06
7 *1576:B1 *659:20 6.75453e-05
8 *453:55 *659:20 1.6352e-05
*RES
1 *1576:Y *659:20 43.7307 
2 *659:20 *1578:B1 9.24915 
*END

*D_NET *660 0.000569821
*CONN
*I *1578:C1 I *D sky130_fd_sc_hd__a311oi_1
*I *1577:Y O *D sky130_fd_sc_hd__nor2_1
*CAP
1 *1578:C1 0.000243192
2 *1577:Y 0.000243192
3 *1578:C1 *1578:A1 1.79672e-05
4 *1578:C1 *1930:CLK 2.41916e-05
5 *1578:C1 *1953:RESET_B 0
6 *1577:A *1578:C1 1.43848e-05
7 *1625:A1 *1578:C1 2.68928e-05
8 *652:19 *1578:C1 0
*RES
1 *1577:Y *1578:C1 32.1327 
*END

*D_NET *661 0.00347994
*CONN
*I *1639:A2 I *D sky130_fd_sc_hd__o21ai_0
*I *1580:A2 I *D sky130_fd_sc_hd__o21ai_0
*I *1578:Y O *D sky130_fd_sc_hd__a311oi_1
*CAP
1 *1639:A2 3.98653e-05
2 *1580:A2 0.000218145
3 *1578:Y 0.000835971
4 *661:10 0.00109398
5 *1638:A *1639:A2 2.08274e-05
6 *1641:A2 *661:10 4.85806e-05
7 *1641:B1 *661:10 0.000135357
8 *1696:A *1580:A2 0.000198882
9 *1732:A *661:10 2.30636e-05
10 *1923:D *1580:A2 0
11 *1954:D *1580:A2 0.000127164
12 *181:10 *661:10 0.000211539
13 *185:178 *1580:A2 9.04726e-06
14 *185:187 *1639:A2 6.77815e-05
15 *185:187 *661:10 8.32712e-05
16 *185:189 *661:10 4.98867e-05
17 *185:191 *661:10 2.56212e-05
18 *388:220 *1580:A2 3.27437e-05
19 *388:220 *1639:A2 0.000195438
20 *388:220 *661:10 6.27782e-05
*RES
1 *1578:Y *661:10 24.4405 
2 *661:10 *1580:A2 25.0642 
3 *661:10 *1639:A2 11.6364 
*END

*D_NET *662 0.00160835
*CONN
*I *1580:B1 I *D sky130_fd_sc_hd__o21ai_0
*I *1579:Y O *D sky130_fd_sc_hd__nand2_1
*CAP
1 *1580:B1 0.000646148
2 *1579:Y 0.000646148
3 *1580:B1 *1923:CLK 5.73215e-05
4 *1580:B1 *1113:292 2.398e-06
5 *1580:B1 *1129:61 0.000181266
6 *1696:A *1580:B1 0
7 *598:173 *1580:B1 7.50722e-05
*RES
1 *1579:Y *1580:B1 38.9461 
*END

*D_NET *663 0.00320196
*CONN
*I *1582:A2 I *D sky130_fd_sc_hd__a21oi_1
*I *1676:A1 I *D sky130_fd_sc_hd__o21ai_0
*I *1581:Y O *D sky130_fd_sc_hd__inv_1
*CAP
1 *1582:A2 0.000277686
2 *1676:A1 0.000562741
3 *1581:Y 0.000283434
4 *663:10 0.00112386
5 *1582:A2 *790:12 0.000117694
6 *1676:A1 *2089:D 6.30746e-05
7 *1676:A1 *2089:CLK 4.26167e-05
8 *1676:A1 *2132:A 0.000108038
9 *663:10 *2041:RESET_B 0.000169817
10 *663:10 *769:12 2.3339e-05
11 *663:10 *790:12 3.28882e-05
12 *663:10 *834:23 0.000186721
13 *1583:A *1582:A2 0
14 *1583:A *663:10 0
15 *1674:B1 *1676:A1 0
16 *1676:B1 *1676:A1 0.000134648
17 *224:81 *1676:A1 6.50586e-05
18 *224:90 *1676:A1 1.03434e-05
19 *453:55 *1582:A2 0
20 *637:31 *1582:A2 0
*RES
1 *1581:Y *663:10 21.0131 
2 *663:10 *1676:A1 28.0167 
3 *663:10 *1582:A2 20.9794 
*END

*D_NET *664 0.000905723
*CONN
*I *1584:B1 I *D sky130_fd_sc_hd__a311oi_1
*I *1582:Y O *D sky130_fd_sc_hd__a21oi_1
*CAP
1 *1584:B1 0.000342817
2 *1582:Y 0.000342817
3 *1576:B1 *1584:B1 6.98337e-06
4 *457:59 *1584:B1 8.57967e-05
5 *457:61 *1584:B1 0.00012731
*RES
1 *1582:Y *1584:B1 24.2131 
*END

*D_NET *828 0.00184775
*CONN
*P axi_lite_i[0] I
*I *2219:A I *D sky130_fd_sc_hd__clkdlybuf4s50_1
*CAP
1 axi_lite_i[0] 0.000767743
2 *2219:A 0.000767743
3 *2219:A axi_lite_o[0] 0
4 *2219:A *2055:CLK 0
5 *2219:A *1135:26 0
6 *665:10 *2219:A 4.58003e-05
7 *720:14 *2219:A 0.000266465
8 *733:12 *2219:A 0
*RES
1 axi_lite_i[0] *2219:A 33.7363 
*END

*D_NET *827 0.00093547
*CONN
*P axi_lite_i[10] I
*I *2218:A I *D sky130_fd_sc_hd__clkdlybuf4s50_1
*CAP
1 axi_lite_i[10] 0.000404703
2 *2218:A 0.000404703
3 *1366:A *2218:A 0
4 *2193:A *2218:A 0.000126065
*RES
1 axi_lite_i[10] *2218:A 24.8739 
*END

*D_NET *826 0.000599304
*CONN
*P axi_lite_i[11] I
*I *2544:A I *D sky130_fd_sc_hd__dlygate4sd3_1
*CAP
1 axi_lite_i[11] 0.000188643
2 *2544:A 0.000188643
3 *2544:A *2217:A 9.19345e-05
4 *2535:A *2544:A 6.67357e-05
5 *2546:A *2544:A 6.33486e-05
6 *2560:A *2544:A 0
*RES
1 axi_lite_i[11] *2544:A 21.8652 
*END

*D_NET *823 0.000915271
*CONN
*P axi_lite_i[12] I
*I *2535:A I *D sky130_fd_sc_hd__dlygate4sd3_1
*CAP
1 axi_lite_i[12] 0.000242836
2 *2535:A 0.000242836
3 *2535:A *2216:A 0.000324267
4 *2535:A *2217:A 3.85975e-05
5 *2535:A *2544:A 6.67357e-05
*RES
1 axi_lite_i[12] *2535:A 24.3567 
*END

*D_NET *822 0.000233341
*CONN
*P axi_lite_i[13] I
*I *2546:A I *D sky130_fd_sc_hd__dlygate4sd3_1
*CAP
1 axi_lite_i[13] 8.49959e-05
2 *2546:A 8.49959e-05
3 *2546:A *2544:A 6.33486e-05
4 *2560:A *2546:A 0
*RES
1 axi_lite_i[13] *2546:A 18.3596 
*END

*D_NET *821 0.000225624
*CONN
*P axi_lite_i[15] I
*I *2548:A I *D sky130_fd_sc_hd__dlygate4sd3_1
*CAP
1 axi_lite_i[15] 0.000109244
2 *2548:A 0.000109244
3 *2548:A *2214:A 7.13655e-06
4 *2545:A *2548:A 0
*RES
1 axi_lite_i[15] *2548:A 18.5432 
*END

*D_NET *820 0.000631397
*CONN
*P axi_lite_i[16] I
*I *2563:A I *D sky130_fd_sc_hd__dlygate4sd3_1
*CAP
1 axi_lite_i[16] 0.000143259
2 *2563:A 0.000143259
3 *2545:A *2563:A 0.000180228
4 *2549:A *2563:A 9.79152e-05
5 *2556:A *2563:A 6.67357e-05
*RES
1 axi_lite_i[16] *2563:A 18.9257 
*END

*D_NET *819 0.000263007
*CONN
*P axi_lite_i[17] I
*I *2558:A I *D sky130_fd_sc_hd__dlygate4sd3_1
*CAP
1 axi_lite_i[17] 9.96631e-05
2 *2558:A 9.96631e-05
3 *2558:A *2194:A 0
4 *2534:A *2558:A 0
5 *2552:A *2558:A 6.36804e-05
*RES
1 axi_lite_i[17] *2558:A 18.5432 
*END

*D_NET *818 0.000286458
*CONN
*P axi_lite_i[18] I
*I *2565:A I *D sky130_fd_sc_hd__dlygate4sd3_1
*CAP
1 axi_lite_i[18] 7.69423e-05
2 *2565:A 7.69423e-05
3 *2543:A *2565:A 7.2593e-05
4 *2555:A *2565:A 5.99807e-05
*RES
1 axi_lite_i[18] *2565:A 18.5432 
*END

*D_NET *817 0.000308917
*CONN
*P axi_lite_i[19] I
*I *2561:A I *D sky130_fd_sc_hd__dlygate4sd3_1
*CAP
1 axi_lite_i[19] 0.000153252
2 *2561:A 0.000153252
3 *2561:A *2210:A 2.41274e-06
*RES
1 axi_lite_i[19] *2561:A 17.2572 
*END

*D_NET *816 0.000662163
*CONN
*P axi_lite_i[1] I
*I *2209:A I *D sky130_fd_sc_hd__clkdlybuf4s50_1
*CAP
1 axi_lite_i[1] 0.000331082
2 *2209:A 0.000331082
3 *2209:A *2532:A 0
4 *186:10 *2209:A 0
*RES
1 axi_lite_i[1] *2209:A 21.6912 
*END

*D_NET *815 0.000282021
*CONN
*P axi_lite_i[20] I
*I *2550:A I *D sky130_fd_sc_hd__dlygate4sd3_1
*CAP
1 axi_lite_i[20] 0.00014101
2 *2550:A 0.00014101
*RES
1 axi_lite_i[20] *2550:A 18.6197 
*END

*D_NET *813 0.000858707
*CONN
*P axi_lite_i[21] I
*I *2543:A I *D sky130_fd_sc_hd__dlygate4sd3_1
*CAP
1 axi_lite_i[21] 0.000321339
2 *2543:A 0.000321339
3 *2543:A cio_gpio_en_o[2] 2.1051e-05
4 *2543:A *2207:A 0
5 *2543:A *2565:A 7.2593e-05
6 cio_gpio_o[3] *2543:A 0
7 *2552:A *2543:A 0
8 *2555:A *2543:A 0.000122384
*RES
1 axi_lite_i[21] *2543:A 20.9691 
*END

*D_NET *812 0.000370633
*CONN
*P axi_lite_i[22] I
*I *2564:A I *D sky130_fd_sc_hd__dlygate4sd3_1
*CAP
1 axi_lite_i[22] 0.000171205
2 *2564:A 0.000171205
3 *2549:A *2564:A 0
4 *2559:A *2564:A 2.82227e-05
5 *682:12 *2564:A 0
*RES
1 axi_lite_i[22] *2564:A 20.2042 
*END

*D_NET *811 0.000369951
*CONN
*P axi_lite_i[23] I
*I *2541:A I *D sky130_fd_sc_hd__dlygate4sd3_1
*CAP
1 axi_lite_i[23] 0.000168686
2 *2541:A 0.000168686
3 *2541:A *2205:A 0
4 *2542:A *2541:A 3.25789e-05
5 *2547:A *2541:A 0
*RES
1 axi_lite_i[23] *2541:A 20.2042 
*END

*D_NET *810 0.000267568
*CONN
*P axi_lite_i[24] I
*I *2540:A I *D sky130_fd_sc_hd__dlygate4sd3_1
*CAP
1 axi_lite_i[24] 9.11146e-05
2 *2540:A 9.11146e-05
3 *2540:A *2204:A 1.91391e-05
4 *2547:A *2540:A 6.61996e-05
*RES
1 axi_lite_i[24] *2540:A 18.5432 
*END

*D_NET *809 0.00026983
*CONN
*P axi_lite_i[25] I
*I *2553:A I *D sky130_fd_sc_hd__dlygate4sd3_1
*CAP
1 axi_lite_i[25] 9.83281e-05
2 *2553:A 9.83281e-05
3 *2553:A *1998:CLK 0
4 *2553:A *2203:A 7.13655e-06
5 *2559:A *2553:A 6.60375e-05
*RES
1 axi_lite_i[25] *2553:A 18.5432 
*END

*D_NET *808 0.000222661
*CONN
*P axi_lite_i[26] I
*I *2556:A I *D sky130_fd_sc_hd__dlygate4sd3_1
*CAP
1 axi_lite_i[26] 4.61224e-05
2 *2556:A 4.61224e-05
3 *2556:A *2563:A 6.67357e-05
4 *2549:A *2556:A 6.36804e-05
*RES
1 axi_lite_i[26] *2556:A 17.7127 
*END

*D_NET *807 0.0011906
*CONN
*P axi_lite_i[27] I
*I *2547:A I *D sky130_fd_sc_hd__dlygate4sd3_1
*CAP
1 axi_lite_i[27] 0.000549641
2 *2547:A 0.000549641
3 *2547:A *2201:A 0
4 *2547:A *2204:A 2.51147e-05
5 *2547:A *2540:A 6.61996e-05
6 *2547:A *2541:A 0
*RES
1 axi_lite_i[27] *2547:A 27.1542 
*END

*D_NET *806 0.000374442
*CONN
*P axi_lite_i[28] I
*I *2542:A I *D sky130_fd_sc_hd__dlygate4sd3_1
*CAP
1 axi_lite_i[28] 0.000155849
2 *2542:A 0.000155849
3 *2542:A *2200:A 3.01656e-05
4 *2542:A *2205:A 0
5 *2542:A *2541:A 3.25789e-05
*RES
1 axi_lite_i[28] *2542:A 20.2042 
*END

*D_NET *805 0.000963389
*CONN
*P axi_lite_i[29] I
*I *2555:A I *D sky130_fd_sc_hd__dlygate4sd3_1
*CAP
1 axi_lite_i[29] 0.000278217
2 *2555:A 0.000278217
3 *2555:A *2543:A 0.000122384
4 *2555:A *2565:A 5.99807e-05
5 cio_gpio_o[3] *2555:A 0.00022459
*RES
1 axi_lite_i[29] *2555:A 21.5702 
*END

*D_NET *804 0.000406905
*CONN
*P axi_lite_i[30] I
*I *2559:A I *D sky130_fd_sc_hd__dlygate4sd3_1
*CAP
1 axi_lite_i[30] 0.000156323
2 *2559:A 0.000156323
3 *2559:A *2553:A 6.60375e-05
4 *2559:A *2564:A 2.82227e-05
5 *2559:A *1118:20 0
*RES
1 axi_lite_i[30] *2559:A 20.2042 
*END

*D_NET *802 0.00116424
*CONN
*P axi_lite_i[31] I
*I *2549:A I *D sky130_fd_sc_hd__dlygate4sd3_1
*CAP
1 axi_lite_i[31] 0.000418739
2 *2549:A 0.000418739
3 *2549:A *2556:A 6.36804e-05
4 *2549:A *2563:A 9.79152e-05
5 *2549:A *2564:A 0
6 *2545:A *2549:A 0.000165169
*RES
1 axi_lite_i[31] *2549:A 25.4932 
*END

*D_NET *801 0.00113774
*CONN
*P axi_lite_i[32] I
*I *2545:A I *D sky130_fd_sc_hd__dlygate4sd3_1
*CAP
1 axi_lite_i[32] 0.000382888
2 *2545:A 0.000382888
3 *2545:A *2197:A 2.65667e-05
4 *2545:A *2213:A 0
5 *2545:A *2548:A 0
6 *2545:A *2549:A 0.000165169
7 *2545:A *2563:A 0.000180228
*RES
1 axi_lite_i[32] *2545:A 24.6377 
*END

*D_NET *800 0.000478058
*CONN
*P axi_lite_i[33] I
*I *2554:A I *D sky130_fd_sc_hd__dlygate4sd3_1
*CAP
1 axi_lite_i[33] 0.000189721
2 *2554:A 0.000189721
3 *2554:A *2012:CLK 0
4 *2554:A *2195:A 0
5 *2534:A *2554:A 3.25789e-05
6 *2562:A *2554:A 6.60375e-05
*RES
1 axi_lite_i[33] *2554:A 20.3572 
*END

*D_NET *799 0.000393998
*CONN
*P axi_lite_i[34] I
*I *2552:A I *D sky130_fd_sc_hd__dlygate4sd3_1
*CAP
1 axi_lite_i[34] 0.000154633
2 *2552:A 0.000154633
3 *2552:A cio_gpio_en_o[2] 2.1051e-05
4 *2552:A *2194:A 0
5 *2552:A *2543:A 0
6 *2552:A *2558:A 6.36804e-05
*RES
1 axi_lite_i[34] *2552:A 20.2042 
*END

*D_NET *798 0.000502958
*CONN
*P axi_lite_i[47] I
*I *2193:A I *D sky130_fd_sc_hd__clkdlybuf4s50_1
*CAP
1 axi_lite_i[47] 0.000188447
2 *2193:A 0.000188447
3 *2193:A *2218:A 0.000126065
*RES
1 axi_lite_i[47] *2193:A 19.4728 
*END

*D_NET *797 0.00048885
*CONN
*P axi_lite_i[51] I
*I *2560:A I *D sky130_fd_sc_hd__dlygate4sd3_1
*CAP
1 axi_lite_i[51] 0.000244425
2 *2560:A 0.000244425
3 *2560:A *2191:A 0
4 *2560:A *2544:A 0
5 *2560:A *2546:A 0
*RES
1 axi_lite_i[51] *2560:A 20.2042 
*END

*D_NET *796 0.000259013
*CONN
*P axi_lite_i[52] I
*I *2562:A I *D sky130_fd_sc_hd__dlygate4sd3_1
*CAP
1 axi_lite_i[52] 9.64877e-05
2 *2562:A 9.64877e-05
3 *2562:A *2012:CLK 0
4 *2562:A *2554:A 6.60375e-05
*RES
1 axi_lite_i[52] *2562:A 18.5432 
*END

*D_NET *795 0.000372223
*CONN
*P axi_lite_i[53] I
*I *2534:A I *D sky130_fd_sc_hd__dlygate4sd3_1
*CAP
1 axi_lite_i[53] 0.000169822
2 *2534:A 0.000169822
3 *2534:A *2012:CLK 0
4 *2534:A *2554:A 3.25789e-05
5 *2534:A *2558:A 0
*RES
1 axi_lite_i[53] *2534:A 20.2042 
*END

*D_NET *794 0.000662449
*CONN
*P axi_lite_i[54] I
*I *2557:A I *D sky130_fd_sc_hd__dlygate4sd3_1
*CAP
1 axi_lite_i[54] 0.00027562
2 *2557:A 0.00027562
3 *2557:A axi_lite_o[36] 2.79993e-05
4 *2557:A *2184:A 0
5 *2557:A *2189:A 3.31882e-05
6 *2149:A *2557:A 5.00217e-05
*RES
1 axi_lite_i[54] *2557:A 21.5168 
*END

*D_NET *793 0.00439718
*CONN
*P axi_lite_i[5] I
*I *2539:A I *D sky130_fd_sc_hd__dlygate4sd3_1
*CAP
1 axi_lite_i[5] 0.000863136
2 *2539:A 0
3 *793:11 0.000863136
4 *793:11 *1245:A1 0.000126339
5 *793:11 *1874:A 0.000121679
6 *793:11 *2537:A 2.79993e-05
7 *793:11 *2538:A 0.00036991
8 *793:11 *953:10 9.0014e-05
9 *793:11 *1091:8 4.09055e-05
10 *793:11 *1110:890 0
11 *793:11 *1154:10 0
12 *1254:A3 *793:11 0
13 *1654:A1 *793:11 0.000160135
14 *1654:S *793:11 1.87269e-05
15 *1665:B *793:11 0.000256766
16 *1666:B *793:11 0.000699985
17 *1917:D *793:11 0.000305813
18 *715:8 *793:11 0.000116806
19 *716:8 *793:11 0.000335827
*RES
1 axi_lite_i[5] *793:11 40.8712 
2 *793:11 *2539:A 9.24915 
*END

*D_NET *829 0.00174697
*CONN
*P axi_lite_i[6] I
*I *2538:A I *D sky130_fd_sc_hd__dlygate4sd3_1
*CAP
1 axi_lite_i[6] 0.000638717
2 *2538:A 0.000638717
3 *2538:A *2187:A 1.31657e-05
4 *2538:A *953:10 2.65667e-05
5 *2538:A *1154:10 4.15008e-05
6 *1919:D *2538:A 1.8398e-05
7 *793:11 *2538:A 0.00036991
*RES
1 axi_lite_i[6] *2538:A 39.2855 
*END

*D_NET *754 0.000340007
*CONN
*P axi_lite_i[7] I
*I *2551:A I *D sky130_fd_sc_hd__dlygate4sd3_1
*CAP
1 axi_lite_i[7] 0.000170003
2 *2551:A 0.000170003
3 *751:12 *2551:A 0
*RES
1 axi_lite_i[7] *2551:A 18.1948 
*END

*D_NET *941 0.000349318
*CONN
*P axi_lite_i[8] I
*I *2537:A I *D sky130_fd_sc_hd__dlygate4sd3_1
*CAP
1 axi_lite_i[8] 0.00016066
2 *2537:A 0.00016066
3 *793:11 *2537:A 2.79993e-05
*RES
1 axi_lite_i[8] *2537:A 18.1948 
*END

*D_NET *940 0.000849151
*CONN
*P axi_lite_i[9] I
*I *2184:A I *D sky130_fd_sc_hd__clkdlybuf4s50_1
*CAP
1 axi_lite_i[9] 0.000359555
2 *2184:A 0.000359555
3 *2184:A *1878:B1 0
4 *1878:A1 *2184:A 7.48633e-05
5 *1879:B2 *2184:A 3.14978e-05
6 *2149:A *2184:A 0
7 *2557:A *2184:A 0
8 *719:19 *2184:A 2.36813e-05
*RES
1 axi_lite_i[9] *2184:A 23.7647 
*END

*D_NET *935 0.000545959
*CONN
*P axi_lite_o[0] O
*I *2177:X O *D sky130_fd_sc_hd__clkdlybuf4s50_1
*CAP
1 axi_lite_o[0] 0.000272979
2 *2177:X 0.000272979
3 *2219:A axi_lite_o[0] 0
*RES
1 *2177:X axi_lite_o[0] 19.1969 
*END

*D_NET *934 0.00253014
*CONN
*P axi_lite_o[10] O
*I *2176:X O *D sky130_fd_sc_hd__clkdlybuf4s50_1
*CAP
1 axi_lite_o[10] 0.000958991
2 *2176:X 0.000958991
3 axi_lite_o[10] axi_lite_o[3] 0.000501395
4 axi_lite_o[10] *1111:331 0
5 axi_lite_o[10] *1128:20 7.13655e-06
6 axi_lite_o[26] axi_lite_o[10] 0.000103623
7 axi_lite_o[27] axi_lite_o[10] 0
*RES
1 *2176:X axi_lite_o[10] 20.3134 
*END

*D_NET *933 0.000557829
*CONN
*P axi_lite_o[11] O
*I *2175:X O *D sky130_fd_sc_hd__clkdlybuf4s50_1
*CAP
1 axi_lite_o[11] 0.000255108
2 *2175:X 0.000255108
3 axi_lite_o[7] axi_lite_o[11] 4.76126e-05
*RES
1 *2175:X axi_lite_o[11] 19.7487 
*END

*D_NET *931 0.00168268
*CONN
*P axi_lite_o[12] O
*I *2174:X O *D sky130_fd_sc_hd__clkdlybuf4s50_1
*CAP
1 axi_lite_o[12] 0.000543018
2 *2174:X 0.000543018
3 *1779:A axi_lite_o[12] 7.03112e-06
4 *1791:A1 axi_lite_o[12] 8.25162e-05
5 *301:10 axi_lite_o[12] 0.000127164
6 *301:12 axi_lite_o[12] 0.000153225
7 *874:12 axi_lite_o[12] 0.000193906
8 *875:10 axi_lite_o[12] 3.27973e-05
*RES
1 *2174:X axi_lite_o[12] 29.7147 
*END

*D_NET *930 0.00167332
*CONN
*P axi_lite_o[13] O
*I *2173:X O *D sky130_fd_sc_hd__clkdlybuf4s50_1
*CAP
1 axi_lite_o[13] 0.00047202
2 *2173:X 0.00047202
3 axi_lite_o[23] axi_lite_o[13] 0
4 axi_lite_o[5] axi_lite_o[13] 0.000729276
*RES
1 *2173:X axi_lite_o[13] 25.493 
*END

*D_NET *929 0.00236551
*CONN
*P axi_lite_o[14] O
*I *2172:X O *D sky130_fd_sc_hd__clkdlybuf4s50_1
*CAP
1 axi_lite_o[14] 0.00101446
2 *2172:X 0.00101446
3 axi_lite_o[14] axi_lite_o[33] 0.000104661
4 axi_lite_o[14] axi_lite_o[3] 0
5 axi_lite_o[14] *1111:339 0
6 axi_lite_o[18] axi_lite_o[14] 0.00012839
7 *183:121 axi_lite_o[14] 0.000103531
*RES
1 *2172:X axi_lite_o[14] 22.5473 
*END

*D_NET *928 0.000721405
*CONN
*P axi_lite_o[15] O
*I *2171:X O *D sky130_fd_sc_hd__clkdlybuf4s50_1
*CAP
1 axi_lite_o[15] 0.000323958
2 *2171:X 0.000323958
3 axi_lite_o[7] axi_lite_o[15] 4.76126e-05
4 *2175:A axi_lite_o[15] 2.58757e-05
*RES
1 *2171:X axi_lite_o[15] 20.8579 
*END

*D_NET *927 0.00153738
*CONN
*P axi_lite_o[16] O
*I *2170:X O *D sky130_fd_sc_hd__clkdlybuf4s50_1
*CAP
1 axi_lite_o[16] 0.000295522
2 *2170:X 0.000295522
3 axi_lite_o[25] axi_lite_o[16] 0.000118656
4 axi_lite_o[8] axi_lite_o[16] 0.000827678
*RES
1 *2170:X axi_lite_o[16] 20.2916 
*END

*D_NET *926 0.000339874
*CONN
*P axi_lite_o[17] O
*I *2169:X O *D sky130_fd_sc_hd__clkdlybuf4s50_1
*CAP
1 axi_lite_o[17] 0.000169937
2 *2169:X 0.000169937
3 axi_lite_o[17] axi_lite_o[31] 0
4 axi_lite_o[22] axi_lite_o[17] 0
*RES
1 *2169:X axi_lite_o[17] 18.0187 
*END

*D_NET *925 0.00431077
*CONN
*P axi_lite_o[18] O
*I *2168:X O *D sky130_fd_sc_hd__clkdlybuf4s50_1
*CAP
1 axi_lite_o[18] 0.0013798
2 *2168:X 0.0013798
3 axi_lite_o[18] axi_lite_o[14] 0.00012839
4 axi_lite_o[18] *1536:B 6.50586e-05
5 axi_lite_o[18] *1942:CLK 0.000190974
6 axi_lite_o[18] *1113:615 0.000106063
7 axi_lite_o[18] *1132:27 0.000152954
8 axi_lite_o[18] *1132:37 6.22076e-05
9 axi_lite_o[6] axi_lite_o[18] 0.00046723
10 *1679:B axi_lite_o[18] 0.000115934
11 *1942:D axi_lite_o[18] 5.04829e-06
12 *1945:D axi_lite_o[18] 8.58741e-05
13 *1981:D axi_lite_o[18] 7.19887e-05
14 *183:121 axi_lite_o[18] 9.43892e-05
15 *184:96 axi_lite_o[18] 5.04829e-06
*RES
1 *2168:X axi_lite_o[18] 44.1433 
*END

*D_NET *924 0.00111488
*CONN
*P axi_lite_o[19] O
*I *2167:X O *D sky130_fd_sc_hd__clkdlybuf4s50_1
*CAP
1 axi_lite_o[19] 0.000450905
2 *2167:X 0.000450905
3 axi_lite_o[24] axi_lite_o[19] 5.56347e-05
4 axi_lite_o[25] axi_lite_o[19] 0
5 axi_lite_o[28] axi_lite_o[19] 0.000109212
6 *1223:B1 axi_lite_o[19] 4.82227e-05
*RES
1 *2167:X axi_lite_o[19] 20.2916 
*END

*D_NET *731 0.000405488
*CONN
*P axi_lite_o[1] O
*I *2220:LO O *D sky130_fd_sc_hd__conb_1
*CAP
1 axi_lite_o[1] 0.000194353
2 *2220:LO 0.000194353
3 axi_lite_o[1] axi_lite_o[37] 1.67821e-05
*RES
1 *2220:LO axi_lite_o[1] 18.0952 
*END

*D_NET *923 0.000960247
*CONN
*P axi_lite_o[20] O
*I *2166:X O *D sky130_fd_sc_hd__clkdlybuf4s50_1
*CAP
1 axi_lite_o[20] 0.000480124
2 *2166:X 0.000480124
*RES
1 *2166:X axi_lite_o[20] 24.1799 
*END

*D_NET *922 0.000811797
*CONN
*P axi_lite_o[21] O
*I *2165:X O *D sky130_fd_sc_hd__clkdlybuf4s50_1
*CAP
1 axi_lite_o[21] 0.000405898
2 *2165:X 0.000405898
3 axi_lite_o[21] *2179:A 0
4 axi_lite_o[21] *2533:A 0
*RES
1 *2165:X axi_lite_o[21] 22.5189 
*END

*D_NET *921 0.000534989
*CONN
*P axi_lite_o[22] O
*I *2164:X O *D sky130_fd_sc_hd__clkdlybuf4s50_1
*CAP
1 axi_lite_o[22] 0.000206951
2 *2164:X 0.000206951
3 axi_lite_o[22] axi_lite_o[17] 0
4 axi_lite_o[22] axi_lite_o[31] 0.000121086
*RES
1 *2164:X axi_lite_o[22] 19.2644 
*END

*D_NET *920 0.00124274
*CONN
*P axi_lite_o[23] O
*I *2163:X O *D sky130_fd_sc_hd__clkdlybuf4s50_1
*CAP
1 axi_lite_o[23] 0.000356166
2 *2163:X 0.000356166
3 axi_lite_o[23] axi_lite_o[13] 0
4 axi_lite_o[23] *1191:A 0
5 axi_lite_o[23] *1227:A 0.000388987
6 axi_lite_o[23] *1945:RESET_B 0
7 axi_lite_o[5] axi_lite_o[23] 0
8 axi_lite_o[6] axi_lite_o[23] 0.000141425
9 *2163:A axi_lite_o[23] 0
*RES
1 *2163:X axi_lite_o[23] 24.6627 
*END

*D_NET *919 0.000408331
*CONN
*P axi_lite_o[24] O
*I *2162:X O *D sky130_fd_sc_hd__clkdlybuf4s50_1
*CAP
1 axi_lite_o[24] 0.000176348
2 *2162:X 0.000176348
3 axi_lite_o[24] axi_lite_o[19] 5.56347e-05
*RES
1 *2162:X axi_lite_o[24] 19.5267 
*END

*D_NET *918 0.0012275
*CONN
*P axi_lite_o[25] O
*I *2161:X O *D sky130_fd_sc_hd__clkdlybuf4s50_1
*CAP
1 axi_lite_o[25] 0.000520963
2 *2161:X 0.000520963
3 axi_lite_o[25] axi_lite_o[16] 0.000118656
4 axi_lite_o[25] axi_lite_o[19] 0
5 axi_lite_o[25] *1113:818 2.37478e-05
6 axi_lite_o[28] axi_lite_o[25] 0
7 axi_lite_o[8] axi_lite_o[25] 4.31657e-05
*RES
1 *2161:X axi_lite_o[25] 19.2425 
*END

*D_NET *917 0.000322044
*CONN
*P axi_lite_o[26] O
*I *2160:X O *D sky130_fd_sc_hd__clkdlybuf4s50_1
*CAP
1 axi_lite_o[26] 8.91943e-05
2 *2160:X 8.91943e-05
3 axi_lite_o[26] axi_lite_o[10] 0.000103623
4 axi_lite_o[27] axi_lite_o[26] 4.00322e-05
*RES
1 *2160:X axi_lite_o[26] 17.8657 
*END

*D_NET *916 0.000763966
*CONN
*P axi_lite_o[27] O
*I *2159:X O *D sky130_fd_sc_hd__clkdlybuf4s50_1
*CAP
1 axi_lite_o[27] 0.000354278
2 *2159:X 0.000354278
3 axi_lite_o[27] axi_lite_o[10] 0
4 axi_lite_o[27] axi_lite_o[26] 4.00322e-05
5 axi_lite_o[27] *1011:14 0
6 axi_lite_o[30] axi_lite_o[27] 0
7 axi_lite_o[4] axi_lite_o[27] 1.53776e-05
*RES
1 *2159:X axi_lite_o[27] 19.9092 
*END

*D_NET *915 0.000298068
*CONN
*P axi_lite_o[28] O
*I *2158:X O *D sky130_fd_sc_hd__clkdlybuf4s50_1
*CAP
1 axi_lite_o[28] 9.44279e-05
2 *2158:X 9.44279e-05
3 axi_lite_o[28] axi_lite_o[19] 0.000109212
4 axi_lite_o[28] axi_lite_o[25] 0
*RES
1 *2158:X axi_lite_o[28] 17.8657 
*END

*D_NET *914 0.000129535
*CONN
*P axi_lite_o[29] O
*I *2157:X O *D sky130_fd_sc_hd__clkdlybuf4s50_1
*CAP
1 axi_lite_o[29] 5.72068e-05
2 *2157:X 5.72068e-05
3 axi_lite_o[2] axi_lite_o[29] 1.51212e-05
*RES
1 *2157:X axi_lite_o[29] 17.6362 
*END

*D_NET *913 0.000409343
*CONN
*P axi_lite_o[2] O
*I *2156:X O *D sky130_fd_sc_hd__clkdlybuf4s50_1
*CAP
1 axi_lite_o[2] 0.000132921
2 *2156:X 0.000132921
3 axi_lite_o[2] axi_lite_o[29] 1.51212e-05
4 axi_lite_o[2] axi_lite_o[34] 0.000113049
5 axi_lite_o[2] *1733:A 1.53307e-05
*RES
1 *2156:X axi_lite_o[2] 18.6962 
*END

*D_NET *912 0.000387925
*CONN
*P axi_lite_o[30] O
*I *2155:X O *D sky130_fd_sc_hd__clkdlybuf4s50_1
*CAP
1 axi_lite_o[30] 0.000193963
2 *2155:X 0.000193963
3 axi_lite_o[30] axi_lite_o[27] 0
4 axi_lite_o[4] axi_lite_o[30] 0
5 axi_lite_o[8] axi_lite_o[30] 0
*RES
1 *2155:X axi_lite_o[30] 19.5267 
*END

*D_NET *948 0.000444058
*CONN
*P axi_lite_o[31] O
*I *2154:X O *D sky130_fd_sc_hd__clkdlybuf4s50_1
*CAP
1 axi_lite_o[31] 0.000161486
2 *2154:X 0.000161486
3 axi_lite_o[17] axi_lite_o[31] 0
4 axi_lite_o[22] axi_lite_o[31] 0.000121086
5 *2154:A axi_lite_o[31] 0
*RES
1 *2154:X axi_lite_o[31] 18.7727 
*END

*D_NET *947 0.000326724
*CONN
*P axi_lite_o[32] O
*I *2153:X O *D sky130_fd_sc_hd__clkdlybuf4s50_1
*CAP
1 axi_lite_o[32] 7.94483e-05
2 *2153:X 7.94483e-05
3 axi_lite_o[5] axi_lite_o[32] 4.38611e-05
4 axi_lite_o[9] axi_lite_o[32] 0.000123966
*RES
1 *2153:X axi_lite_o[32] 17.8657 
*END

*D_NET *946 0.000333655
*CONN
*P axi_lite_o[33] O
*I *2152:X O *D sky130_fd_sc_hd__clkdlybuf4s50_1
*CAP
1 axi_lite_o[33] 0.000114497
2 *2152:X 0.000114497
3 axi_lite_o[33] axi_lite_o[3] 0
4 axi_lite_o[33] *1227:A 0
5 axi_lite_o[14] axi_lite_o[33] 0.000104661
*RES
1 *2152:X axi_lite_o[33] 19.2972 
*END

*D_NET *945 0.000625147
*CONN
*P axi_lite_o[34] O
*I *2151:X O *D sky130_fd_sc_hd__clkdlybuf4s50_1
*CAP
1 axi_lite_o[34] 0.000246318
2 *2151:X 0.000246318
3 axi_lite_o[34] *1733:A 1.94614e-05
4 axi_lite_o[2] axi_lite_o[34] 0.000113049
*RES
1 *2151:X axi_lite_o[34] 20.5102 
*END

*D_NET *944 0.00188681
*CONN
*P axi_lite_o[35] O
*I *2150:X O *D sky130_fd_sc_hd__clkdlybuf4s50_1
*CAP
1 axi_lite_o[35] 0.000666538
2 *2150:X 0.000666538
3 axi_lite_o[35] *2050:RESET_B 0
4 axi_lite_o[35] *2180:A 2.6777e-05
5 axi_lite_o[35] *1028:10 0
6 axi_lite_o[35] *1135:52 7.50722e-05
7 intr_gpio_o[2] axi_lite_o[35] 0.000187492
8 *1647:A axi_lite_o[35] 0.000127194
9 *2050:D axi_lite_o[35] 1.46079e-05
10 *2105:D axi_lite_o[35] 0
11 *2532:A axi_lite_o[35] 0.000122592
12 *676:14 axi_lite_o[35] 0
13 *789:26 axi_lite_o[35] 0
*RES
1 *2150:X axi_lite_o[35] 30.8267 
*END

*D_NET *943 0.000822145
*CONN
*P axi_lite_o[36] O
*I *2149:X O *D sky130_fd_sc_hd__clkdlybuf4s50_1
*CAP
1 axi_lite_o[36] 0.000397073
2 *2149:X 0.000397073
3 *2557:A axi_lite_o[36] 2.79993e-05
*RES
1 *2149:X axi_lite_o[36] 22.3407 
*END

*D_NET *750 0.000128864
*CONN
*P axi_lite_o[37] O
*I *2146:LO O *D sky130_fd_sc_hd__conb_1
*CAP
1 axi_lite_o[37] 5.60409e-05
2 *2146:LO 5.60409e-05
3 axi_lite_o[1] axi_lite_o[37] 1.67821e-05
*RES
1 *2146:LO axi_lite_o[37] 17.6362 
*END

*D_NET *942 0.00077746
*CONN
*P axi_lite_o[38] O
*I *2148:X O *D sky130_fd_sc_hd__clkdlybuf4s50_1
*CAP
1 axi_lite_o[38] 0.00037473
2 *2148:X 0.00037473
3 cio_gpio_o[2] axi_lite_o[38] 2.79993e-05
4 *186:10 axi_lite_o[38] 0
*RES
1 *2148:X axi_lite_o[38] 21.2099 
*END

*D_NET *932 0.000825664
*CONN
*P axi_lite_o[39] O
*I *2147:X O *D sky130_fd_sc_hd__clkdlybuf4s50_1
*CAP
1 axi_lite_o[39] 0.000389496
2 *2147:X 0.000389496
3 axi_lite_o[39] *2034:CLK 0
4 axi_lite_o[40] axi_lite_o[39] 4.66716e-05
5 *2147:A axi_lite_o[39] 0
*RES
1 *2147:X axi_lite_o[39] 21.5702 
*END

*D_NET *1101 0.00609566
*CONN
*P axi_lite_o[3] O
*I *2145:X O *D sky130_fd_sc_hd__clkdlybuf4s50_1
*CAP
1 axi_lite_o[3] 0.00237564
2 *2145:X 0.00237564
3 axi_lite_o[3] *1228:A 3.20407e-05
4 axi_lite_o[3] *1976:CLK 0.00033955
5 axi_lite_o[3] *1977:RESET_B 1.20669e-05
6 axi_lite_o[10] axi_lite_o[3] 0.000501395
7 axi_lite_o[14] axi_lite_o[3] 0
8 axi_lite_o[33] axi_lite_o[3] 0
9 *1228:B axi_lite_o[3] 0.000160047
10 *1229:B1 axi_lite_o[3] 3.82228e-05
11 *1502:A axi_lite_o[3] 6.55265e-05
12 *1596:A2 axi_lite_o[3] 0.000109427
13 *183:138 axi_lite_o[3] 5.06165e-06
14 *184:107 axi_lite_o[3] 8.36586e-06
15 *184:113 axi_lite_o[3] 1.18245e-05
16 *1010:6 axi_lite_o[3] 6.08467e-05
*RES
1 *2145:X axi_lite_o[3] 49.5382 
*END

*D_NET *911 0.000793282
*CONN
*P axi_lite_o[40] O
*I *2144:X O *D sky130_fd_sc_hd__clkdlybuf4s50_1
*CAP
1 axi_lite_o[40] 0.000353173
2 *2144:X 0.000353173
3 axi_lite_o[40] axi_lite_o[39] 4.66716e-05
4 *2147:A axi_lite_o[40] 1.66626e-05
5 *752:25 axi_lite_o[40] 2.36025e-05
*RES
1 *2144:X axi_lite_o[40] 22.2418 
*END

*D_NET *785 0.00538323
*CONN
*P axi_lite_o[4] O
*I *2143:X O *D sky130_fd_sc_hd__clkdlybuf4s50_1
*CAP
1 axi_lite_o[4] 0.00163797
2 *2143:X 0.000679315
3 *785:8 0.00231729
4 axi_lite_o[4] axi_lite_o[27] 1.53776e-05
5 axi_lite_o[4] axi_lite_o[30] 0
6 axi_lite_o[4] *1626:B 1.50924e-05
7 axi_lite_o[4] *1128:8 5.53422e-05
8 *785:8 *1626:B 0.000431603
9 *1626:A *785:8 6.01997e-06
10 *1627:A2 *785:8 0.000115805
11 *1701:A axi_lite_o[4] 0.000109421
*RES
1 *2143:X *785:8 21.0887 
2 *785:8 axi_lite_o[4] 42.5833 
*END

*D_NET *784 0.00908712
*CONN
*P axi_lite_o[5] O
*I *2142:X O *D sky130_fd_sc_hd__clkdlybuf4s50_1
*CAP
1 axi_lite_o[5] 0.00203953
2 *2142:X 0.00062152
3 *784:14 0.00266105
4 axi_lite_o[5] axi_lite_o[13] 0.000729276
5 axi_lite_o[5] axi_lite_o[23] 0
6 axi_lite_o[5] axi_lite_o[32] 4.38611e-05
7 axi_lite_o[5] *1620:B 2.41916e-05
8 axi_lite_o[5] *1132:10 1.80896e-05
9 axi_lite_o[5] *1132:86 0.000171273
10 *784:14 *1553:B 0.000169041
11 *784:14 *1703:A 3.59437e-05
12 *784:14 *992:16 2.41483e-05
13 *784:14 *1111:61 1.00846e-05
14 *784:14 *1131:6 0.000465064
15 *784:14 *1131:8 0.000479083
16 *784:14 *1131:19 0
17 *1554:B1 *784:14 0.000324166
18 *1704:B *784:14 6.50586e-05
19 *2173:A axi_lite_o[5] 0.000110583
20 *185:12 axi_lite_o[5] 0.000102003
21 *185:18 axi_lite_o[5] 0.000505823
22 *185:18 *784:14 3.23492e-05
23 *185:28 *784:14 0.000316238
24 *640:16 *784:14 0.000111802
25 *640:18 *784:14 2.69435e-05
*RES
1 *2142:X *784:14 39.4079 
2 *784:14 axi_lite_o[5] 48.8154 
*END

*D_NET *783 0.00765478
*CONN
*P axi_lite_o[6] O
*I *2141:X O *D sky130_fd_sc_hd__clkdlybuf4s50_1
*CAP
1 axi_lite_o[6] 0.00351016
2 *2141:X 0.00351016
3 axi_lite_o[6] axi_lite_o[18] 0.00046723
4 axi_lite_o[6] axi_lite_o[23] 0.000141425
5 axi_lite_o[6] *1106:235 1.91246e-05
6 axi_lite_o[6] *1111:100 6.67641e-06
7 axi_lite_o[6] *1111:331 0
8 axi_lite_o[6] *1143:85 0
*RES
1 *2141:X axi_lite_o[6] 24.5203 
*END

*D_NET *782 0.000196956
*CONN
*P axi_lite_o[7] O
*I *2140:X O *D sky130_fd_sc_hd__clkdlybuf4s50_1
*CAP
1 axi_lite_o[7] 5.08656e-05
2 *2140:X 5.08656e-05
3 axi_lite_o[7] axi_lite_o[11] 4.76126e-05
4 axi_lite_o[7] axi_lite_o[15] 4.76126e-05
*RES
1 *2140:X axi_lite_o[7] 15.7033 
*END

*D_NET *781 0.00300658
*CONN
*P axi_lite_o[8] O
*I *2139:X O *D sky130_fd_sc_hd__clkdlybuf4s50_1
*CAP
1 axi_lite_o[8] 0.000819521
2 *2139:X 0.000819521
3 axi_lite_o[8] axi_lite_o[16] 0.000827678
4 axi_lite_o[8] axi_lite_o[25] 4.31657e-05
5 axi_lite_o[8] axi_lite_o[30] 0
6 axi_lite_o[8] *1128:80 8.6595e-05
7 *1949:D axi_lite_o[8] 0.000110413
8 *183:142 axi_lite_o[8] 0.000135592
9 *183:155 axi_lite_o[8] 0.000164091
*RES
1 *2139:X axi_lite_o[8] 25.2361 
*END

*D_NET *780 0.00447903
*CONN
*P axi_lite_o[9] O
*I *2138:X O *D sky130_fd_sc_hd__clkdlybuf4s50_1
*CAP
1 axi_lite_o[9] 0.00217753
2 *2138:X 0.00217753
3 axi_lite_o[9] axi_lite_o[32] 0.000123966
4 axi_lite_o[9] *1143:85 0
5 *2138:A axi_lite_o[9] 0
*RES
1 *2138:X axi_lite_o[9] 22.6081 
*END

*D_NET *779 0.00346566
*CONN
*P cio_gpio_en_o[0] O
*I *2137:X O *D sky130_fd_sc_hd__clkdlybuf4s50_1
*CAP
1 cio_gpio_en_o[0] 0.000649328
2 *2137:X 0.000649328
3 cio_gpio_en_o[0] cio_gpio_en_o[3] 2.19156e-05
4 cio_gpio_en_o[0] *1741:A2 0.000355666
5 cio_gpio_en_o[0] *1741:C1 3.00174e-06
6 cio_gpio_en_o[0] *2121:D 0.000190001
7 cio_gpio_en_o[0] *787:14 6.13671e-05
8 cio_gpio_en_o[0] *865:14 0.000107333
9 cio_gpio_en_o[0] *865:29 0.000138468
10 cio_gpio_en_o[0] *865:42 0.000161318
11 cio_gpio_en_o[1] cio_gpio_en_o[0] 0.000472077
12 *1776:A1 cio_gpio_en_o[0] 0.000446939
13 *296:10 cio_gpio_en_o[0] 0.000208915
*RES
1 *2137:X cio_gpio_en_o[0] 40.5169 
*END

*D_NET *775 0.003927
*CONN
*P cio_gpio_en_o[1] O
*I *2136:X O *D sky130_fd_sc_hd__clkdlybuf4s50_1
*CAP
1 cio_gpio_en_o[1] 0.000840299
2 *2136:X 0.000840299
3 cio_gpio_en_o[1] cio_gpio_en_o[0] 0.000472077
4 cio_gpio_en_o[1] cio_gpio_o[1] 0.000157687
5 cio_gpio_en_o[1] *1741:A1 8.70662e-06
6 cio_gpio_en_o[1] *1741:B1 0.000256924
7 cio_gpio_en_o[1] *1741:C1 0
8 cio_gpio_en_o[1] *2121:D 0.000194842
9 cio_gpio_en_o[1] *2124:RESET_B 0.000195139
10 cio_gpio_en_o[1] *837:14 2.15049e-05
11 cio_gpio_en_o[1] *865:14 2.12361e-05
12 *1558:B2 cio_gpio_en_o[1] 5.04829e-06
13 *1776:B1 cio_gpio_en_o[1] 0.000503562
14 *282:19 cio_gpio_en_o[1] 0.000409678
*RES
1 *2136:X cio_gpio_en_o[1] 44.112 
*END

*D_NET *909 0.00114149
*CONN
*P cio_gpio_en_o[2] O
*I *2135:X O *D sky130_fd_sc_hd__clkdlybuf4s50_1
*CAP
1 cio_gpio_en_o[2] 0.000463964
2 *2135:X 0.000463964
3 *2135:A cio_gpio_en_o[2] 0.000171456
4 *2543:A cio_gpio_en_o[2] 2.1051e-05
5 *2552:A cio_gpio_en_o[2] 2.1051e-05
*RES
1 *2135:X cio_gpio_en_o[2] 27.7879 
*END

*D_NET *908 0.0103707
*CONN
*P cio_gpio_en_o[3] O
*I *2134:X O *D sky130_fd_sc_hd__clkdlybuf4s50_1
*CAP
1 cio_gpio_en_o[3] 0.00325494
2 *2134:X 0.00325494
3 cio_gpio_en_o[0] cio_gpio_en_o[3] 2.19156e-05
4 cio_gpio_o[1] cio_gpio_en_o[3] 0.00363488
5 *637:31 cio_gpio_en_o[3] 0.000141202
6 *832:27 cio_gpio_en_o[3] 6.27718e-05
*RES
1 *2134:X cio_gpio_en_o[3] 32.8198 
*END

*D_NET *791 0.000890071
*CONN
*P cio_gpio_i[0] I
*I *2530:A I *D sky130_fd_sc_hd__dlygate4sd3_1
*CAP
1 cio_gpio_i[0] 0.000317965
2 *2530:A 0.000317965
3 *2530:A *2182:A 0.000211546
4 *2530:A *2503:A 0
5 *2530:A *1121:8 0
6 *2119:D *2530:A 4.25952e-05
*RES
1 cio_gpio_i[0] *2530:A 22.243 
*END

*D_NET *939 0.000351747
*CONN
*P cio_gpio_i[1] I
*I *2531:A I *D sky130_fd_sc_hd__dlygate4sd3_1
*CAP
1 cio_gpio_i[1] 0.000131124
2 *2531:A 0.000131124
3 cio_gpio_o[0] *2531:A 6.36237e-05
4 cio_gpio_o[1] *2531:A 0
5 intr_gpio_o[0] *2531:A 2.58757e-05
*RES
1 cio_gpio_i[1] *2531:A 17.2572 
*END

*D_NET *938 0.000518038
*CONN
*P cio_gpio_i[2] I
*I *2532:A I *D sky130_fd_sc_hd__dlygate4sd3_1
*CAP
1 cio_gpio_i[2] 0.000197723
2 *2532:A 0.000197723
3 *2532:A axi_lite_o[35] 0.000122592
4 *2209:A *2532:A 0
*RES
1 cio_gpio_i[2] *2532:A 19.4728 
*END

*D_NET *937 0.000890609
*CONN
*P cio_gpio_i[3] I
*I *2533:A I *D sky130_fd_sc_hd__dlygate4sd3_1
*CAP
1 cio_gpio_i[3] 0.0003558
2 *2533:A 0.0003558
3 *2533:A *2179:A 0.000179009
4 axi_lite_o[21] *2533:A 0
*RES
1 cio_gpio_i[3] *2533:A 23.7058 
*END

*D_NET *907 0.00684559
*CONN
*P cio_gpio_o[0] O
*I *2133:X O *D sky130_fd_sc_hd__clkdlybuf4s50_1
*CAP
1 cio_gpio_o[0] 0.00110704
2 *2133:X 0.000385025
3 *907:15 0.00149206
4 cio_gpio_o[0] *2181:A 0.000133981
5 cio_gpio_o[0] *2531:A 6.36237e-05
6 intr_gpio_o[0] cio_gpio_o[0] 4.41622e-05
7 *1759:A cio_gpio_o[0] 7.50722e-05
8 *1763:A1 cio_gpio_o[0] 0.000138843
9 *1807:A2 cio_gpio_o[0] 5.20716e-05
10 *2090:D *907:15 9.29777e-05
11 *287:15 cio_gpio_o[0] 0.00022878
12 *287:21 cio_gpio_o[0] 0.000139817
13 *458:206 *907:15 0.00029754
14 *458:230 cio_gpio_o[0] 5.35603e-05
15 *458:230 *907:15 2.03171e-05
16 *773:38 cio_gpio_o[0] 0.000117281
17 *773:38 *907:15 0.000107823
18 *776:16 cio_gpio_o[0] 0.000209791
19 *776:28 *907:15 0.000216196
20 *790:12 *907:15 0.000132377
21 *790:22 cio_gpio_o[0] 0.0015523
22 *790:22 *907:15 6.31417e-05
23 *862:14 cio_gpio_o[0] 9.43419e-05
24 *863:14 cio_gpio_o[0] 2.74597e-05
*RES
1 *2133:X *907:15 27.9288 
2 *907:15 cio_gpio_o[0] 41.6107 
*END

*D_NET *906 0.0102761
*CONN
*P cio_gpio_o[1] O
*I *2132:X O *D sky130_fd_sc_hd__clkdlybuf4s50_1
*CAP
1 cio_gpio_o[1] 0.00317078
2 *2132:X 0.00317078
3 cio_gpio_o[1] cio_gpio_en_o[3] 0.00363488
4 cio_gpio_o[1] *2531:A 0
5 cio_gpio_o[1] *1113:82 0
6 cio_gpio_o[1] *1123:88 1.91246e-05
7 cio_gpio_en_o[1] cio_gpio_o[1] 0.000157687
8 *1741:A1 cio_gpio_o[1] 0.000103706
9 *637:31 cio_gpio_o[1] 1.91246e-05
10 *773:38 cio_gpio_o[1] 0
*RES
1 *2132:X cio_gpio_o[1] 31.8999 
*END

*D_NET *186 0.00736749
*CONN
*P cio_gpio_o[2] O
*I *1601:X O *D sky130_fd_sc_hd__clkdlybuf4s50_1
*CAP
1 cio_gpio_o[2] 0.000148303
2 *1601:X 0.000215412
3 *186:10 0.00221363
4 *186:8 0.00228074
5 cio_gpio_o[2] axi_lite_o[38] 2.79993e-05
6 *186:10 axi_lite_o[38] 0
7 *186:10 *1241:A1 8.08598e-05
8 *186:10 *1241:B1 0.000365107
9 *186:10 *1274:A1 0.000174965
10 *186:10 *1274:B1 1.26939e-05
11 *186:10 *1479:A1 0.000107586
12 *186:10 *1547:A 0.000141634
13 *186:10 *1568:B 0.000108413
14 *186:10 *1650:A3 0.000146097
15 *186:10 *2209:A 0
16 *186:10 *211:17 8.79472e-05
17 *186:10 *422:10 0
18 *186:10 *422:23 0
19 *186:10 *425:20 0.000742099
20 *186:10 *425:29 0.000169078
21 *186:10 *426:12 0.000185026
22 *186:10 *456:10 3.16514e-05
23 *186:10 *457:10 0
24 *186:10 *458:46 1.15766e-05
25 *186:10 *676:14 0
26 *186:10 *789:26 0
27 *186:10 *1030:12 0
28 *186:10 *1135:62 0
29 *2051:D *186:10 0.000116661
*RES
1 *1601:X *186:8 16.691 
2 *186:8 *186:10 62.6664 
3 *186:10 cio_gpio_o[2] 4.45785 
*END

*D_NET *599 0.00205203
*CONN
*P cio_gpio_o[3] O
*I *1487:X O *D sky130_fd_sc_hd__clkdlybuf4s50_1
*CAP
1 cio_gpio_o[3] 0.000609588
2 *1487:X 0.000609588
3 cio_gpio_o[3] *2543:A 0
4 cio_gpio_o[3] *2555:A 0.00022459
5 cio_gpio_o[3] *674:18 0.000608259
*RES
1 *1487:X cio_gpio_o[3] 25.1487 
*END

*D_NET *773 0.0186037
*CONN
*P clk_i I
*I *2523:A I *D sky130_fd_sc_hd__clkbuf_16
*CAP
1 clk_i 0.00900522
2 *2523:A 0
3 *773:38 0.00900522
4 *773:38 cio_gpio_o[0] 0.000117281
5 *773:38 cio_gpio_o[1] 0
6 *773:38 *2503:A 1.93857e-05
7 *773:38 *2507:A 0.000119977
8 *773:38 *790:12 3.35951e-05
9 *773:38 *790:22 0.000184857
10 *773:38 *907:15 0.000107823
11 *773:38 *1113:82 8.41885e-06
12 *659:20 *773:38 1.88529e-06
*RES
1 clk_i *773:38 28.2343 
2 *773:38 *2523:A 13.7491 
*END

*D_NET *1141 0.00856249
*CONN
*I *2525:A I *D sky130_fd_sc_hd__clkbuf_16
*I *2524:A I *D sky130_fd_sc_hd__clkbuf_16
*I *2523:X O *D sky130_fd_sc_hd__clkbuf_16
*CAP
1 *2525:A 6.90101e-05
2 *2524:A 8.9166e-05
3 *2523:X 0
4 *1141:51 0.00040913
5 *1141:46 0.000472322
6 *1141:35 0.00351011
7 *1141:6 0.00342095
8 *1141:4 0.000132202
9 *1832:A1 *1141:35 1.60037e-05
10 *2044:D *1141:35 5.38612e-06
11 *450:78 *1141:35 0.000101714
12 *659:20 *1141:46 2.41274e-06
13 *772:31 *2524:A 7.96256e-05
14 *772:31 *1141:35 0.000134431
15 *1107:77 *1141:35 7.6276e-06
16 *1107:81 *1141:35 4.47179e-05
17 *1111:123 *2525:A 6.55265e-05
18 *1111:123 *1141:51 2.16355e-06
*RES
1 *2523:X *1141:4 9.24915 
2 *1141:4 *1141:6 4.5 
3 *1141:6 *1141:35 23.5072 
4 *1141:35 *2524:A 11.5761 
5 *1141:4 *1141:46 2.96592 
6 *1141:46 *1141:51 7.81268 
7 *1141:51 *2525:A 11.1782 
*END

*D_NET *1142 0.0490778
*CONN
*I *2519:A I *D sky130_fd_sc_hd__clkbuf_16
*I *2497:A I *D sky130_fd_sc_hd__clkbuf_16
*I *2521:A I *D sky130_fd_sc_hd__clkbuf_16
*I *2520:A I *D sky130_fd_sc_hd__clkbuf_16
*I *2522:A I *D sky130_fd_sc_hd__clkbuf_16
*I *2490:A I *D sky130_fd_sc_hd__clkbuf_16
*I *2496:A I *D sky130_fd_sc_hd__clkbuf_16
*I *2504:A I *D sky130_fd_sc_hd__clkbuf_16
*I *2503:A I *D sky130_fd_sc_hd__clkbuf_16
*I *2501:A I *D sky130_fd_sc_hd__clkbuf_16
*I *2502:A I *D sky130_fd_sc_hd__clkbuf_16
*I *2505:A I *D sky130_fd_sc_hd__clkbuf_16
*I *2499:A I *D sky130_fd_sc_hd__clkbuf_16
*I *2500:A I *D sky130_fd_sc_hd__clkbuf_16
*I *2498:A I *D sky130_fd_sc_hd__clkbuf_16
*I *2524:X O *D sky130_fd_sc_hd__clkbuf_16
*CAP
1 *2519:A 0.000124553
2 *2497:A 1.65625e-05
3 *2521:A 0
4 *2520:A 0.00171775
5 *2522:A 0.0017128
6 *2490:A 0.000215446
7 *2496:A 0.00150796
8 *2504:A 0.000130749
9 *2503:A 0.00117682
10 *2501:A 0.00087854
11 *2502:A 1.71853e-05
12 *2505:A 0.000546857
13 *2499:A 1.4605e-05
14 *2500:A 0.0018939
15 *2498:A 0
16 *2524:X 0.0007545
17 *1142:236 0.00174503
18 *1142:198 0.00331391
19 *1142:196 0.00405052
20 *1142:173 0.00528423
21 *1142:167 0.00177573
22 *1142:86 0.0022069
23 *1142:82 0.00341166
24 *1142:76 0.00236028
25 *1142:57 0.0030573
26 *1142:31 0.00377221
27 *1142:27 0.00383726
28 *1142:10 0.000994411
29 *1345:B *2496:A 1.9101e-05
30 *1348:A *2502:A 1.59362e-06
31 *1386:S *2497:A 7.13655e-06
32 *1391:S *2500:A 1.5555e-05
33 *1394:A0 *2499:A 7.12632e-06
34 *1661:B *2520:A 0.000148129
35 *1670:S *2504:A 0
36 *1832:A1 *1142:167 1.17568e-05
37 *1832:A1 *1142:173 0
38 *1832:B1 *1142:167 4.71838e-05
39 *1866:A2 *1142:198 0
40 *1992:D *2501:A 0
41 *2009:D *2490:A 7.79923e-05
42 *2018:CLK *2501:A 0.000138915
43 *2044:D *1142:10 0.000296579
44 *2044:D *1142:27 1.91246e-05
45 *2081:D *1142:10 4.26859e-05
46 *2081:CLK *1142:10 4.3116e-06
47 *2081:CLK *1142:27 4.60852e-06
48 *2084:CLK *1142:167 7.19887e-05
49 *2530:A *2503:A 0
50 *175:12 *1142:167 0
51 *446:10 *2520:A 0.000264961
52 *522:24 *2501:A 0
53 *522:24 *2504:A 4.04556e-05
54 *522:24 *1142:82 0.000225663
55 *522:24 *1142:86 0
56 *548:44 *2496:A 6.54077e-05
57 *548:44 *1142:173 1.98309e-05
58 *548:102 *1142:173 1.80842e-05
59 *772:10 *1142:167 0
60 *772:31 *1142:167 0.00025821
61 *773:38 *2503:A 1.93857e-05
62 *837:12 *2505:A 4.34034e-05
63 *950:10 *2520:A 0.000116832
64 *1092:14 *1142:236 0
65 *1104:296 *2500:A 7.83471e-05
66 *1105:62 *2520:A 2.05712e-05
67 *1105:62 *1142:236 1.16345e-05
68 *1107:81 *1142:10 0.000169041
69 *1107:81 *1142:167 1.43698e-05
70 *1107:92 *1142:167 7.67734e-06
71 *1107:138 *1142:10 3.46262e-05
72 *1109:119 *2496:A 0
73 *1109:263 *2499:A 1.5714e-05
74 *1110:352 *2496:A 0.000222099
75 *1123:20 *2505:A 0
*RES
1 *2524:X *1142:10 20.7358 
2 *1142:10 *2498:A 13.7491 
3 *1142:10 *1142:27 6.01841 
4 *1142:27 *1142:31 4.74822 
5 *1142:31 *2500:A 24.4963 
6 *1142:31 *2499:A 17.4965 
7 *1142:27 *1142:57 2.56511 
8 *1142:57 *2505:A 19.218 
9 *1142:57 *1142:76 3.28466 
10 *1142:76 *1142:82 2.72953 
11 *1142:82 *1142:86 3.52437 
12 *1142:86 *2502:A 17.4965 
13 *1142:86 *2501:A 21.796 
14 *1142:82 *2503:A 21.056 
15 *1142:76 *2504:A 18.0764 
16 *2524:X *1142:167 27.3898 
17 *1142:167 *1142:173 6.55093 
18 *1142:173 *2496:A 24.4198 
19 *1142:173 *1142:196 7.17854 
20 *1142:196 *1142:198 3.68317 
21 *1142:198 *2490:A 19.6303 
22 *1142:198 *2522:A 21.8579 
23 *1142:196 *1142:236 4.16265 
24 *1142:236 *2520:A 30.1175 
25 *1142:236 *2521:A 13.7491 
26 *1142:173 *2497:A 17.4965 
27 *1142:167 *2519:A 16.1364 
*END

*D_NET *1143 0.0454618
*CONN
*I *2511:A I *D sky130_fd_sc_hd__clkbuf_16
*I *2510:A I *D sky130_fd_sc_hd__clkbuf_16
*I *2508:A I *D sky130_fd_sc_hd__clkbuf_16
*I *2509:A I *D sky130_fd_sc_hd__clkbuf_16
*I *2506:A I *D sky130_fd_sc_hd__clkbuf_16
*I *2507:A I *D sky130_fd_sc_hd__clkbuf_16
*I *2512:A I *D sky130_fd_sc_hd__clkbuf_16
*I *2526:A I *D sky130_fd_sc_hd__inv_6
*I *2513:A I *D sky130_fd_sc_hd__clkbuf_16
*I *2514:A I *D sky130_fd_sc_hd__clkbuf_16
*I *2515:A I *D sky130_fd_sc_hd__clkbuf_16
*I *2518:A I *D sky130_fd_sc_hd__clkbuf_16
*I *2516:A I *D sky130_fd_sc_hd__clkbuf_16
*I *2517:A I *D sky130_fd_sc_hd__clkbuf_16
*I *2525:X O *D sky130_fd_sc_hd__clkbuf_16
*CAP
1 *2511:A 0
2 *2510:A 0.0020291
3 *2508:A 0.000423685
4 *2509:A 0.00128575
5 *2506:A 4.1427e-05
6 *2507:A 0.0022227
7 *2512:A 0.000332936
8 *2526:A 0
9 *2513:A 0
10 *2514:A 0
11 *2515:A 0.000556724
12 *2518:A 0.00101715
13 *2516:A 0
14 *2517:A 0.00115458
15 *2525:X 0.000899614
16 *1143:223 0.00234126
17 *1143:185 0.00314756
18 *1143:151 0.00352775
19 *1143:147 0.00414529
20 *1143:143 0.00219325
21 *1143:85 0.00255123
22 *1143:36 0.00240873
23 *1143:26 0.00473275
24 *1143:20 0.00446918
25 *1143:16 0.000478642
26 *1143:12 0.000640808
27 *1143:10 0.000970387
28 axi_lite_o[6] *1143:85 0
29 axi_lite_o[9] *1143:85 0
30 *1492:B *2515:A 0
31 *1535:A1 *2512:A 6.49003e-05
32 *1535:B1 *2512:A 0.000421676
33 *1610:B *1143:10 1.70851e-05
34 *1633:A1 *2507:A 7.74939e-05
35 *1633:A1 *1143:151 5.20047e-05
36 *1643:B1 *2518:A 0
37 *1728:B *1143:143 0.000166694
38 *1821:C *2517:A 5.21854e-05
39 *1923:D *1143:143 0
40 *1937:D *1143:10 0
41 *1937:RESET_B *1143:10 9.81149e-05
42 *1981:D *2515:A 0.000343574
43 *1981:D *1143:85 1.10793e-05
44 *2106:RESET_B *1143:36 0
45 *2109:D *2517:A 4.75721e-06
46 *2117:D *2508:A 0
47 *2145:A *1143:10 1.37921e-05
48 *185:154 *1143:10 0
49 *185:154 *1143:12 0
50 *185:178 *1143:143 0
51 *185:252 *1143:151 8.886e-05
52 *185:304 *1143:151 0.000118311
53 *185:337 *2510:A 0
54 *185:337 *1143:223 0
55 *287:15 *2507:A 3.10576e-06
56 *334:12 *2517:A 0
57 *334:12 *1143:36 0
58 *388:131 *1143:16 0
59 *388:131 *1143:20 0
60 *458:253 *2507:A 0
61 *597:53 *2515:A 0.000556406
62 *597:62 *2515:A 0.000188074
63 *597:75 *2515:A 0.000190349
64 *597:75 *1143:85 2.02035e-05
65 *598:167 *2510:A 4.28109e-05
66 *598:499 *2515:A 0
67 *642:16 *2506:A 0
68 *665:10 *2517:A 2.02035e-05
69 *720:14 *2517:A 2.29386e-05
70 *728:20 *2515:A 0.00011818
71 *732:12 *2509:A 1.21976e-05
72 *773:38 *2507:A 0.000119977
73 *788:14 *2507:A 1.93781e-05
74 *832:43 *2512:A 0.000623449
75 *863:14 *2507:A 1.44611e-05
76 *891:12 *2517:A 0
77 *904:12 *2517:A 0
78 *1106:235 *2510:A 5.82261e-05
79 *1106:235 *1143:223 1.41396e-05
80 *1111:61 *1143:16 0
81 *1111:117 *1143:10 0
82 *1111:123 *1143:10 8.6488e-06
83 *1111:230 *1143:185 0.000115826
84 *1130:8 *2512:A 4.0752e-05
85 *1133:8 *2515:A 2.32594e-05
86 *1133:66 *2515:A 0.000148136
87 *1134:14 *2517:A 0
*RES
1 *2525:X *1143:10 23.3638 
2 *1143:10 *1143:12 3.90826 
3 *1143:12 *1143:16 10.0393 
4 *1143:16 *1143:20 3.7474 
5 *1143:20 *1143:26 5.81185 
6 *1143:26 *1143:36 8.51322 
7 *1143:36 *2517:A 29.6914 
8 *1143:36 *2516:A 13.7491 
9 *1143:26 *2518:A 20.562 
10 *1143:20 *1143:85 7.85126 
11 *1143:85 *2515:A 34.715 
12 *1143:85 *2514:A 13.7491 
13 *1143:16 *2513:A 13.7491 
14 *1143:12 *2526:A 13.7491 
15 *1143:10 *2512:A 26.1192 
16 *2525:X *1143:143 25.4256 
17 *1143:143 *1143:147 3.17036 
18 *1143:147 *1143:151 3.37139 
19 *1143:151 *2507:A 23.6573 
20 *1143:151 *2506:A 17.9118 
21 *1143:147 *1143:185 2.79372 
22 *1143:185 *2509:A 21.2832 
23 *1143:185 *2508:A 18.9229 
24 *1143:143 *1143:223 4.78621 
25 *1143:223 *2510:A 27.6863 
26 *1143:223 *2511:A 13.7491 
*END

*D_NET *1108 0.00968042
*CONN
*I *2062:CLK I *D sky130_fd_sc_hd__dfrtp_1
*I *1989:CLK I *D sky130_fd_sc_hd__dfrtp_1
*I *2012:CLK I *D sky130_fd_sc_hd__dfrtp_1
*I *2033:CLK I *D sky130_fd_sc_hd__dfrtp_1
*I *2007:CLK I *D sky130_fd_sc_hd__dfrtp_1
*I *1984:CLK I *D sky130_fd_sc_hd__dfrtp_1
*I *2010:CLK I *D sky130_fd_sc_hd__dfrtp_1
*I *2008:CLK I *D sky130_fd_sc_hd__dfrtp_1
*I *2490:X O *D sky130_fd_sc_hd__clkbuf_16
*CAP
1 *2062:CLK 0.000137469
2 *1989:CLK 9.58835e-05
3 *2012:CLK 0.000258847
4 *2033:CLK 0.000224658
5 *2007:CLK 0.000117336
6 *1984:CLK 3.37551e-05
7 *2010:CLK 0.000234452
8 *2008:CLK 0.00028461
9 *2490:X 0.000243144
10 *1108:53 0.000450793
11 *1108:51 0.00079874
12 *1108:47 0.00103681
13 *1108:32 0.000701847
14 *1108:19 0.000548022
15 *1108:8 0.000545593
16 *1984:CLK *1110:485 2.16355e-05
17 *1989:CLK *1109:78 4.47713e-05
18 *2007:CLK *2191:A 9.40106e-05
19 *2008:CLK *1109:16 0.000397883
20 *2012:CLK *2191:A 3.74593e-05
21 *2012:CLK *2195:A 5.53789e-05
22 *2012:CLK *2212:A 0.000377965
23 *2033:CLK *1418:A2 3.22559e-05
24 *2033:CLK *1109:58 0.000175139
25 *1108:19 *2008:RESET_B 0
26 *1108:19 *1110:613 0
27 *1108:32 *2008:RESET_B 0
28 *1108:47 *1276:A 4.89251e-05
29 *1108:47 *1277:A1 5.75197e-05
30 *1108:47 *1112:35 4.47179e-05
31 *1108:47 *1112:55 2.33416e-05
32 *1108:53 *2191:A 8.86892e-05
33 *1275:A *1108:47 0.000150019
34 *1275:A *1108:51 0.000117376
35 *1276:B *1108:47 0.000159209
36 *1283:A1 *1108:19 0
37 *1283:A2 *1108:19 7.86847e-05
38 *1283:A2 *1108:32 8.61654e-05
39 *1283:A3 *1108:32 3.38137e-05
40 *1283:A3 *1108:47 5.07661e-05
41 *1381:B1 *1108:51 0.000423936
42 *1410:A *2010:CLK 1.19856e-05
43 *1410:B *2010:CLK 1.62073e-05
44 *1413:A *2010:CLK 6.08467e-05
45 *1414:A *2010:CLK 0
46 *1418:A1 *2033:CLK 3.14194e-05
47 *1418:A1 *1108:51 9.99867e-06
48 *1418:B1 *2033:CLK 4.24488e-05
49 *2007:D *2007:CLK 6.24387e-05
50 *2007:D *2033:CLK 6.27782e-05
51 *2007:D *1108:53 7.72761e-06
52 *2008:D *2008:CLK 3.16131e-05
53 *2534:A *2012:CLK 0
54 *2554:A *2012:CLK 0
55 *2562:A *2012:CLK 0
56 *461:10 *1108:47 1.04731e-05
57 *548:65 *1108:19 7.50722e-05
58 *548:65 *1108:32 0.0003214
59 *548:65 *1108:47 0.000392233
60 *711:16 *2007:CLK 2.02035e-05
61 *712:16 *1108:32 7.04109e-05
62 *1042:10 *2008:CLK 1.43698e-05
63 *1042:10 *1108:19 0.000127179
64 *1047:8 *1108:19 0
65 *1104:59 *2012:CLK 0
66 *1104:59 *1108:53 0
*RES
1 *2490:X *1108:8 15.9964 
2 *1108:8 *2008:CLK 23.9008 
3 *1108:8 *1108:19 4.73876 
4 *1108:19 *2010:CLK 17.6796 
5 *1108:19 *1108:32 5.98452 
6 *1108:32 *1984:CLK 14.4725 
7 *1108:32 *1108:47 20.7727 
8 *1108:47 *1108:51 15.2063 
9 *1108:51 *1108:53 3.493 
10 *1108:53 *2007:CLK 17.6574 
11 *1108:53 *2033:CLK 20.0427 
12 *1108:51 *2012:CLK 23.0557 
13 *1108:47 *1989:CLK 20.9116 
14 *2490:X *2062:CLK 21.4401 
*END

*D_NET *1123 0.0109577
*CONN
*I *2089:CLK I *D sky130_fd_sc_hd__dfrtp_1
*I *1930:CLK I *D sky130_fd_sc_hd__dfrtp_1
*I *2041:CLK I *D sky130_fd_sc_hd__dfrtp_1
*I *2082:CLK I *D sky130_fd_sc_hd__dfrtp_1
*I *2074:CLK I *D sky130_fd_sc_hd__dfrtp_1
*I *2070:CLK I *D sky130_fd_sc_hd__dfrtp_1
*I *2083:CLK I *D sky130_fd_sc_hd__dfrtp_1
*I *2042:CLK I *D sky130_fd_sc_hd__dfrtp_1
*I *2505:X O *D sky130_fd_sc_hd__clkbuf_16
*CAP
1 *2089:CLK 2.41991e-05
2 *1930:CLK 0.000585612
3 *2041:CLK 0
4 *2082:CLK 8.53833e-05
5 *2074:CLK 0.000213503
6 *2070:CLK 0
7 *2083:CLK 0
8 *2042:CLK 0.000388566
9 *2505:X 5.56308e-05
10 *1123:88 0.000718091
11 *1123:34 0.000830379
12 *1123:28 0.000578689
13 *1123:26 0.00108653
14 *1123:20 0.0011525
15 *1123:14 0.000636123
16 *1123:8 0.000469076
17 *1123:20 *2505:A 0
18 cio_gpio_o[1] *1123:88 1.91246e-05
19 *1304:B1 *2082:CLK 0.000102155
20 *1304:B1 *1123:20 0.000185452
21 *1311:A *2074:CLK 4.43331e-05
22 *1311:A *1123:28 4.54899e-05
23 *1331:B1 *2074:CLK 0
24 *1576:A2 *1930:CLK 9.04224e-05
25 *1577:A *1930:CLK 0.000160617
26 *1578:C1 *1930:CLK 2.41916e-05
27 *1583:B *1930:CLK 0.000400321
28 *1673:A *2042:CLK 0
29 *1674:B1 *2042:CLK 8.40246e-05
30 *1675:B *1123:20 8.85947e-05
31 *1676:A1 *2089:CLK 4.26167e-05
32 *2041:D *1123:14 2.58757e-05
33 *2070:D *1123:34 2.55561e-05
34 *2070:RESET_B *1123:34 0
35 *2074:D *2074:CLK 3.90891e-05
36 *2079:RESET_B *1123:26 0.000405074
37 *2089:D *2089:CLK 0.000106225
38 *2089:D *1123:8 4.97352e-05
39 *2089:D *1123:88 8.56223e-05
40 *2132:A *1930:CLK 0.000143032
41 *477:32 *1930:CLK 0.00109919
42 *480:8 *1123:34 0.000260505
43 *637:31 *1930:CLK 4.37999e-05
44 *637:31 *1123:8 5.62448e-05
45 *637:31 *1123:88 8.5219e-05
46 *834:23 *1123:26 0.000112401
47 *837:12 *2082:CLK 0
48 *837:12 *1123:20 7.92757e-06
49 *1107:171 *1123:34 6.80864e-05
50 *1107:234 *2074:CLK 2.32865e-05
51 *1107:234 *1123:28 0.000119587
52 *1107:234 *1123:34 8.95833e-05
53 *1107:260 *2074:CLK 0
*RES
1 *2505:X *1123:8 15.9964 
2 *1123:8 *1123:14 11.5022 
3 *1123:14 *1123:20 13.4291 
4 *1123:20 *1123:26 20.8155 
5 *1123:26 *1123:28 4.73876 
6 *1123:28 *1123:34 17.7238 
7 *1123:34 *2042:CLK 27.2293 
8 *1123:34 *2083:CLK 9.24915 
9 *1123:28 *2070:CLK 13.7491 
10 *1123:26 *2074:CLK 19.3184 
11 *1123:20 *2082:CLK 15.9964 
12 *1123:14 *2041:CLK 9.24915 
13 *1123:8 *1123:88 3.90826 
14 *1123:88 *1930:CLK 33.2427 
15 *1123:88 *2089:CLK 14.9608 
*END

*D_NET *1124 0.0105597
*CONN
*I *1931:CLK I *D sky130_fd_sc_hd__dfrtp_1
*I *1962:CLK I *D sky130_fd_sc_hd__dfrtp_1
*I *1934:CLK I *D sky130_fd_sc_hd__dfrtp_1
*I *1961:CLK I *D sky130_fd_sc_hd__dfrtp_1
*I *2126:CLK I *D sky130_fd_sc_hd__dfrtp_1
*I *2125:CLK I *D sky130_fd_sc_hd__dfrtp_1
*I *1922:CLK I *D sky130_fd_sc_hd__dfrtp_1
*I *2090:CLK I *D sky130_fd_sc_hd__dfrtp_1
*I *2506:X O *D sky130_fd_sc_hd__clkbuf_16
*CAP
1 *1931:CLK 0.000285105
2 *1962:CLK 0.00018282
3 *1934:CLK 0.000660312
4 *1961:CLK 0
5 *2126:CLK 0
6 *2125:CLK 0.000816901
7 *1922:CLK 2.19103e-05
8 *2090:CLK 0.000439618
9 *2506:X 0.00010658
10 *1124:83 0.000467925
11 *1124:36 0.00133251
12 *1124:20 0.000686805
13 *1124:14 0.00134813
14 *1124:8 0.00137414
15 *1233:A *1934:CLK 0
16 *1235:A *1934:CLK 0
17 *1517:A1 *1931:CLK 0.00011911
18 *1529:A1 *1931:CLK 4.42142e-05
19 *1534:B1 *1934:CLK 0
20 *1541:A2 *1124:8 7.48797e-05
21 *1541:A2 *1124:14 0
22 *1543:A1 *1962:CLK 6.50586e-05
23 *1543:B1 *1962:CLK 2.65831e-05
24 *1559:B *1934:CLK 0.000107863
25 *1578:A1 *2090:CLK 2.63427e-05
26 *1617:A1 *1934:CLK 2.32233e-05
27 *1617:B1 *1934:CLK 0.000148144
28 *1625:A2 *1124:20 5.6562e-05
29 *1713:A *1931:CLK 0.000111708
30 *1742:A2 *2125:CLK 9.04668e-05
31 *1749:A *1124:20 0.000195365
32 *1922:RESET_B *1922:CLK 2.30636e-05
33 *1922:RESET_B *2090:CLK 7.27004e-05
34 *1926:RESET_B *1934:CLK 0
35 *1961:D *1124:20 2.78772e-05
36 *1962:D *1962:CLK 6.50727e-05
37 *2041:RESET_B *2090:CLK 5.04829e-06
38 *2090:RESET_B *2090:CLK 6.62428e-05
39 *2125:D *2125:CLK 0.000195605
40 *2126:D *1124:36 2.16355e-05
41 *2126:RESET_B *1124:36 7.15888e-05
42 *185:237 *1124:14 0
43 *185:278 *1934:CLK 5.2531e-05
44 *458:253 *1934:CLK 2.69087e-05
45 *598:228 *1962:CLK 0.000180125
46 *598:258 *1934:CLK 0
47 *611:212 *1931:CLK 8.55826e-05
48 *611:212 *1934:CLK 0
49 *642:22 *1962:CLK 2.29203e-05
50 *758:8 *1934:CLK 0
51 *786:20 *2125:CLK 6.8802e-05
52 *790:12 *2125:CLK 4.15143e-05
53 *838:21 *2125:CLK 7.11505e-05
54 *838:39 *1962:CLK 0.000173066
55 *853:6 *2125:CLK 6.3657e-05
56 *853:28 *2125:CLK 0.000158357
57 *910:63 *2125:CLK 9.13394e-06
58 *910:63 *1124:36 1.43698e-05
59 *998:12 *1934:CLK 0.000137458
60 *1013:14 *1934:CLK 9.29777e-05
61 *1113:323 *1931:CLK 0
*RES
1 *2506:X *1124:8 15.5817 
2 *1124:8 *1124:14 18.415 
3 *1124:14 *1124:20 15.815 
4 *1124:20 *2090:CLK 19.9554 
5 *1124:20 *1922:CLK 9.97254 
6 *1124:14 *1124:36 11.2609 
7 *1124:36 *2125:CLK 35.5725 
8 *1124:36 *2126:CLK 9.24915 
9 *1124:14 *1961:CLK 9.24915 
10 *1124:8 *1934:CLK 30.1882 
11 *2506:X *1124:83 9.24915 
12 *1124:83 *1962:CLK 25.0162 
13 *1124:83 *1931:CLK 25.3779 
*END

*D_NET *1125 0.00711329
*CONN
*I *2111:CLK I *D sky130_fd_sc_hd__dfrtp_1
*I *2112:CLK I *D sky130_fd_sc_hd__dfrtp_1
*I *2038:CLK I *D sky130_fd_sc_hd__dfrtp_1
*I *1965:CLK I *D sky130_fd_sc_hd__dfrtp_1
*I *2037:CLK I *D sky130_fd_sc_hd__dfrtp_1
*I *1957:CLK I *D sky130_fd_sc_hd__dfrtp_1
*I *1926:CLK I *D sky130_fd_sc_hd__dfrtp_1
*I *2123:CLK I *D sky130_fd_sc_hd__dfrtp_1
*I *2507:X O *D sky130_fd_sc_hd__clkbuf_16
*CAP
1 *2111:CLK 0.000167494
2 *2112:CLK 0.000242523
3 *2038:CLK 0
4 *1965:CLK 0
5 *2037:CLK 0.000308593
6 *1957:CLK 0.000203739
7 *1926:CLK 2.63348e-05
8 *2123:CLK 0.000129252
9 *2507:X 0.000201501
10 *1125:91 0.000518836
11 *1125:35 0.0003577
12 *1125:33 0.000526309
13 *1125:31 0.000194045
14 *1125:18 0.000812683
15 *1125:8 0.000672159
16 *1520:A1 *1957:CLK 1.41181e-05
17 *1520:A2 *1957:CLK 6.08467e-05
18 *1558:B2 *2037:CLK 4.45999e-05
19 *1737:B *2037:CLK 9.5562e-05
20 *1760:B *2123:CLK 3.13805e-06
21 *1764:B1 *2123:CLK 4.28856e-07
22 *1764:B1 *1125:31 5.91501e-05
23 *1807:A2 *1125:31 1.47583e-05
24 *2037:D *2037:CLK 7.16754e-05
25 *2037:RESET_B *2037:CLK 2.28919e-05
26 *2038:D *1125:18 2.3695e-05
27 *2111:D *2111:CLK 6.92705e-05
28 *2112:D *2112:CLK 7.97944e-05
29 *2112:RESET_B *1125:91 1.82696e-05
30 *2123:D *1125:18 6.08467e-05
31 *2124:RESET_B *2037:CLK 3.92706e-05
32 *269:12 *2037:CLK 6.11872e-05
33 *626:14 *1957:CLK 0.000351493
34 *776:16 *1957:CLK 8.82641e-05
35 *776:16 *1125:33 6.06031e-05
36 *776:16 *1125:35 0.000157446
37 *788:14 *1957:CLK 0.000189414
38 *788:14 *1125:31 0.000243661
39 *788:14 *1125:33 0.000217474
40 *788:14 *1125:35 0.000367283
41 *864:8 *1125:18 9.28409e-05
42 *869:6 *2037:CLK 0.000143875
43 *1106:87 *2111:CLK 0.000100268
*RES
1 *2507:X *1125:8 15.9964 
2 *1125:8 *1125:18 14.8903 
3 *1125:18 *2123:CLK 11.5158 
4 *1125:18 *1125:31 8.82351 
5 *1125:31 *1125:33 3.90826 
6 *1125:33 *1125:35 6.39977 
7 *1125:35 *1926:CLK 14.4819 
8 *1125:35 *1957:CLK 21.8719 
9 *1125:33 *2037:CLK 23.3462 
10 *1125:31 *1965:CLK 13.7491 
11 *1125:8 *2038:CLK 13.7491 
12 *2507:X *1125:91 20.9116 
13 *1125:91 *2112:CLK 15.5186 
14 *1125:91 *2111:CLK 14.4094 
*END

*D_NET *1126 0.0132424
*CONN
*I *2115:CLK I *D sky130_fd_sc_hd__dfrtp_1
*I *2114:CLK I *D sky130_fd_sc_hd__dfrtp_1
*I *2113:CLK I *D sky130_fd_sc_hd__dfrtp_1
*I *2116:CLK I *D sky130_fd_sc_hd__dfrtp_1
*I *1970:CLK I *D sky130_fd_sc_hd__dfrtp_1
*I *1939:CLK I *D sky130_fd_sc_hd__dfrtp_1
*I *2117:CLK I *D sky130_fd_sc_hd__dfrtp_1
*I *1938:CLK I *D sky130_fd_sc_hd__dfrtp_1
*I *2508:X O *D sky130_fd_sc_hd__clkbuf_16
*CAP
1 *2115:CLK 0.000358586
2 *2114:CLK 0.000254042
3 *2113:CLK 0.000975159
4 *2116:CLK 0.000255492
5 *1970:CLK 0.000389104
6 *1939:CLK 0.000250044
7 *2117:CLK 0.000300451
8 *1938:CLK 0.000408004
9 *2508:X 0
10 *1126:92 0.000787168
11 *1126:79 0.00175206
12 *1126:38 0.000815294
13 *1126:25 0.000955705
14 *1126:10 0.000930873
15 *1126:8 0.000381139
16 *1126:6 0.000684242
17 *1195:B *1939:CLK 3.14099e-05
18 *1234:A *1970:CLK 0.00021561
19 *1518:B *1939:CLK 0.000116971
20 *1781:A *2116:CLK 5.50208e-05
21 *1781:A *1126:8 0.000117703
22 *1781:A *1126:79 1.03594e-05
23 *1787:A1 *1938:CLK 6.08167e-05
24 *1787:A2 *1938:CLK 0
25 *1787:B1 *1938:CLK 1.44467e-05
26 *1787:B1 *1126:8 2.61592e-05
27 *1787:B1 *1126:10 2.57102e-05
28 *1787:B1 *1126:79 9.66028e-05
29 *1788:A1 *1126:92 1.12605e-05
30 *1791:B1 *1126:79 6.08467e-05
31 *1794:B *1126:79 7.77309e-06
32 *1795:A *1126:79 5.05252e-05
33 *1810:A *1126:92 0.000144546
34 *1810:B *2113:CLK 0.000169733
35 *1810:B *1126:79 0.000481668
36 *1811:A *2113:CLK 9.01704e-06
37 *1934:RESET_B *1939:CLK 0
38 *1934:RESET_B *1126:38 0
39 *2113:D *2113:CLK 0.000201556
40 *2114:RESET_B *2114:CLK 5.20546e-06
41 *2114:RESET_B *2115:CLK 9.14669e-05
42 *2114:RESET_B *1126:92 0.000132607
43 *2115:D *2115:CLK 1.50924e-05
44 *2115:D *1126:92 0
45 *2116:RESET_B *2116:CLK 0.000107496
46 *2117:D *2117:CLK 5.52748e-05
47 *2117:D *1126:25 3.53797e-05
48 *2117:D *1126:38 2.07093e-05
49 *2117:RESET_B *1126:25 0.000110084
50 *2174:A *1938:CLK 8.16827e-05
51 *2174:A *1126:8 0.000174166
52 *2174:A *1126:10 6.17846e-05
53 *2174:A *1126:79 0.000233436
54 *117:14 *1938:CLK 0.000212554
55 *305:28 *1126:79 0.000103452
56 *307:10 *1938:CLK 0.000122378
57 *307:10 *1126:25 4.91225e-06
58 *309:10 *1126:79 0.000170592
59 *310:10 *1126:79 2.77625e-06
60 *877:10 *1126:25 6.64597e-05
61 *1106:173 *1126:79 2.98322e-05
*RES
1 *2508:X *1126:6 13.7491 
2 *1126:6 *1126:8 3.493 
3 *1126:8 *1126:10 1.41674 
4 *1126:10 *1938:CLK 26.4268 
5 *1126:10 *1126:25 11.8786 
6 *1126:25 *2117:CLK 14.2888 
7 *1126:25 *1126:38 8.82351 
8 *1126:38 *1939:CLK 19.4405 
9 *1126:38 *1970:CLK 23.9008 
10 *1126:8 *2116:CLK 18.2342 
11 *1126:6 *1126:79 20.2153 
12 *1126:79 *2113:CLK 24.8263 
13 *1126:79 *1126:92 9.23876 
14 *1126:92 *2114:CLK 17.6796 
15 *1126:92 *2115:CLK 22.6783 
*END

*D_NET *1127 0.00882362
*CONN
*I *1943:CLK I *D sky130_fd_sc_hd__dfrtp_1
*I *1978:CLK I *D sky130_fd_sc_hd__dfrtp_1
*I *1944:CLK I *D sky130_fd_sc_hd__dfrtp_1
*I *1980:CLK I *D sky130_fd_sc_hd__dfrtp_1
*I *1975:CLK I *D sky130_fd_sc_hd__dfrtp_1
*I *1927:CLK I *D sky130_fd_sc_hd__dfrtp_1
*I *1969:CLK I *D sky130_fd_sc_hd__dfrtp_1
*I *1974:CLK I *D sky130_fd_sc_hd__dfrtp_1
*I *2509:X O *D sky130_fd_sc_hd__clkbuf_16
*CAP
1 *1943:CLK 0.000451735
2 *1978:CLK 0
3 *1944:CLK 3.00343e-06
4 *1980:CLK 0.000246281
5 *1975:CLK 3.01826e-05
6 *1927:CLK 0
7 *1969:CLK 0.000429668
8 *1974:CLK 0.000175172
9 *2509:X 0.000215698
10 *1127:73 0.000571971
11 *1127:71 0.000451456
12 *1127:35 0.000927815
13 *1127:33 0.000935181
14 *1127:27 0.000709058
15 *1127:16 0.000714164
16 *1127:8 0.000781455
17 *1495:B *1980:CLK 2.01623e-05
18 *1507:A *1127:27 0
19 *1606:A *1969:CLK 0.000123025
20 *1609:A2 *1969:CLK 7.73683e-05
21 *1707:A *1127:73 0.000152586
22 *1927:RESET_B *1969:CLK 0
23 *1927:RESET_B *1127:35 4.70567e-05
24 *1938:RESET_B *1974:CLK 0.000122441
25 *1974:D *1127:27 0
26 *1974:RESET_B *1943:CLK 3.75603e-05
27 *1975:D *1127:73 5.13058e-05
28 *1978:D *1127:27 2.78772e-05
29 *1980:RESET_B *1980:CLK 0.00014924
30 *117:14 *1969:CLK 2.44579e-05
31 *185:323 *1969:CLK 2.58616e-05
32 *185:329 *1969:CLK 0.000201442
33 *185:436 *1969:CLK 2.16355e-05
34 *388:16 *1969:CLK 5.04829e-06
35 *388:75 *1127:33 0
36 *388:75 *1127:71 2.78316e-05
37 *388:79 *1944:CLK 6.34651e-06
38 *388:79 *1975:CLK 4.89462e-06
39 *388:79 *1980:CLK 1.94615e-05
40 *388:79 *1127:71 5.66868e-06
41 *388:79 *1127:73 0.000178428
42 *388:81 *1980:CLK 0.000146825
43 *597:146 *1127:33 0
44 *597:146 *1127:71 0
45 *598:651 *1943:CLK 0.000380965
46 *618:10 *1969:CLK 7.98171e-06
47 *727:20 *1975:CLK 0
48 *727:20 *1980:CLK 0.000146825
49 *966:18 *1127:8 0
50 *966:18 *1127:16 0
51 *966:18 *1127:27 0
52 *1008:12 *1943:CLK 0
53 *1008:12 *1127:27 0
54 *1020:12 *1127:71 0.000101148
55 *1111:273 *1980:CLK 6.73351e-05
56 *1111:561 *1127:27 0
*RES
1 *2509:X *1127:8 19.1108 
2 *1127:8 *1127:16 7.44401 
3 *1127:16 *1974:CLK 13.8548 
4 *1127:16 *1127:27 15.0523 
5 *1127:27 *1127:33 11.0742 
6 *1127:33 *1127:35 11.2609 
7 *1127:35 *1969:CLK 37.812 
8 *1127:35 *1927:CLK 9.24915 
9 *1127:33 *1127:71 9.34868 
10 *1127:71 *1127:73 9.92941 
11 *1127:73 *1975:CLK 14.4819 
12 *1127:73 *1980:CLK 22.957 
13 *1127:71 *1944:CLK 14.1278 
14 *1127:27 *1978:CLK 13.7491 
15 *1127:8 *1943:CLK 23.3227 
*END

*D_NET *1128 0.00827306
*CONN
*I *1947:CLK I *D sky130_fd_sc_hd__dfrtp_1
*I *1949:CLK I *D sky130_fd_sc_hd__dfrtp_1
*I *1946:CLK I *D sky130_fd_sc_hd__dfrtp_1
*I *1977:CLK I *D sky130_fd_sc_hd__dfrtp_1
*I *1976:CLK I *D sky130_fd_sc_hd__dfrtp_1
*I *1952:CLK I *D sky130_fd_sc_hd__dfrtp_1
*I *1983:CLK I *D sky130_fd_sc_hd__dfrtp_1
*I *1942:CLK I *D sky130_fd_sc_hd__dfrtp_1
*I *2510:X O *D sky130_fd_sc_hd__clkbuf_16
*CAP
1 *1947:CLK 0.000247244
2 *1949:CLK 6.49656e-05
3 *1946:CLK 5.45239e-05
4 *1977:CLK 0
5 *1976:CLK 0.000246938
6 *1952:CLK 0
7 *1983:CLK 0.00048863
8 *1942:CLK 0.00051733
9 *2510:X 0.000227893
10 *1128:80 0.000557438
11 *1128:67 0.000543753
12 *1128:37 0.00048863
13 *1128:22 0.00063947
14 *1128:20 0.000547123
15 *1128:16 0.000529931
16 *1128:8 0.000823779
17 axi_lite_o[10] *1128:20 7.13655e-06
18 axi_lite_o[18] *1942:CLK 0.000190974
19 axi_lite_o[3] *1976:CLK 0.00033955
20 axi_lite_o[4] *1128:8 5.53422e-05
21 axi_lite_o[8] *1128:80 8.6595e-05
22 *1185:B *1949:CLK 1.0759e-05
23 *1186:A2 *1947:CLK 0
24 *1186:B1 *1947:CLK 3.73505e-05
25 *1186:B1 *1949:CLK 6.46815e-05
26 *1217:B1 *1946:CLK 6.99486e-05
27 *1231:A *1946:CLK 2.44829e-05
28 *1231:A *1128:67 6.31665e-05
29 *1929:RESET_B *1976:CLK 8.91291e-05
30 *1933:RESET_B *1983:CLK 0.000146565
31 *1949:D *1128:80 0.000126335
32 *1952:D *1942:CLK 3.01634e-05
33 *1977:D *1128:20 3.44412e-06
34 *1977:RESET_B *1128:16 2.39228e-05
35 *1977:RESET_B *1128:20 5.0539e-05
36 *2139:A *1128:67 0
37 *2139:A *1128:80 0
38 *183:138 *1128:16 0
39 *183:138 *1128:67 0
40 *183:142 *1128:67 2.21765e-05
41 *183:142 *1128:80 5.68225e-06
42 *183:155 *1947:CLK 0.000340851
43 *183:155 *1128:80 1.19381e-05
44 *597:99 *1942:CLK 0
45 *598:548 *1942:CLK 0
46 *598:561 *1942:CLK 0
47 *598:561 *1128:22 0
48 *598:578 *1128:16 0.000195896
49 *598:578 *1128:67 0.000116454
50 *598:582 *1128:67 0
51 *725:18 *1942:CLK 3.20407e-05
52 *1018:10 *1942:CLK 4.08704e-05
53 *1113:615 *1942:CLK 0.000109421
*RES
1 *2510:X *1128:8 17.2456 
2 *1128:8 *1128:16 11.9235 
3 *1128:16 *1128:20 8.82351 
4 *1128:20 *1128:22 2.6625 
5 *1128:22 *1942:CLK 27.1336 
6 *1128:22 *1128:37 4.5 
7 *1128:37 *1983:CLK 21.0646 
8 *1128:37 *1952:CLK 9.24915 
9 *1128:20 *1976:CLK 22.8157 
10 *1128:16 *1977:CLK 9.24915 
11 *1128:8 *1128:67 5.98452 
12 *1128:67 *1946:CLK 15.5817 
13 *1128:67 *1128:80 11.7303 
14 *1128:80 *1949:CLK 11.1059 
15 *1128:80 *1947:CLK 25.5117 
*END

*D_NET *1129 0.00751113
*CONN
*I *1929:CLK I *D sky130_fd_sc_hd__dfrtp_1
*I *1935:CLK I *D sky130_fd_sc_hd__dfrtp_1
*I *1958:CLK I *D sky130_fd_sc_hd__dfrtp_1
*I *1966:CLK I *D sky130_fd_sc_hd__dfrtp_1
*I *1923:CLK I *D sky130_fd_sc_hd__dfrtp_1
*I *1960:CLK I *D sky130_fd_sc_hd__dfrtp_1
*I *1964:CLK I *D sky130_fd_sc_hd__dfrtp_1
*I *1933:CLK I *D sky130_fd_sc_hd__dfrtp_1
*I *2511:X O *D sky130_fd_sc_hd__clkbuf_16
*CAP
1 *1929:CLK 1.15813e-05
2 *1935:CLK 0
3 *1958:CLK 0.000535853
4 *1966:CLK 0
5 *1923:CLK 0.00014351
6 *1960:CLK 0.000127994
7 *1964:CLK 0.000324301
8 *1933:CLK 0
9 *2511:X 1.15813e-05
10 *1129:74 0.000728778
11 *1129:61 0.000630085
12 *1129:53 0.000632439
13 *1129:14 0.000640074
14 *1129:8 0.000770816
15 *1129:6 0.000665837
16 *1537:A2 *1964:CLK 4.20662e-05
17 *1550:B *1960:CLK 5.23947e-05
18 *1580:A1 *1129:74 0
19 *1580:B1 *1923:CLK 5.73215e-05
20 *1580:B1 *1129:61 0.000181266
21 *1618:B *1964:CLK 0.00011818
22 *1618:B *1129:14 6.75138e-05
23 *1619:B1 *1964:CLK 6.9879e-05
24 *1696:A *1923:CLK 0
25 *1923:D *1129:61 0
26 *1923:RESET_B *1129:61 5.14448e-05
27 *1929:D *1129:8 0
28 *1933:D *1964:CLK 9.82896e-06
29 *1933:D *1129:14 7.97944e-05
30 *1935:RESET_B *1129:53 0.00014924
31 *1935:RESET_B *1129:61 6.02583e-05
32 *1960:D *1960:CLK 7.621e-05
33 *1960:RESET_B *1129:14 0
34 *185:337 *1129:8 0
35 *185:345 *1964:CLK 1.77537e-06
36 *185:345 *1129:8 0
37 *185:345 *1129:14 0
38 *388:113 *1964:CLK 0.000334495
39 *388:212 *1964:CLK 0
40 *727:20 *1929:CLK 2.99287e-05
41 *727:20 *1129:8 1.07248e-05
42 *727:20 *1129:53 0.000127179
43 *963:10 *1129:53 2.41274e-06
44 *980:12 *1129:61 4.31703e-05
45 *1111:172 *1129:8 6.52332e-05
46 *1111:172 *1129:53 5.01668e-05
47 *1111:299 *1929:CLK 1.78942e-05
48 *1113:292 *1923:CLK 6.50586e-05
49 *1113:292 *1958:CLK 4.68256e-05
50 *1113:292 *1129:61 1.91114e-05
51 *1113:292 *1129:74 0.00030572
52 *1113:302 *1958:CLK 0.000119367
53 *1113:316 *1958:CLK 3.20407e-05
54 *1113:773 *1964:CLK 1.77537e-06
*RES
1 *2511:X *1129:6 13.7491 
2 *1129:6 *1129:8 7.64553 
3 *1129:8 *1129:14 13.1476 
4 *1129:14 *1933:CLK 9.24915 
5 *1129:14 *1964:CLK 27.674 
6 *1129:8 *1960:CLK 17.8002 
7 *1129:6 *1129:53 14.6805 
8 *1129:53 *1129:61 13.6129 
9 *1129:61 *1923:CLK 17.8243 
10 *1129:61 *1129:74 5.98452 
11 *1129:74 *1966:CLK 13.7491 
12 *1129:74 *1958:CLK 26.2846 
13 *1129:53 *1935:CLK 9.24915 
14 *2511:X *1929:CLK 19.2217 
*END

*D_NET *1130 0.0141313
*CONN
*I *1937:CLK I *D sky130_fd_sc_hd__dfrtp_1
*I *1954:CLK I *D sky130_fd_sc_hd__dfrtp_1
*I *1953:CLK I *D sky130_fd_sc_hd__dfrtp_1
*I *1925:CLK I *D sky130_fd_sc_hd__dfrtp_1
*I *2092:CLK I *D sky130_fd_sc_hd__dfrtp_1
*I *1955:CLK I *D sky130_fd_sc_hd__dfrtp_1
*I *2128:CLK I *D sky130_fd_sc_hd__dfrtp_1
*I *1968:CLK I *D sky130_fd_sc_hd__dfrtp_1
*I *2512:X O *D sky130_fd_sc_hd__clkbuf_16
*CAP
1 *1937:CLK 7.10588e-05
2 *1954:CLK 0.000403458
3 *1953:CLK 0.000591542
4 *1925:CLK 0
5 *2092:CLK 0.000629134
6 *1955:CLK 0.000403142
7 *2128:CLK 0.000398982
8 *1968:CLK 0.000922311
9 *2512:X 4.76743e-05
10 *1130:94 0.000706735
11 *1130:46 0.00114846
12 *1130:35 0.000602088
13 *1130:33 0.000412503
14 *1130:29 0.00128602
15 *1130:10 0.00136644
16 *1130:8 0.000355117
17 *1130:8 *2512:A 4.0752e-05
18 *1525:A2 *1968:CLK 0
19 *1535:A1 *1130:94 3.00073e-05
20 *1535:B1 *1130:94 0.000118485
21 *1565:A1 *1955:CLK 3.94515e-05
22 *1697:A *1954:CLK 0.000325832
23 *1720:A *1968:CLK 7.93392e-05
24 *1730:B *1954:CLK 7.56859e-06
25 *1731:A *1954:CLK 0.000192837
26 *1731:B *1954:CLK 5.04829e-06
27 *1732:B *1937:CLK 0.000112367
28 *1732:B *1954:CLK 6.27718e-05
29 *1769:A *1955:CLK 0.000111625
30 *1901:A *2128:CLK 8.12759e-05
31 *1901:B *2092:CLK 0.000255277
32 *1904:A2 *1953:CLK 0
33 *1937:RESET_B *1937:CLK 0.000296526
34 *1937:RESET_B *1954:CLK 6.08467e-05
35 *1937:RESET_B *1130:94 7.53339e-05
36 *1954:RESET_B *1954:CLK 0.000111722
37 *1968:D *1968:CLK 0.000164495
38 *2092:D *2092:CLK 2.58616e-05
39 *2092:RESET_B *2128:CLK 8.26466e-05
40 *2141:A *1968:CLK 0.000449845
41 *2145:A *1937:CLK 4.66112e-05
42 *185:154 *1968:CLK 5.04423e-06
43 *185:178 *1130:94 0
44 *185:228 *1954:CLK 0.000139435
45 *388:220 *1954:CLK 0
46 *458:105 *1953:CLK 0.000160384
47 *458:105 *1130:46 0
48 *598:115 *1130:29 0.000134849
49 *598:145 *1937:CLK 7.28567e-06
50 *598:360 *1968:CLK 0.000103211
51 *611:136 *1953:CLK 4.55235e-05
52 *620:8 *1130:8 0.000220183
53 *628:22 *1130:94 0
54 *638:10 *1953:CLK 3.52061e-05
55 *778:22 *1968:CLK 0.000206718
56 *778:22 *2092:CLK 3.66374e-05
57 *778:28 *2092:CLK 0.000143227
58 *778:50 *1130:46 0
59 *832:43 *1130:8 0.000171288
60 *832:43 *1130:94 3.08133e-05
61 *855:8 *1955:CLK 0.000127164
62 *856:6 *2128:CLK 6.75138e-05
63 *856:6 *1130:35 2.65831e-05
64 *985:12 *1954:CLK 2.5971e-05
65 *1113:161 *1968:CLK 2.95656e-05
66 *1113:161 *1130:10 3.45797e-05
67 *1113:161 *1130:94 2.15656e-05
68 *1113:170 *1968:CLK 0.000237336
*RES
1 *2512:X *1130:8 16.691 
2 *1130:8 *1130:10 1.832 
3 *1130:10 *1968:CLK 34.5097 
4 *1130:10 *1130:29 10.2148 
5 *1130:29 *1130:33 5.03966 
6 *1130:33 *1130:35 2.38721 
7 *1130:35 *2128:CLK 19.4008 
8 *1130:35 *1130:46 7.1625 
9 *1130:46 *1955:CLK 24.7167 
10 *1130:46 *2092:CLK 25.7816 
11 *1130:33 *1925:CLK 9.24915 
12 *1130:29 *1953:CLK 29.6914 
13 *1130:8 *1130:94 11.315 
14 *1130:94 *1954:CLK 31.3574 
15 *1130:94 *1937:CLK 13.3243 
*END

*D_NET *1131 0.0102005
*CONN
*I *1959:CLK I *D sky130_fd_sc_hd__dfrtp_1
*I *1928:CLK I *D sky130_fd_sc_hd__dfrtp_1
*I *1936:CLK I *D sky130_fd_sc_hd__dfrtp_1
*I *1967:CLK I *D sky130_fd_sc_hd__dfrtp_1
*I *1972:CLK I *D sky130_fd_sc_hd__dfrtp_1
*I *2103:CLK I *D sky130_fd_sc_hd__dfrtp_1
*I *2102:CLK I *D sky130_fd_sc_hd__dfrtp_1
*I *1956:CLK I *D sky130_fd_sc_hd__dfrtp_1
*I *2513:X O *D sky130_fd_sc_hd__clkbuf_16
*CAP
1 *1959:CLK 0.000107078
2 *1928:CLK 0
3 *1936:CLK 0.000201703
4 *1967:CLK 2.30412e-05
5 *1972:CLK 0.000557861
6 *2103:CLK 2.64456e-05
7 *2102:CLK 0.000787078
8 *1956:CLK 0.000314322
9 *2513:X 6.48745e-05
10 *1131:27 0.000977134
11 *1131:25 0.000806859
12 *1131:23 0.000208485
13 *1131:21 0.00042291
14 *1131:19 0.000346349
15 *1131:8 0.000715982
16 *1131:6 0.000348414
17 *1189:A *1972:CLK 0.000377273
18 *1511:A2 *1131:27 0
19 *1527:B *1972:CLK 0.000100657
20 *1528:A1 *1972:CLK 6.88361e-05
21 *1528:A2 *1131:21 1.37921e-05
22 *1528:A2 *1131:23 3.76373e-05
23 *1528:A2 *1131:25 4.79669e-05
24 *1528:A2 *1131:27 9.34396e-06
25 *1528:B1 *1972:CLK 0.000430929
26 *1613:A1 *1936:CLK 6.3657e-05
27 *1613:A2 *1936:CLK 3.44843e-05
28 *1613:B1 *1936:CLK 0.00021568
29 *1745:B *1972:CLK 0.000115934
30 *1766:B *2102:CLK 0
31 *1936:D *1936:CLK 0.00021568
32 *2142:A *1131:19 0.000118485
33 *185:67 *1131:19 0
34 *185:67 *1131:21 0
35 *185:73 *1967:CLK 6.27782e-05
36 *185:120 *1131:19 0
37 *388:131 *1131:19 4.83622e-05
38 *388:143 *1131:25 0
39 *388:143 *1131:27 0
40 *458:142 *2102:CLK 0
41 *612:10 *2103:CLK 2.65831e-05
42 *622:6 *1936:CLK 6.76659e-05
43 *640:16 *1956:CLK 0.000422032
44 *640:16 *1131:8 8.1597e-05
45 *640:18 *1131:19 0
46 *728:20 *1972:CLK 4.34469e-05
47 *778:18 *1131:19 1.87125e-05
48 *778:18 *1131:21 9.54576e-05
49 *778:18 *1131:23 6.57892e-05
50 *778:18 *1131:25 6.5862e-05
51 *784:14 *1131:6 0.000465064
52 *784:14 *1131:8 0.000479083
53 *784:14 *1131:19 0
54 *988:12 *1956:CLK 5.05841e-05
55 *988:12 *1131:8 1.43983e-05
56 *1106:235 *1959:CLK 5.05771e-05
57 *1111:61 *1959:CLK 0.000144044
58 *1111:61 *1131:6 0.000204664
59 *1111:61 *1131:8 2.65667e-05
60 *1111:100 *1959:CLK 8.36586e-06
*RES
1 *2513:X *1131:6 14.4094 
2 *1131:6 *1131:8 7.37864 
3 *1131:8 *1956:CLK 19.4008 
4 *1131:8 *1131:19 10.8998 
5 *1131:19 *1131:21 3.90826 
6 *1131:21 *1131:23 3.07775 
7 *1131:23 *1131:25 3.07775 
8 *1131:25 *1131:27 3.90826 
9 *1131:27 *2102:CLK 25.8881 
10 *1131:27 *2103:CLK 14.4725 
11 *1131:25 *1972:CLK 31.1348 
12 *1131:23 *1967:CLK 14.4725 
13 *1131:21 *1936:CLK 20.5732 
14 *1131:19 *1928:CLK 13.7491 
15 *1131:6 *1959:CLK 21.7421 
*END

*D_NET *1132 0.00934333
*CONN
*I *1945:CLK I *D sky130_fd_sc_hd__dfrtp_1
*I *1951:CLK I *D sky130_fd_sc_hd__dfrtp_1
*I *1948:CLK I *D sky130_fd_sc_hd__dfrtp_1
*I *1981:CLK I *D sky130_fd_sc_hd__dfrtp_1
*I *1963:CLK I *D sky130_fd_sc_hd__dfrtp_1
*I *1932:CLK I *D sky130_fd_sc_hd__dfrtp_1
*I *1941:CLK I *D sky130_fd_sc_hd__dfrtp_1
*I *1973:CLK I *D sky130_fd_sc_hd__dfrtp_1
*I *2514:X O *D sky130_fd_sc_hd__clkbuf_16
*CAP
1 *1945:CLK 0.000178083
2 *1951:CLK 0
3 *1948:CLK 0.000154117
4 *1981:CLK 2.12792e-05
5 *1963:CLK 2.40881e-05
6 *1932:CLK 8.09312e-05
7 *1941:CLK 0.000202132
8 *1973:CLK 9.623e-05
9 *2514:X 0.000351201
10 *1132:88 0.000405863
11 *1132:86 0.000463909
12 *1132:39 0.000555018
13 *1132:37 0.00103247
14 *1132:27 0.00151026
15 *1132:10 0.0011659
16 axi_lite_o[18] *1132:27 0.000152954
17 axi_lite_o[18] *1132:37 6.22076e-05
18 axi_lite_o[5] *1132:10 1.80896e-05
19 axi_lite_o[5] *1132:86 0.000171273
20 *1219:A *1948:CLK 2.58616e-05
21 *1220:B1 *1948:CLK 6.24474e-06
22 *1508:B *1973:CLK 0.000203324
23 *1536:A *1132:37 3.52807e-05
24 *1536:B *1132:37 0.000164023
25 *1539:B *1132:37 0
26 *1540:A2 *1132:37 0.000144525
27 *1612:B *1941:CLK 0.000122844
28 *1621:A2 *1963:CLK 6.3657e-05
29 *1621:A2 *1132:39 0
30 *1679:B *1132:37 4.66889e-05
31 *1681:A *1132:37 0
32 *1932:D *1132:39 0
33 *1959:RESET_B *1132:37 7.444e-06
34 *1959:RESET_B *1132:39 1.59362e-06
35 *1973:D *1973:CLK 6.97525e-05
36 *1981:D *1132:27 0.00016195
37 *2138:A *1932:CLK 5.04829e-06
38 *2138:A *1941:CLK 0.000127164
39 *2173:A *1945:CLK 0.000122518
40 *2173:A *1132:86 6.50586e-05
41 *183:78 *1948:CLK 9.78191e-05
42 *183:95 *1132:88 0
43 *183:106 *1945:CLK 0
44 *183:106 *1132:88 0
45 *185:28 *1941:CLK 0.000106322
46 *185:28 *1132:39 7.84205e-05
47 *185:34 *1941:CLK 3.21048e-05
48 *597:75 *1132:10 0
49 *598:77 *1132:39 0
50 *598:548 *1945:CLK 0
51 *598:548 *1132:88 0
52 *725:18 *1973:CLK 7.8672e-05
53 *992:16 *1132:39 2.6096e-05
54 *1016:8 *1132:10 0.000288523
55 *1016:8 *1132:27 0.000130426
56 *1017:12 *1948:CLK 6.42979e-06
57 *1017:12 *1132:88 3.65807e-05
58 *1111:366 *1948:CLK 0.000166219
59 *1111:366 *1132:88 0.000171274
60 *1113:559 *1132:27 0
61 *1113:615 *1132:27 0.00010545
62 *1113:773 *1132:37 0
*RES
1 *2514:X *1132:10 21.151 
2 *1132:10 *1973:CLK 18.9094 
3 *1132:10 *1132:27 17.8929 
4 *1132:27 *1132:37 21.4222 
5 *1132:37 *1132:39 6.81502 
6 *1132:39 *1941:CLK 21.0527 
7 *1132:39 *1932:CLK 15.5817 
8 *1132:37 *1963:CLK 14.4725 
9 *1132:27 *1981:CLK 9.82786 
10 *2514:X *1132:86 15.5817 
11 *1132:86 *1132:88 6.39977 
12 *1132:88 *1948:CLK 18.6836 
13 *1132:88 *1951:CLK 13.7491 
14 *1132:86 *1945:CLK 18.5201 
*END

*D_NET *1114 0.00922913
*CONN
*I *2027:CLK I *D sky130_fd_sc_hd__dfrtp_1
*I *2006:CLK I *D sky130_fd_sc_hd__dfrtp_1
*I *2032:CLK I *D sky130_fd_sc_hd__dfrtp_1
*I *1990:CLK I *D sky130_fd_sc_hd__dfrtp_1
*I *2019:CLK I *D sky130_fd_sc_hd__dfrtp_1
*I *1993:CLK I *D sky130_fd_sc_hd__dfrtp_1
*I *2015:CLK I *D sky130_fd_sc_hd__dfrtp_1
*I *1986:CLK I *D sky130_fd_sc_hd__dfrtp_1
*I *2496:X O *D sky130_fd_sc_hd__clkbuf_16
*CAP
1 *2027:CLK 7.10659e-05
2 *2006:CLK 0.000156515
3 *2032:CLK 0
4 *1990:CLK 0.000224534
5 *2019:CLK 0.000155556
6 *1993:CLK 0.000126886
7 *2015:CLK 0.000174884
8 *1986:CLK 0.000292236
9 *2496:X 0.000275581
10 *1114:48 0.000650323
11 *1114:37 0.000634547
12 *1114:24 0.000890381
13 *1114:20 0.000814369
14 *1114:14 0.000219046
15 *1114:10 0.000496605
16 *1114:48 *2199:A 0
17 *1114:48 *2207:A 0
18 *1255:A *1986:CLK 4.87439e-05
19 *1288:A *1990:CLK 0.000376631
20 *1288:A *1114:14 3.44412e-06
21 *1288:A *1114:20 2.13488e-05
22 *1288:A *1114:24 1.30763e-05
23 *1290:B1 *1990:CLK 1.37421e-05
24 *1395:A0 *1993:CLK 0.000109861
25 *1395:A1 *1993:CLK 0.000211546
26 *1395:A1 *1114:48 0.000102525
27 *1395:S *1993:CLK 7.58194e-05
28 *1399:A1 *1114:48 7.25326e-05
29 *1465:A1 *1114:24 0.000108819
30 *1990:D *1114:10 4.11905e-05
31 *1990:D *1114:14 3.76013e-05
32 *2012:RESET_B *1986:CLK 9.21105e-05
33 *2015:D *2015:CLK 2.58757e-05
34 *2015:D *1114:48 2.36494e-05
35 *2019:D *1993:CLK 4.25952e-05
36 *2019:D *2019:CLK 2.85637e-05
37 *473:6 *1114:24 4.61218e-05
38 *475:8 *1114:20 0.000180799
39 *475:8 *1114:24 0.000157107
40 *673:8 *1986:CLK 0.00010542
41 *673:8 *1114:37 6.14436e-05
42 *673:8 *1114:48 3.00174e-06
43 *686:16 *2006:CLK 0.000511565
44 *686:16 *1114:24 0.000215683
45 *688:16 *2027:CLK 0.000175884
46 *692:18 *1986:CLK 5.94066e-05
47 *713:10 *1986:CLK 6.00698e-05
48 *763:33 *2027:CLK 0.00041808
49 *763:33 *1114:10 0.000167076
50 *1109:97 *1114:24 0.00036413
51 *1109:108 *1114:24 6.27718e-05
52 *1112:55 *1990:CLK 0
53 *1112:68 *1990:CLK 8.36429e-06
54 *1112:68 *1114:10 0
55 *1112:85 *1114:10 0
*RES
1 *2496:X *1114:10 18.2442 
2 *1114:10 *1114:14 7.57775 
3 *1114:14 *1114:20 3.13472 
4 *1114:20 *1114:24 19.0885 
5 *1114:24 *1986:CLK 23.2329 
6 *1114:24 *1114:37 2.6625 
7 *1114:37 *2015:CLK 17.8002 
8 *1114:37 *1114:48 10.137 
9 *1114:48 *1993:CLK 19.464 
10 *1114:48 *2019:CLK 17.2421 
11 *1114:20 *1990:CLK 25.4794 
12 *1114:14 *2032:CLK 9.24915 
13 *1114:10 *2006:CLK 19.464 
14 *2496:X *2027:CLK 23.1039 
*END

*D_NET *1133 0.00970558
*CONN
*I *1950:CLK I *D sky130_fd_sc_hd__dfrtp_1
*I *1912:CLK I *D sky130_fd_sc_hd__dfrtp_1
*I *1982:CLK I *D sky130_fd_sc_hd__dfrtp_1
*I *1979:CLK I *D sky130_fd_sc_hd__dfrtp_1
*I *1911:CLK I *D sky130_fd_sc_hd__dfrtp_1
*I *2056:CLK I *D sky130_fd_sc_hd__dfrtp_1
*I *1910:CLK I *D sky130_fd_sc_hd__dfrtp_1
*I *1913:CLK I *D sky130_fd_sc_hd__dfrtp_1
*I *2515:X O *D sky130_fd_sc_hd__clkbuf_16
*CAP
1 *1950:CLK 8.80305e-05
2 *1912:CLK 0.000321513
3 *1982:CLK 0.000256061
4 *1979:CLK 0
5 *1911:CLK 0.000233669
6 *2056:CLK 0.00040271
7 *1910:CLK 0.000361456
8 *1913:CLK 0.000240457
9 *2515:X 8.80305e-05
10 *1133:66 0.000545974
11 *1133:16 0.000987841
12 *1133:12 0.000990602
13 *1133:10 0.00055862
14 *1133:8 0.00106542
15 *1133:4 0.000974031
16 *1133:8 *2515:A 2.32594e-05
17 *1133:66 *2515:A 0.000148136
18 *1190:A *1982:CLK 1.0759e-05
19 *1190:B *1133:66 3.38603e-05
20 *1225:B *1912:CLK 3.64415e-05
21 *1225:B *1950:CLK 2.69064e-05
22 *1484:A *1133:16 0
23 *1484:B *1133:16 0
24 *1587:A *2056:CLK 5.45547e-05
25 *1588:B *1133:12 0.00017666
26 *1588:B *1133:16 0.000386367
27 *1847:B1 *1133:16 0
28 *1910:D *1910:CLK 9.56834e-05
29 *1910:D *1133:16 0
30 *1911:D *2056:CLK 4.24488e-05
31 *1911:D *1133:10 1.07549e-05
32 *1911:D *1133:12 4.13313e-05
33 *1913:D *1133:16 0.000115505
34 *2056:RESET_B *2056:CLK 3.89391e-05
35 *2169:A *1912:CLK 6.14949e-06
36 *183:52 *1912:CLK 0.000305585
37 *458:148 *1133:10 4.79398e-05
38 *458:148 *1133:66 5.66868e-06
39 *597:40 *1133:10 0
40 *597:53 *1982:CLK 0.000324944
41 *598:493 *1911:CLK 5.84505e-05
42 *598:499 *1133:10 0
43 *598:499 *1133:66 0
44 *598:514 *1982:CLK 8.58301e-05
45 *728:20 *1912:CLK 1.31657e-05
46 *728:20 *1133:8 0.00012838
47 *734:16 *1982:CLK 1.22226e-05
48 *734:16 *1133:66 4.47179e-05
49 *1014:8 *1950:CLK 7.58217e-06
50 *1111:400 *1912:CLK 0.000116439
51 *1111:402 *1912:CLK 0.000136788
52 *1111:414 *1912:CLK 5.57012e-05
*RES
1 *2515:X *1133:4 9.24915 
2 *1133:4 *1133:8 14.6517 
3 *1133:8 *1133:10 3.493 
4 *1133:10 *1133:12 5.56926 
5 *1133:12 *1133:16 17.1286 
6 *1133:16 *1913:CLK 13.1796 
7 *1133:16 *1910:CLK 25.2708 
8 *1133:12 *2056:CLK 23.9008 
9 *1133:10 *1911:CLK 17.6796 
10 *1133:8 *1133:66 13.4235 
11 *1133:66 *1979:CLK 9.24915 
12 *1133:66 *1982:CLK 26.5003 
13 *1133:4 *1912:CLK 27.3148 
14 *2515:X *1950:CLK 29.7455 
*END

*D_NET *1134 0.00934451
*CONN
*I *2101:CLK I *D sky130_fd_sc_hd__dfrtp_1
*I *2039:CLK I *D sky130_fd_sc_hd__dfrtp_1
*I *2106:CLK I *D sky130_fd_sc_hd__dfrtp_1
*I *2100:CLK I *D sky130_fd_sc_hd__dfrtp_1
*I *2097:CLK I *D sky130_fd_sc_hd__dfrtp_1
*I *2110:CLK I *D sky130_fd_sc_hd__dfrtp_1
*I *2107:CLK I *D sky130_fd_sc_hd__dfrtp_1
*I *2108:CLK I *D sky130_fd_sc_hd__dfrtp_1
*I *2516:X O *D sky130_fd_sc_hd__clkbuf_16
*CAP
1 *2101:CLK 0
2 *2039:CLK 0
3 *2106:CLK 0.000297428
4 *2100:CLK 0.000175742
5 *2097:CLK 0.000664836
6 *2110:CLK 2.96062e-05
7 *2107:CLK 0
8 *2108:CLK 0.000157789
9 *2516:X 0.000326216
10 *1134:83 0.000655854
11 *1134:66 0.000621259
12 *1134:64 0.000360311
13 *1134:45 0.000990038
14 *1134:34 0.000215699
15 *1134:14 0.000736091
16 *1134:8 0.00103863
17 *1134:14 *2517:A 0
18 *1818:A *1134:14 4.8476e-05
19 *1819:B1 *1134:14 0
20 *1821:A *1134:14 0.000151741
21 *1821:C *1134:14 5.044e-05
22 *1822:A *2100:CLK 0.000152259
23 *1822:A *1134:34 0
24 *1823:A2 *2097:CLK 9.97729e-06
25 *1853:B *2106:CLK 8.62474e-06
26 *1857:A2 *2106:CLK 0
27 *2097:RESET_B *2097:CLK 0.000104815
28 *2097:RESET_B *2110:CLK 2.58757e-05
29 *2098:D *2108:CLK 0
30 *2101:D *1134:64 6.46815e-05
31 *2107:D *2108:CLK 3.67528e-06
32 *2107:D *1134:14 0.000135291
33 *2108:D *2108:CLK 0
34 *2109:D *1134:14 0.000125291
35 *2110:D *1134:14 0
36 *2110:D *1134:34 0
37 *2110:RESET_B *2110:CLK 2.30636e-05
38 *322:12 *1134:14 0
39 *334:12 *1134:14 7.86847e-05
40 *334:12 *1134:34 0.000193513
41 *590:8 *2106:CLK 0.000140293
42 *592:38 *2106:CLK 6.55265e-05
43 *592:38 *1134:64 1.26726e-05
44 *592:38 *1134:66 4.81101e-05
45 *592:38 *1134:83 0.000297
46 *665:10 *2106:CLK 0
47 *733:12 *2106:CLK 0.000585987
48 *893:14 *1134:83 0.000267394
49 *903:26 *2097:CLK 0.00032084
50 *903:26 *2110:CLK 6.27782e-05
51 *1106:347 *1134:45 2.86829e-05
52 *1106:347 *1134:64 6.93171e-05
*RES
1 *2516:X *1134:8 18.3548 
2 *1134:8 *1134:14 16.8544 
3 *1134:14 *2108:CLK 17.5503 
4 *1134:14 *2107:CLK 13.7491 
5 *1134:8 *1134:34 4.32351 
6 *1134:34 *2110:CLK 15.0271 
7 *1134:34 *1134:45 1.41674 
8 *1134:45 *2097:CLK 24.8894 
9 *1134:45 *1134:64 9.84719 
10 *1134:64 *1134:66 2.38721 
11 *1134:66 *2100:CLK 22.3155 
12 *1134:66 *1134:83 11.285 
13 *1134:83 *2106:CLK 30.2188 
14 *1134:83 *2039:CLK 9.24915 
15 *1134:64 *2101:CLK 9.24915 
*END

*D_NET *1135 0.0121244
*CONN
*I *2104:CLK I *D sky130_fd_sc_hd__dfrtp_1
*I *2109:CLK I *D sky130_fd_sc_hd__dfrtp_1
*I *2098:CLK I *D sky130_fd_sc_hd__dfrtp_1
*I *2105:CLK I *D sky130_fd_sc_hd__dfrtp_1
*I *2051:CLK I *D sky130_fd_sc_hd__dfrtp_1
*I *2049:CLK I *D sky130_fd_sc_hd__dfrtp_1
*I *2050:CLK I *D sky130_fd_sc_hd__dfrtp_1
*I *2055:CLK I *D sky130_fd_sc_hd__dfrtp_1
*I *2517:X O *D sky130_fd_sc_hd__clkbuf_16
*CAP
1 *2104:CLK 0.000154189
2 *2109:CLK 0.00042215
3 *2098:CLK 0
4 *2105:CLK 0.000202941
5 *2051:CLK 7.35356e-05
6 *2049:CLK 0.000598224
7 *2050:CLK 6.81516e-05
8 *2055:CLK 3.89576e-05
9 *2517:X 0.00020233
10 *1135:62 0.0018733
11 *1135:52 0.00152993
12 *1135:39 0.000865336
13 *1135:26 0.000861155
14 *1135:20 0.000392776
15 *1135:12 0.000788218
16 *1135:10 0.00048027
17 *2049:CLK *1917:CLK 5.04829e-06
18 *2049:CLK *1138:8 4.04995e-05
19 *2049:CLK *1138:43 0
20 axi_lite_o[35] *1135:52 7.50722e-05
21 *1270:A *2049:CLK 4.20662e-05
22 *1271:A1 *2049:CLK 0.0001459
23 *1271:A2 *2049:CLK 0.000193217
24 *1645:A *2105:CLK 8.95297e-05
25 *1645:B *2105:CLK 0.000102403
26 *1645:B *1135:62 0.000159032
27 *1647:A *2050:CLK 0
28 *1647:A *1135:52 3.8079e-05
29 *1786:A2 *2049:CLK 5.9955e-05
30 *1842:A1 *1135:62 7.48663e-05
31 *1918:D *2049:CLK 5.49195e-05
32 *2049:D *2049:CLK 2.58616e-05
33 *2050:D *2105:CLK 1.45799e-05
34 *2050:D *1135:52 0.000112509
35 *2055:D *1135:10 2.30999e-05
36 *2055:D *1135:12 2.68162e-05
37 *2055:D *1135:20 5.11638e-05
38 *2098:D *1135:20 3.14978e-05
39 *2098:RESET_B *1135:20 0
40 *2104:D *2109:CLK 4.89392e-05
41 *2104:D *1135:12 0.000122992
42 *2105:D *2105:CLK 5.04829e-06
43 *2105:RESET_B *2109:CLK 0.000229226
44 *2219:A *2055:CLK 0
45 *2219:A *1135:26 0
46 *186:10 *1135:62 0
47 *207:22 *2105:CLK 6.97525e-05
48 *425:20 *2049:CLK 0.000506578
49 *425:20 *2051:CLK 0.000267404
50 *733:12 *2055:CLK 2.22198e-05
51 *733:12 *1135:26 6.46135e-05
52 *748:10 *2105:CLK 2.53347e-05
53 *748:10 *1135:52 5.45692e-05
54 *751:12 *1135:62 0.00030115
55 *1026:20 *1135:39 0.000444929
56 *1028:10 *1135:39 5.04054e-06
57 *1029:33 *1135:62 1.7754e-05
58 *1091:26 *2049:CLK 2.12847e-05
*RES
1 *2517:X *1135:10 17.4137 
2 *1135:10 *1135:12 3.90826 
3 *1135:12 *1135:20 10.5437 
4 *1135:20 *1135:26 8.4405 
5 *1135:26 *2055:CLK 14.7506 
6 *1135:26 *1135:39 15.2063 
7 *1135:39 *2050:CLK 10.9612 
8 *1135:39 *1135:52 9.23876 
9 *1135:52 *1135:62 37.2529 
10 *1135:62 *2049:CLK 36.2364 
11 *1135:62 *2051:CLK 12.191 
12 *1135:52 *2105:CLK 19.7715 
13 *1135:20 *2098:CLK 9.24915 
14 *1135:12 *2109:CLK 25.01 
15 *1135:10 *2104:CLK 16.7151 
*END

*D_NET *1136 0.0075625
*CONN
*I *2099:CLK I *D sky130_fd_sc_hd__dfrtp_1
*I *2040:CLK I *D sky130_fd_sc_hd__dfrtp_1
*I *2053:CLK I *D sky130_fd_sc_hd__dfrtp_1
*I *1924:CLK I *D sky130_fd_sc_hd__dfrtp_1
*I *1940:CLK I *D sky130_fd_sc_hd__dfrtp_1
*I *1971:CLK I *D sky130_fd_sc_hd__dfrtp_1
*I *2054:CLK I *D sky130_fd_sc_hd__dfrtp_1
*I *2065:CLK I *D sky130_fd_sc_hd__dfrtp_1
*I *2518:X O *D sky130_fd_sc_hd__clkbuf_16
*CAP
1 *2099:CLK 3.58004e-05
2 *2040:CLK 0.00026069
3 *2053:CLK 0
4 *1924:CLK 0.000575073
5 *1940:CLK 0
6 *1971:CLK 0.000105683
7 *2054:CLK 0.000194033
8 *2065:CLK 7.25195e-05
9 *2518:X 0.000272493
10 *1136:63 0.00101054
11 *1136:48 0.000678634
12 *1136:22 0.000457961
13 *1136:16 0.000592434
14 *1136:14 0.000351274
15 *1136:10 0.000585115
16 *1198:B *2040:CLK 6.27782e-05
17 *1199:B *2040:CLK 3.82228e-05
18 *1238:A *2054:CLK 3.74249e-05
19 *1238:A *1136:22 0.000136702
20 *1241:A2 *2054:CLK 0.000104184
21 *1241:A2 *1136:22 5.43562e-05
22 *1516:A2 *1136:63 0
23 *1574:A2 *1924:CLK 4.88333e-05
24 *1605:A2 *1136:63 0
25 *1605:B1 *1924:CLK 0
26 *1637:A2 *1924:CLK 0.000112987
27 *1643:B1 *2054:CLK 8.01201e-05
28 *1643:B1 *1136:22 0.000181962
29 *1643:B1 *1136:48 1.02917e-05
30 *1883:B1 *2054:CLK 0.000143047
31 *1924:D *1924:CLK 8.16394e-06
32 *1940:RESET_B *1924:CLK 1.77566e-05
33 *1971:D *1136:63 9.78191e-05
34 *2036:RESET_B *2065:CLK 0.00017577
35 *2053:D *1136:10 0.000198285
36 *2053:RESET_B *1136:14 4.79437e-05
37 *2053:RESET_B *1136:16 7.01677e-05
38 *2054:RESET_B *1136:10 0
39 *2065:D *2054:CLK 0.000127179
40 *422:10 *2054:CLK 1.03594e-05
41 *422:23 *2054:CLK 5.64544e-05
42 *450:56 *1136:63 0
43 *598:376 *1924:CLK 0
44 *611:247 *1136:63 7.17067e-05
45 *652:10 *1136:63 5.04829e-06
46 *733:8 *2040:CLK 4.89251e-05
47 *839:38 *2040:CLK 7.36725e-05
48 *839:38 *1136:10 0.000139275
49 *1095:14 *2054:CLK 0.00015324
50 *1110:436 *1924:CLK 5.75774e-05
51 *1110:438 *1136:63 0
*RES
1 *2518:X *1136:10 20.4571 
2 *1136:10 *1136:14 6.88721 
3 *1136:14 *1136:16 6.82404 
4 *1136:16 *1136:22 10.5196 
5 *1136:22 *2065:CLK 16.1605 
6 *1136:22 *2054:CLK 22.1275 
7 *1136:16 *1136:48 7.57775 
8 *1136:48 *1971:CLK 16.1364 
9 *1136:48 *1136:63 15.7757 
10 *1136:63 *1940:CLK 9.24915 
11 *1136:63 *1924:CLK 29.4127 
12 *1136:14 *2053:CLK 9.24915 
13 *1136:10 *2040:CLK 20.8779 
14 *2518:X *2099:CLK 19.2217 
*END

*D_NET *1137 0.0108028
*CONN
*I *2127:CLK I *D sky130_fd_sc_hd__dfrtp_1
*I *2091:CLK I *D sky130_fd_sc_hd__dfrtp_1
*I *2069:CLK I *D sky130_fd_sc_hd__dfrtp_1
*I *2043:CLK I *D sky130_fd_sc_hd__dfrtp_1
*I *2072:CLK I *D sky130_fd_sc_hd__dfrtp_1
*I *2064:CLK I *D sky130_fd_sc_hd__dfrtp_1
*I *2073:CLK I *D sky130_fd_sc_hd__dfrtp_1
*I *1908:CLK I *D sky130_fd_sc_hd__dfrtp_1
*I *2519:X O *D sky130_fd_sc_hd__clkbuf_16
*CAP
1 *2127:CLK 0.000174066
2 *2091:CLK 0.000144688
3 *2069:CLK 0
4 *2043:CLK 0.000456729
5 *2072:CLK 0
6 *2064:CLK 0
7 *2073:CLK 0.000187576
8 *1908:CLK 0.000252257
9 *2519:X 0.000698258
10 *1137:32 0.000564455
11 *1137:28 0.000520551
12 *1137:24 0.000729178
13 *1137:16 0.00102077
14 *1137:14 0.000532926
15 *1137:12 0.000971019
16 *1236:A *1137:12 0
17 *1258:B *1137:28 0.000423078
18 *1292:A1 *2043:CLK 0.000158246
19 *1292:B1 *2043:CLK 8.6958e-05
20 *1347:A1 *1137:12 1.79807e-05
21 *1422:A *2073:CLK 4.94e-06
22 *1552:A1 *2127:CLK 4.17467e-05
23 *1552:A2 *2127:CLK 6.64392e-05
24 *1552:B1 *2127:CLK 0.000114976
25 *1552:C1 *2127:CLK 6.08467e-05
26 *1601:A *1137:12 5.27235e-05
27 *1860:A *1908:CLK 0
28 *1865:B *1908:CLK 0
29 *1887:A *2043:CLK 5.46384e-06
30 *1887:A *1137:24 0.000406978
31 *1888:A1 *1137:24 4.76161e-06
32 *1908:D *1908:CLK 7.58194e-05
33 *2064:D *1137:28 1.59362e-06
34 *2064:RESET_B *1137:32 2.58757e-05
35 *2069:RESET_B *1137:14 4.96368e-05
36 *2072:D *1137:28 3.77804e-05
37 *2073:RESET_B *1137:28 0.000122858
38 *2084:D *2043:CLK 8.28664e-05
39 *2084:RESET_B *2043:CLK 0.000110306
40 *2091:RESET_B *2091:CLK 0.000101672
41 *175:12 *1137:14 7.20028e-05
42 *175:12 *1137:16 5.04829e-06
43 *224:12 *1137:12 0
44 *436:120 *1137:28 3.04973e-05
45 *436:126 *1137:28 9.19273e-06
46 *436:150 *1908:CLK 0.000322538
47 *462:28 *1137:32 0.000542103
48 *468:30 *1137:32 2.17699e-05
49 *640:16 *2127:CLK 0.000152969
50 *763:12 *2043:CLK 4.57262e-05
51 *771:10 *1137:12 3.66316e-05
52 *835:31 *2043:CLK 0.00017287
53 *835:31 *1137:12 0.0001098
54 *847:16 *2091:CLK 2.58757e-05
55 *847:16 *1137:12 6.59246e-05
56 *1107:14 *1137:24 0
57 *1107:14 *1137:28 0
58 *1107:34 *1137:24 0
59 *1110:45 *1137:24 7.77295e-05
60 *1110:45 *1137:28 1.44611e-05
61 *1110:924 *1137:28 0.000210184
62 *1112:6 *1137:32 0.000151342
63 *1112:10 *1137:32 2.16355e-05
64 *1112:132 *1908:CLK 5.37077e-05
65 *1112:132 *2073:CLK 0.00035481
*RES
1 *2519:X *1137:12 31.6011 
2 *1137:12 *1137:14 7.93324 
3 *1137:14 *1137:16 5.16022 
4 *1137:16 *1137:24 14.4259 
5 *1137:24 *1137:28 17.5438 
6 *1137:28 *1137:32 10.7694 
7 *1137:32 *1908:CLK 21.6348 
8 *1137:32 *2073:CLK 20.1489 
9 *1137:28 *2064:CLK 9.24915 
10 *1137:24 *2072:CLK 13.7491 
11 *1137:16 *2043:CLK 31.1942 
12 *1137:14 *2069:CLK 9.24915 
13 *1137:12 *2091:CLK 13.3002 
14 *2519:X *2127:CLK 24.7677 
*END

*D_NET *1138 0.0117039
*CONN
*I *2036:CLK I *D sky130_fd_sc_hd__dfrtp_1
*I *1918:CLK I *D sky130_fd_sc_hd__dfrtp_1
*I *1907:CLK I *D sky130_fd_sc_hd__dfrtp_1
*I *1917:CLK I *D sky130_fd_sc_hd__dfrtp_1
*I *1916:CLK I *D sky130_fd_sc_hd__dfrtp_1
*I *1921:CLK I *D sky130_fd_sc_hd__dfrtp_1
*I *1914:CLK I *D sky130_fd_sc_hd__dfrtp_1
*I *2052:CLK I *D sky130_fd_sc_hd__dfrtp_1
*I *2520:X O *D sky130_fd_sc_hd__clkbuf_16
*CAP
1 *2036:CLK 0.000261193
2 *1918:CLK 2.57738e-05
3 *1907:CLK 0.000164823
4 *1917:CLK 0.000486669
5 *1916:CLK 0.000665005
6 *1921:CLK 0
7 *1914:CLK 0
8 *2052:CLK 0.000532197
9 *2520:X 0.000252412
10 *1138:84 0.000431755
11 *1138:71 0.000376047
12 *1138:58 0.000822287
13 *1138:43 0.00112075
14 *1138:18 0.000895752
15 *1138:12 0.000433476
16 *1138:8 0.000508896
17 *2052:CLK *2185:A 0
18 *2052:CLK *2186:A 0
19 *1244:A1 *1916:CLK 2.99287e-05
20 *1244:A2 *1916:CLK 3.81056e-05
21 *1244:B1 *1916:CLK 0.00024449
22 *1245:B1 *1138:18 3.0676e-05
23 *1254:A2 *1916:CLK 6.50586e-05
24 *1260:B *1138:18 3.40155e-05
25 *1261:A1 *2052:CLK 0.000193108
26 *1261:A1 *1138:18 0.000518519
27 *1270:A *1138:12 0
28 *1270:A *1138:43 0
29 *1270:B *1916:CLK 0.000138261
30 *1271:A2 *1138:43 3.60933e-06
31 *1271:A2 *1138:58 4.4486e-06
32 *1661:B *1138:18 0.000171288
33 *1664:B *1916:CLK 4.62119e-05
34 *1786:A2 *2036:CLK 0
35 *1837:B *2052:CLK 6.65668e-05
36 *1838:B *2052:CLK 8.03393e-06
37 *1838:B *1138:18 0.00039121
38 *1873:A1 *2036:CLK 0.000228593
39 *1873:A2 *2036:CLK 1.00981e-05
40 *1874:A *1916:CLK 8.39059e-05
41 *1907:D *1907:CLK 5.04829e-06
42 *1907:D *2036:CLK 6.50586e-05
43 *1907:D *1138:84 0
44 *1916:RESET_B *1916:CLK 7.66888e-05
45 *1917:RESET_B *1917:CLK 0.00011915
46 *1918:D *1138:58 0.000154471
47 *1918:D *1138:71 4.05509e-05
48 *1918:D *1138:84 9.99157e-05
49 *1919:RESET_B *2052:CLK 0.000397867
50 *2049:CLK *1917:CLK 5.04829e-06
51 *2049:CLK *1138:8 4.04995e-05
52 *2049:CLK *1138:43 0
53 *2052:D *2052:CLK 7.34948e-06
54 *2052:RESET_B *2052:CLK 2.39581e-05
55 *425:14 *1138:8 3.86572e-05
56 *425:20 *1138:8 2.21623e-05
57 *427:37 *1917:CLK 0.000364769
58 *439:14 *2036:CLK 0
59 *444:10 *2052:CLK 5.77352e-05
60 *446:10 *2036:CLK 0
61 *446:10 *1138:84 0
62 *717:10 *2052:CLK 6.50727e-05
63 *950:10 *1917:CLK 1.43698e-05
64 *950:10 *1138:58 0
65 *957:39 *1138:43 3.55859e-05
66 *957:45 *1138:12 0.000127194
67 *957:45 *1138:18 0.000261128
68 *957:45 *1138:43 0.000236506
69 *957:47 *1138:18 0.000161956
*RES
1 *2520:X *1138:8 17.8002 
2 *1138:8 *1138:12 6.74725 
3 *1138:12 *1138:18 20.2125 
4 *1138:18 *2052:CLK 31.2704 
5 *1138:18 *1914:CLK 13.7491 
6 *1138:12 *1921:CLK 9.24915 
7 *1138:8 *1138:43 5.15401 
8 *1138:43 *1916:CLK 31.3036 
9 *1138:43 *1138:58 6.81502 
10 *1138:58 *1917:CLK 28.9163 
11 *1138:58 *1138:71 1.832 
12 *1138:71 *1907:CLK 16.5704 
13 *1138:71 *1138:84 4.32351 
14 *1138:84 *1918:CLK 14.4819 
15 *1138:84 *2036:CLK 20.902 
*END

*D_NET *1139 0.00886557
*CONN
*I *1909:CLK I *D sky130_fd_sc_hd__dfrtp_1
*I *2011:CLK I *D sky130_fd_sc_hd__dfrtp_1
*I *2058:CLK I *D sky130_fd_sc_hd__dfrtp_1
*I *2059:CLK I *D sky130_fd_sc_hd__dfrtp_1
*I *1915:CLK I *D sky130_fd_sc_hd__dfrtp_1
*I *1919:CLK I *D sky130_fd_sc_hd__dfrtp_1
*I *1920:CLK I *D sky130_fd_sc_hd__dfrtp_1
*I *2061:CLK I *D sky130_fd_sc_hd__dfrtp_1
*I *2521:X O *D sky130_fd_sc_hd__clkbuf_16
*CAP
1 *1909:CLK 0
2 *2011:CLK 0.000308729
3 *2058:CLK 0
4 *2059:CLK 0.000177427
5 *1915:CLK 0.000365018
6 *1919:CLK 0.000254682
7 *1920:CLK 0
8 *2061:CLK 3.11863e-05
9 *2521:X 0.000693264
10 *1139:81 0.000696707
11 *1139:66 0.00108348
12 *1139:44 0.00100408
13 *1139:31 0.000711471
14 *1139:14 0.000493461
15 *1139:12 0.000796218
16 *1139:10 0.000836222
17 *1919:CLK *2187:A 0.000159805
18 *1919:CLK *1154:10 0.000227878
19 *1240:A2 *1139:66 0.000115632
20 *1367:A1 *1139:81 0
21 *1369:A *1139:81 4.30712e-05
22 *1371:A *1139:81 6.4628e-05
23 *1371:B *1139:81 2.09707e-05
24 *1867:B *1139:81 0
25 *1919:D *1919:CLK 7.86847e-05
26 *1920:RESET_B *1915:CLK 6.31921e-05
27 *2058:D *1139:81 0
28 *527:10 *2061:CLK 7.62627e-06
29 *527:10 *1139:10 0
30 *527:10 *1139:12 0
31 *527:10 *1139:14 0
32 *533:14 *1139:81 0.000170592
33 *714:12 *1919:CLK 0
34 *749:10 *1139:31 3.30805e-05
35 *1087:8 *2059:CLK 9.74725e-05
36 *1087:8 *1139:66 0.000120272
37 *1104:121 *2011:CLK 0
38 *1104:121 *1139:81 0
39 *1105:62 *1139:10 9.98296e-05
40 *1110:641 *2011:CLK 0
41 *1110:857 *1919:CLK 5.71849e-05
42 *1110:857 *1139:44 5.37077e-05
*RES
1 *2521:X *1139:10 25.4485 
2 *1139:10 *1139:12 3.07775 
3 *1139:12 *1139:14 3.28538 
4 *1139:14 *2061:CLK 14.8606 
5 *1139:14 *1139:31 12.2516 
6 *1139:31 *1920:CLK 9.24915 
7 *1139:31 *1139:44 11.0958 
8 *1139:44 *1919:CLK 24.3014 
9 *1139:44 *1915:CLK 21.1278 
10 *1139:12 *1139:66 17.4247 
11 *1139:66 *2059:CLK 13.8548 
12 *1139:66 *1139:81 15.5408 
13 *1139:81 *2058:CLK 13.7491 
14 *1139:81 *2011:CLK 20.8723 
15 *1139:10 *1909:CLK 13.7491 
*END

*D_NET *1140 0.00535636
*CONN
*I *2063:CLK I *D sky130_fd_sc_hd__dfrtp_1
*I *2528:A I *D sky130_fd_sc_hd__clkinv_2
*I *2009:CLK I *D sky130_fd_sc_hd__dfrtp_1
*I *2034:CLK I *D sky130_fd_sc_hd__dfrtp_1
*I *2035:CLK I *D sky130_fd_sc_hd__dfrtp_1
*I *2060:CLK I *D sky130_fd_sc_hd__dfrtp_1
*I *2522:X O *D sky130_fd_sc_hd__clkbuf_16
*CAP
1 *2063:CLK 0.000388435
2 *2528:A 0.000172262
3 *2009:CLK 9.25881e-05
4 *2034:CLK 0.000335071
5 *2035:CLK 6.30487e-05
6 *2060:CLK 3.59575e-05
7 *2522:X 0.00121024
8 *1140:25 0.000592076
9 *1140:23 0.000286544
10 *1140:21 0.000451508
11 *1140:10 0.00113701
12 axi_lite_o[39] *2034:CLK 0
13 *1279:A *2009:CLK 2.99287e-05
14 *1280:A *2528:A 2.41274e-06
15 *2009:D *2528:A 0
16 *2034:D *2034:CLK 0.000103943
17 *2034:RESET_B *2528:A 0
18 *2035:D *2034:CLK 4.12533e-05
19 *2035:D *2035:CLK 7.34948e-06
20 *2035:D *1140:25 3.14978e-05
21 *2035:RESET_B *2009:CLK 9.58746e-05
22 *2060:D *2528:A 0
23 *2060:D *1140:21 0
24 *752:25 *2009:CLK 2.63773e-05
25 *752:25 *2035:CLK 3.61993e-05
26 *752:25 *1140:25 0.000137247
27 *1104:14 *2528:A 7.95338e-05
*RES
1 *2522:X *1140:10 27.8063 
2 *1140:10 *2060:CLK 14.4725 
3 *1140:10 *1140:21 6.81502 
4 *1140:21 *1140:23 4.5 
5 *1140:23 *1140:25 6.26943 
6 *1140:25 *2035:CLK 11.0817 
7 *1140:25 *2034:CLK 26.8529 
8 *1140:23 *2009:CLK 12.7456 
9 *1140:21 *2528:A 17.9655 
10 *2522:X *2063:CLK 36.8455 
*END

*D_NET *1115 0.00933263
*CONN
*I *2001:CLK I *D sky130_fd_sc_hd__dfrtp_1
*I *2076:CLK I *D sky130_fd_sc_hd__dfrtp_1
*I *2047:CLK I *D sky130_fd_sc_hd__dfrtp_1
*I *2080:CLK I *D sky130_fd_sc_hd__dfrtp_1
*I *2057:CLK I *D sky130_fd_sc_hd__dfrtp_1
*I *2031:CLK I *D sky130_fd_sc_hd__dfrtp_1
*I *1985:CLK I *D sky130_fd_sc_hd__dfrtp_1
*I *2005:CLK I *D sky130_fd_sc_hd__dfrtp_1
*I *2497:X O *D sky130_fd_sc_hd__clkbuf_16
*CAP
1 *2001:CLK 0.000299884
2 *2076:CLK 3.70866e-05
3 *2047:CLK 0
4 *2080:CLK 0.000144472
5 *2057:CLK 0
6 *2031:CLK 7.73414e-05
7 *1985:CLK 0.000459179
8 *2005:CLK 0.000554669
9 *2497:X 0.000187674
10 *1115:100 0.000497473
11 *1115:76 0.000201614
12 *1115:32 0.00105121
13 *1115:30 0.000399431
14 *1115:24 0.000536054
15 *1115:16 0.000798574
16 *1115:8 0.00083828
17 *1246:A *2005:CLK 0
18 *1253:A *2005:CLK 4.25818e-05
19 *1305:B *1115:16 0
20 *1306:B *2080:CLK 2.16355e-05
21 *1321:A2 *2001:CLK 0.000145173
22 *1382:A0 *1115:30 2.41274e-06
23 *1383:S *1985:CLK 1.03403e-05
24 *1387:A0 *1115:16 0
25 *1434:B *2076:CLK 4.45999e-05
26 *1487:A *2001:CLK 4.89392e-05
27 *1888:A1 *2080:CLK 7.28994e-06
28 *1888:A1 *1115:16 4.70559e-05
29 *1888:A1 *1115:24 4.58907e-05
30 *1888:A2 *1115:24 0.000315295
31 *1888:B1 *2080:CLK 8.36586e-06
32 *1888:B1 *1115:24 6.36477e-05
33 *1888:B1 *1115:76 0.000107496
34 *1893:A *1115:16 0.000252223
35 *1893:A *1115:100 8.42648e-05
36 *2031:D *2005:CLK 8.62625e-06
37 *2031:D *1115:30 8.62625e-06
38 *2031:D *1115:32 9.75356e-05
39 *2057:D *1115:24 1.59362e-06
40 *2073:D *1115:24 0.000115075
41 *2073:D *1115:76 0.000143375
42 *340:10 *2001:CLK 0.0003016
43 *431:12 *2005:CLK 6.93171e-05
44 *436:94 *2080:CLK 5.37077e-05
45 *436:98 *2080:CLK 2.16355e-05
46 *436:120 *2080:CLK 5.04829e-06
47 *442:16 *1985:CLK 1.00763e-05
48 *475:8 *1115:76 8.23171e-06
49 *548:32 *2001:CLK 6.09039e-05
50 *548:32 *2076:CLK 6.3657e-05
51 *548:32 *1115:100 3.8626e-05
52 *548:40 *1115:16 0
53 *691:22 *2031:CLK 4.31539e-05
54 *1104:189 *1985:CLK 8.09995e-05
55 *1104:189 *2005:CLK 0
56 *1104:193 *2005:CLK 8.16827e-05
57 *1104:193 *1115:30 0.000214577
58 *1104:193 *1115:32 8.89094e-05
59 *1104:212 *1115:30 1.03594e-05
60 *1112:18 *2005:CLK 3.44412e-06
61 *1112:153 *1115:30 5.66878e-05
62 *1112:393 *2080:CLK 0.000134976
63 *1112:393 *1115:16 0.000187005
64 *1112:393 *1115:24 9.3044e-05
*RES
1 *2497:X *1115:8 16.1364 
2 *1115:8 *1115:16 17.2018 
3 *1115:16 *1115:24 17.7926 
4 *1115:24 *1115:30 13.0139 
5 *1115:30 *1115:32 1.832 
6 *1115:32 *2005:CLK 27.2877 
7 *1115:32 *1985:CLK 21.0072 
8 *1115:30 *2031:CLK 15.6059 
9 *1115:24 *2057:CLK 9.24915 
10 *1115:16 *1115:76 2.41132 
11 *1115:76 *2080:CLK 22.4655 
12 *1115:76 *2047:CLK 9.24915 
13 *1115:8 *1115:100 4.1281 
14 *1115:100 *2076:CLK 15.0271 
15 *1115:100 *2001:CLK 24.7601 
*END

*D_NET *1116 0.00909685
*CONN
*I *2048:CLK I *D sky130_fd_sc_hd__dfrtp_1
*I *2044:CLK I *D sky130_fd_sc_hd__dfrtp_1
*I *2081:CLK I *D sky130_fd_sc_hd__dfrtp_1
*I *2077:CLK I *D sky130_fd_sc_hd__dfrtp_1
*I *2003:CLK I *D sky130_fd_sc_hd__dfrtp_1
*I *2068:CLK I *D sky130_fd_sc_hd__dfrtp_1
*I *2085:CLK I *D sky130_fd_sc_hd__dfrtp_1
*I *2084:CLK I *D sky130_fd_sc_hd__dfrtp_1
*I *2498:X O *D sky130_fd_sc_hd__clkbuf_16
*CAP
1 *2048:CLK 2.52456e-05
2 *2044:CLK 0
3 *2081:CLK 0.000294539
4 *2077:CLK 0
5 *2003:CLK 0.000382031
6 *2068:CLK 9.94083e-05
7 *2085:CLK 0.000197068
8 *2084:CLK 0.000621856
9 *2498:X 4.90275e-05
10 *1116:83 0.000376813
11 *1116:59 0.000694924
12 *1116:55 0.000967554
13 *1116:49 0.000849481
14 *1116:14 0.000962258
15 *1116:10 0.000433555
16 *1116:8 0.000491688
17 *2081:CLK *1142:10 4.3116e-06
18 *2081:CLK *1142:27 4.60852e-06
19 *2084:CLK *1142:167 7.19887e-05
20 *1431:B *2003:CLK 5.04829e-06
21 *1832:A1 *2084:CLK 6.64671e-06
22 *1832:B1 *2084:CLK 8.95301e-06
23 *1891:A *1116:55 2.58709e-05
24 *1892:B1 *1116:83 3.70431e-05
25 *1895:A *2068:CLK 1.33284e-05
26 *1895:A *2084:CLK 1.50633e-05
27 *1895:A *1116:14 4.70005e-05
28 *1896:B1 *1116:10 0
29 *1896:B1 *1116:14 0
30 *2003:RESET_B *2003:CLK 9.11429e-05
31 *2044:D *2081:CLK 6.00814e-05
32 *2044:D *2084:CLK 0
33 *2068:RESET_B *2068:CLK 0.000413073
34 *2081:D *2081:CLK 9.75356e-05
35 *2081:RESET_B *1116:10 0
36 *2081:RESET_B *1116:49 0
37 *224:38 *2084:CLK 0
38 *224:46 *2084:CLK 0.000244385
39 *343:10 *1116:8 1.41307e-05
40 *436:88 *2003:CLK 7.36725e-05
41 *548:24 *2003:CLK 0.000173161
42 *772:31 *2085:CLK 7.65364e-05
43 *832:27 *2048:CLK 1.41307e-05
44 *832:27 *1116:55 2.36617e-05
45 *836:31 *2068:CLK 8.40961e-05
46 *1107:92 *2084:CLK 0.000164829
47 *1107:92 *2085:CLK 0.000608374
48 *1107:138 *2081:CLK 0.000145591
49 *1107:149 *2081:CLK 8.62661e-05
50 *1107:149 *1116:83 1.59966e-05
51 *1107:160 *1116:83 2.48716e-05
*RES
1 *2498:X *1116:8 14.4725 
2 *1116:8 *1116:10 4.32351 
3 *1116:10 *1116:14 7.993 
4 *1116:14 *2084:CLK 34.6889 
5 *1116:14 *2085:CLK 16.6278 
6 *1116:10 *2068:CLK 18.3548 
7 *1116:8 *1116:49 10.0693 
8 *1116:49 *1116:55 9.64528 
9 *1116:55 *1116:59 4.89498 
10 *1116:59 *2003:CLK 28.8743 
11 *1116:59 *2077:CLK 9.24915 
12 *1116:55 *1116:83 6.74725 
13 *1116:83 *2081:CLK 22.9094 
14 *1116:83 *2044:CLK 13.7491 
15 *1116:49 *2048:CLK 9.97254 
*END

*D_NET *1117 0.0109629
*CONN
*I *2079:CLK I *D sky130_fd_sc_hd__dfrtp_1
*I *2029:CLK I *D sky130_fd_sc_hd__dfrtp_1
*I *2002:CLK I *D sky130_fd_sc_hd__dfrtp_1
*I *2020:CLK I *D sky130_fd_sc_hd__dfrtp_1
*I *1994:CLK I *D sky130_fd_sc_hd__dfrtp_1
*I *2028:CLK I *D sky130_fd_sc_hd__dfrtp_1
*I *2016:CLK I *D sky130_fd_sc_hd__dfrtp_1
*I *1997:CLK I *D sky130_fd_sc_hd__dfrtp_1
*I *2499:X O *D sky130_fd_sc_hd__clkbuf_16
*CAP
1 *2079:CLK 0.000340195
2 *2029:CLK 0
3 *2002:CLK 3.04336e-05
4 *2020:CLK 0.00030569
5 *1994:CLK 0.000827645
6 *2028:CLK 0
7 *2016:CLK 0
8 *1997:CLK 0.000521932
9 *2499:X 5.32093e-05
10 *1117:72 0.000884064
11 *1117:54 0.000336124
12 *1117:18 0.000988575
13 *1117:16 0.000684323
14 *1117:12 0.00119037
15 *1117:10 0.000321287
16 *1117:8 0.000773321
17 *1296:A2 *1117:72 0
18 *1296:B1 *1117:72 0
19 *1312:A2 *2079:CLK 8.61485e-05
20 *1317:A *1997:CLK 2.85139e-05
21 *1319:B1 *1997:CLK 0
22 *1437:A *2079:CLK 5.04829e-06
23 *1452:A *1994:CLK 4.04381e-05
24 *1454:A1 *1117:8 1.03403e-05
25 *1454:A1 *1117:10 0.000184837
26 *1454:A1 *1117:12 0.000166735
27 *1454:B1 *1994:CLK 1.92369e-05
28 *1833:A *2002:CLK 2.58757e-05
29 *1833:B *2020:CLK 0.000507515
30 *1988:RESET_B *1117:10 0
31 *1988:RESET_B *1117:72 0
32 *1997:D *1997:CLK 7.02649e-05
33 *2000:RESET_B *2079:CLK 3.87022e-06
34 *2016:RESET_B *1117:18 2.23519e-05
35 *2020:D *2020:CLK 3.00829e-05
36 *2020:RESET_B *2020:CLK 6.31969e-05
37 *2024:RESET_B *1997:CLK 7.17369e-05
38 *2028:D *1117:16 3.58457e-05
39 *2029:D *1117:72 2.55561e-05
40 *374:16 *2002:CLK 9.52298e-05
41 *374:16 *2020:CLK 0.0009879
42 *436:86 *2079:CLK 0.00016386
43 *436:196 *2002:CLK 7.92757e-06
44 *436:196 *2020:CLK 0.000188432
45 *436:200 *2020:CLK 1.41976e-05
46 *485:20 *2079:CLK 5.90159e-05
47 *548:22 *2079:CLK 9.67231e-05
48 *1056:12 *1117:72 0
49 *1109:151 *1997:CLK 0.000175689
50 *1109:159 *1994:CLK 3.75603e-05
51 *1110:209 *1117:18 0.000141193
52 *1110:219 *1117:12 0
53 *1110:219 *1117:16 0
54 *1110:226 *1117:12 0
55 *1110:344 *1117:18 0.000139858
56 *1112:179 *1117:12 0
57 *1112:179 *1117:16 0
58 *1112:190 *1117:12 0
59 *1112:203 *1117:10 0
60 *1112:203 *1117:72 0
61 *1112:218 *1117:72 0
62 *1112:274 *2079:CLK 0.00020053
63 *1112:274 *1117:72 0
*RES
1 *2499:X *1117:8 14.4725 
2 *1117:8 *1117:10 4.73876 
3 *1117:10 *1117:12 4.32351 
4 *1117:12 *1117:16 10.0693 
5 *1117:16 *1117:18 12.9247 
6 *1117:18 *1997:CLK 32.0332 
7 *1117:18 *2016:CLK 9.24915 
8 *1117:16 *2028:CLK 9.24915 
9 *1117:12 *1994:CLK 26.5533 
10 *1117:10 *1117:54 4.5 
11 *1117:54 *2020:CLK 26.056 
12 *1117:54 *2002:CLK 10.5271 
13 *1117:8 *1117:72 16.7133 
14 *1117:72 *2029:CLK 9.24915 
15 *1117:72 *2079:CLK 29.453 
*END

*D_NET *1118 0.00958056
*CONN
*I *1988:CLK I *D sky130_fd_sc_hd__dfrtp_1
*I *2014:CLK I *D sky130_fd_sc_hd__dfrtp_1
*I *1995:CLK I *D sky130_fd_sc_hd__dfrtp_1
*I *2013:CLK I *D sky130_fd_sc_hd__dfrtp_1
*I *1987:CLK I *D sky130_fd_sc_hd__dfrtp_1
*I *2023:CLK I *D sky130_fd_sc_hd__dfrtp_1
*I *2024:CLK I *D sky130_fd_sc_hd__dfrtp_1
*I *1998:CLK I *D sky130_fd_sc_hd__dfrtp_1
*I *2500:X O *D sky130_fd_sc_hd__clkbuf_16
*CAP
1 *1988:CLK 5.91407e-05
2 *2014:CLK 0.000126182
3 *1995:CLK 0.00025639
4 *2013:CLK 0.000237859
5 *1987:CLK 7.88025e-05
6 *2023:CLK 0
7 *2024:CLK 0
8 *1998:CLK 0.000161997
9 *2500:X 0
10 *1118:62 0.000600976
11 *1118:60 0.000516122
12 *1118:45 0.000484657
13 *1118:20 0.000325115
14 *1118:14 0.00145795
15 *1118:6 0.00141748
16 *1118:4 5.91407e-05
17 *1998:CLK *2203:A 0
18 *2013:CLK *2213:A 5.04829e-06
19 *1118:14 *2202:A 3.93047e-05
20 *1118:14 *1174:16 4.4477e-05
21 *1118:20 *1174:16 1.82679e-05
22 *1301:A *2014:CLK 1.88563e-05
23 *1301:B *2014:CLK 6.0497e-05
24 *1301:B *1118:62 4.45999e-05
25 *1302:B1 *2014:CLK 5.89905e-05
26 *1391:A0 *1118:14 5.93466e-05
27 *1393:S *1995:CLK 0.000140648
28 *1401:A0 *1118:60 1.53265e-05
29 *1445:A1 *1118:14 0.000133015
30 *1447:B1 *1118:14 6.78596e-05
31 *1987:D *1118:60 0.00012568
32 *1987:RESET_B *1118:45 3.20069e-06
33 *1987:RESET_B *1118:60 0.000133527
34 *1997:RESET_B *1118:45 0
35 *2013:D *2013:CLK 0.000197183
36 *2013:RESET_B *1995:CLK 0.000334406
37 *2553:A *1998:CLK 0
38 *2559:A *1118:20 0
39 *485:20 *2014:CLK 1.04731e-05
40 *671:10 *2013:CLK 4.46813e-05
41 *672:24 *2013:CLK 0.00011813
42 *672:24 *2014:CLK 7.28567e-06
43 *672:24 *1118:62 0.000152859
44 *682:12 *1998:CLK 0.000156823
45 *682:12 *1118:20 0.000200221
46 *689:8 *1987:CLK 1.87146e-05
47 *1055:8 *1118:60 2.15992e-05
48 *1104:270 *1118:14 0
49 *1104:288 *2014:CLK 0.000503244
50 *1104:288 *1118:62 0.000397616
51 *1104:292 *2013:CLK 0.00016195
52 *1104:292 *1118:62 0.000157107
53 *1109:174 *1118:14 0.000154038
54 *1109:192 *1118:45 0
55 *1109:192 *1118:60 0
56 *1109:212 *1995:CLK 7.95068e-05
57 *1109:212 *1118:60 0
58 *1112:243 *2014:CLK 0.000114271
*RES
1 *2500:X *1118:4 9.24915 
2 *1118:4 *1118:6 4.5 
3 *1118:6 *1118:14 27.3046 
4 *1118:14 *1118:20 9.271 
5 *1118:20 *1998:CLK 18.5201 
6 *1118:20 *2024:CLK 13.7491 
7 *1118:14 *2023:CLK 9.24915 
8 *1118:6 *1118:45 3.07775 
9 *1118:45 *1987:CLK 15.6059 
10 *1118:45 *1118:60 12.5608 
11 *1118:60 *1118:62 6.26943 
12 *1118:62 *2013:CLK 26.6265 
13 *1118:62 *1995:CLK 27.5557 
14 *1118:60 *2014:CLK 15.9526 
15 *1118:4 *1988:CLK 10.5271 
*END

*D_NET *1119 0.0124324
*CONN
*I *2025:CLK I *D sky130_fd_sc_hd__dfrtp_1
*I *1996:CLK I *D sky130_fd_sc_hd__dfrtp_1
*I *2022:CLK I *D sky130_fd_sc_hd__dfrtp_1
*I *2004:CLK I *D sky130_fd_sc_hd__dfrtp_1
*I *2000:CLK I *D sky130_fd_sc_hd__dfrtp_1
*I *2030:CLK I *D sky130_fd_sc_hd__dfrtp_1
*I *2021:CLK I *D sky130_fd_sc_hd__dfrtp_1
*I *2026:CLK I *D sky130_fd_sc_hd__dfrtp_1
*I *2501:X O *D sky130_fd_sc_hd__clkbuf_16
*CAP
1 *2025:CLK 0
2 *1996:CLK 3.6352e-05
3 *2022:CLK 0.000806196
4 *2004:CLK 0
5 *2000:CLK 0.00049988
6 *2030:CLK 7.46432e-05
7 *2021:CLK 0.00111782
8 *2026:CLK 0.000395352
9 *2501:X 0.000543577
10 *1119:77 0.0014133
11 *1119:55 0.000910659
12 *1119:16 0.00161229
13 *1119:14 0.000784502
14 *1119:12 0.00102195
15 *1119:10 0.000794817
16 *1322:A *1119:12 8.36586e-06
17 *1322:A *1119:14 0.000139817
18 *1324:B1 *2030:CLK 3.13805e-06
19 *1328:A *2026:CLK 1.73136e-05
20 *1336:B *1119:55 9.01463e-05
21 *1349:A *1119:12 0.000216088
22 *1350:B1 *1119:12 0.000118485
23 *1384:A0 *1119:55 0.000190099
24 *1393:A0 *2021:CLK 9.43847e-06
25 *1458:A2 *1119:10 0
26 *1458:B1 *1119:10 6.08656e-05
27 *1992:D *1119:10 2.4707e-05
28 *1992:RESET_B *1119:10 0
29 *1996:RESET_B *1119:12 0
30 *2004:D *2000:CLK 2.94263e-05
31 *2022:D *2022:CLK 2.58616e-05
32 *2022:RESET_B *2022:CLK 3.70165e-05
33 *2022:RESET_B *1119:77 6.95408e-05
34 *2025:D *1119:12 0
35 *2030:D *2026:CLK 8.62625e-06
36 *2030:D *1119:16 0.000119244
37 *2030:D *1119:55 1.03594e-05
38 *2030:RESET_B *1119:55 0.000153806
39 *436:10 *2026:CLK 2.61857e-05
40 *436:44 *2026:CLK 7.73865e-05
41 *436:44 *2030:CLK 1.99054e-05
42 *436:44 *1119:55 2.58616e-05
43 *502:14 *2021:CLK 0.000326398
44 *502:14 *1119:16 0
45 *522:24 *1119:12 1.05601e-05
46 *548:10 *2000:CLK 0
47 *548:12 *2000:CLK 0
48 *684:16 *2021:CLK 0.000374243
49 *690:14 *2026:CLK 0.000228159
50 *1109:335 *2000:CLK 0
51 *1109:346 *2000:CLK 0
52 *1109:376 *1119:12 0
53 *1112:282 *2000:CLK 0
*RES
1 *2501:X *1119:10 23.924 
2 *1119:10 *1119:12 8.06078 
3 *1119:12 *1119:14 5.15401 
4 *1119:14 *1119:16 3.07775 
5 *1119:16 *2026:CLK 24.7167 
6 *1119:16 *2021:CLK 32.6539 
7 *1119:14 *2030:CLK 15.6059 
8 *1119:14 *1119:55 17.5024 
9 *1119:55 *2000:CLK 29.2655 
10 *1119:55 *2004:CLK 9.24915 
11 *1119:12 *1119:77 12.9878 
12 *1119:77 *2022:CLK 21.4987 
13 *1119:77 *1996:CLK 10.2378 
14 *1119:10 *2025:CLK 13.7491 
*END

*D_NET *1120 0.00891777
*CONN
*I *2130:CLK I *D sky130_fd_sc_hd__dfrtp_1
*I *1992:CLK I *D sky130_fd_sc_hd__dfrtp_1
*I *2018:CLK I *D sky130_fd_sc_hd__dfrtp_1
*I *2087:CLK I *D sky130_fd_sc_hd__dfrtp_1
*I *2017:CLK I *D sky130_fd_sc_hd__dfrtp_1
*I *1999:CLK I *D sky130_fd_sc_hd__dfrtp_1
*I *2078:CLK I *D sky130_fd_sc_hd__dfrtp_1
*I *1991:CLK I *D sky130_fd_sc_hd__dfrtp_1
*I *2502:X O *D sky130_fd_sc_hd__clkbuf_16
*CAP
1 *2130:CLK 0.000320692
2 *1992:CLK 0
3 *2018:CLK 0.000834323
4 *2087:CLK 0
5 *2017:CLK 0
6 *1999:CLK 0
7 *2078:CLK 0.000161556
8 *1991:CLK 0.000178316
9 *2502:X 0.000402633
10 *1120:69 0.00145922
11 *1120:65 0.00108932
12 *1120:56 0.000331035
13 *1120:22 0.00105882
14 *1120:14 0.000861172
15 *1120:10 0.000395811
16 *1120:8 0.000843522
17 *2018:CLK *2501:A 0.000138915
18 *1313:B *2078:CLK 4.29314e-06
19 *1313:B *1120:14 2.99929e-05
20 *1313:B *1120:22 7.44228e-05
21 *1314:A *1991:CLK 0.000168186
22 *1316:A2 *1991:CLK 0.00012136
23 *1348:A *1120:56 0
24 *1389:A1 *1120:10 0
25 *1389:A1 *1120:14 0
26 *1397:S *1120:10 0
27 *1991:D *1991:CLK 4.4336e-05
28 *1999:D *1120:14 3.44412e-06
29 *1999:RESET_B *1120:22 3.03586e-05
30 *2004:RESET_B *1120:14 0
31 *2018:D *2018:CLK 7.19887e-05
32 *2087:D *1120:65 2.78772e-05
33 *2130:D *2130:CLK 0
34 *675:10 *2130:CLK 0
35 *675:10 *1120:10 0
36 *675:10 *1120:56 0
37 *675:10 *1120:65 0
38 *1038:12 *1991:CLK 5.00379e-05
39 *1038:12 *1120:22 6.27782e-05
40 *1060:12 *2018:CLK 6.73208e-05
41 *1068:10 *1120:10 6.03102e-05
42 *1068:10 *1120:14 1.70219e-05
43 *1109:422 *1991:CLK 8.70662e-06
*RES
1 *2502:X *1120:8 19.464 
2 *1120:8 *1120:10 5.98452 
3 *1120:10 *1120:14 7.993 
4 *1120:14 *1120:22 12.997 
5 *1120:22 *1991:CLK 24.2337 
6 *1120:22 *2078:CLK 12.7697 
7 *1120:14 *1999:CLK 9.24915 
8 *1120:10 *2017:CLK 13.7491 
9 *1120:8 *1120:56 4.32351 
10 *1120:56 *2087:CLK 13.7491 
11 *1120:56 *1120:65 3.90826 
12 *1120:65 *1120:69 19.0885 
13 *1120:69 *2018:CLK 39.2668 
14 *1120:69 *1992:CLK 9.24915 
15 *1120:65 *2130:CLK 21.4269 
*END

*D_NET *1121 0.00696385
*CONN
*I *2119:CLK I *D sky130_fd_sc_hd__dfrtp_1
*I *2118:CLK I *D sky130_fd_sc_hd__dfrtp_1
*I *2095:CLK I *D sky130_fd_sc_hd__dfrtp_1
*I *2129:CLK I *D sky130_fd_sc_hd__dfrtp_1
*I *2086:CLK I *D sky130_fd_sc_hd__dfrtp_4
*I *2120:CLK I *D sky130_fd_sc_hd__dfrtp_1
*I *2527:A I *D sky130_fd_sc_hd__clkbuf_1
*I *2093:CLK I *D sky130_fd_sc_hd__dfrtp_1
*I *2046:CLK I *D sky130_fd_sc_hd__dfrtp_1
*I *2503:X O *D sky130_fd_sc_hd__clkbuf_16
*CAP
1 *2119:CLK 0.000223294
2 *2118:CLK 0.000142435
3 *2095:CLK 0
4 *2129:CLK 0.000153132
5 *2086:CLK 0.000313605
6 *2120:CLK 0
7 *2527:A 0
8 *2093:CLK 0
9 *2046:CLK 0.000253116
10 *2503:X 0.000248159
11 *1121:62 0.000699893
12 *1121:60 0.000682192
13 *1121:58 0.00059147
14 *1121:26 0.000444453
15 *1121:20 0.00021503
16 *1121:18 0.00060783
17 *1121:10 0.000858749
18 *1121:8 0.000746065
19 *2046:CLK *2093:RESET_B 0
20 *1121:10 *1151:10 0
21 *1121:18 *1151:10 0
22 *1670:S *1121:10 0
23 *1670:S *1121:18 0
24 *2086:RESET_B *2129:CLK 0
25 *2086:RESET_B *1121:62 0.000154404
26 *2087:RESET_B *2086:CLK 0.000107412
27 *2118:D *1121:10 0
28 *2118:RESET_B *2118:CLK 7.16893e-05
29 *2119:D *1121:8 0
30 *2119:D *1121:10 0
31 *2120:D *1121:18 0.000110976
32 *2488:A *2118:CLK 4.85806e-05
33 *2488:A *1121:60 1.41976e-05
34 *2530:A *1121:8 0
35 *675:10 *2129:CLK 0
36 *850:12 *2046:CLK 7.13472e-05
37 *850:12 *1121:26 8.78962e-05
38 *850:12 *1121:60 4.19058e-05
39 *850:12 *1121:62 7.60173e-05
40 *850:16 *2046:CLK 0
*RES
1 *2503:X *1121:8 19.3184 
2 *1121:8 *1121:10 6.81502 
3 *1121:10 *1121:18 14.4206 
4 *1121:18 *1121:20 0.723396 
5 *1121:20 *1121:26 9.82561 
6 *1121:26 *2046:CLK 19.7928 
7 *1121:26 *2093:CLK 13.7491 
8 *1121:20 *2527:A 9.24915 
9 *1121:18 *2120:CLK 9.24915 
10 *1121:10 *1121:58 4.5 
11 *1121:58 *1121:60 10.7063 
12 *1121:60 *1121:62 6.26943 
13 *1121:62 *2086:CLK 17.1824 
14 *1121:62 *2129:CLK 22.2307 
15 *1121:60 *2095:CLK 9.24915 
16 *1121:58 *2118:CLK 13.3002 
17 *1121:8 *2119:CLK 18.9094 
*END

*D_NET *1122 0.00926004
*CONN
*I *2121:CLK I *D sky130_fd_sc_hd__dfrtp_1
*I *2122:CLK I *D sky130_fd_sc_hd__dfrtp_1
*I *2045:CLK I *D sky130_fd_sc_hd__dfrtp_1
*I *2124:CLK I *D sky130_fd_sc_hd__dfrtp_1
*I *2066:CLK I *D sky130_fd_sc_hd__dfrtp_1
*I *2067:CLK I *D sky130_fd_sc_hd__dfrtp_1
*I *2075:CLK I *D sky130_fd_sc_hd__dfrtp_1
*I *2071:CLK I *D sky130_fd_sc_hd__dfrtp_1
*I *2504:X O *D sky130_fd_sc_hd__clkbuf_16
*CAP
1 *2121:CLK 0.000279904
2 *2122:CLK 0
3 *2045:CLK 9.94201e-05
4 *2124:CLK 0
5 *2066:CLK 0
6 *2067:CLK 1.76235e-05
7 *2075:CLK 3.10085e-05
8 *2071:CLK 0.000424096
9 *2504:X 5.52553e-05
10 *1122:90 0.000722094
11 *1122:79 0.000599525
12 *1122:38 0.00114392
13 *1122:32 0.00109111
14 *1122:22 0.00061065
15 *1122:16 0.000364717
16 *1122:8 0.000251915
17 *1326:A2 *1122:38 2.73521e-05
18 *1338:A *2071:CLK 8.9472e-05
19 *1339:A1 *2075:CLK 1.03434e-05
20 *1351:A0 *1122:32 5.42e-05
21 *1355:A1 *1122:16 0.000217587
22 *1555:B2 *1122:16 2.95757e-05
23 *1669:A0 *1122:16 0.000213725
24 *1669:A0 *1122:22 0.000105636
25 *1670:A1 *1122:16 8.62625e-06
26 *1670:A1 *1122:79 0.000109859
27 *1670:A1 *1122:90 0.000797986
28 *1670:S *1122:22 3.0676e-05
29 *1776:B1 *2121:CLK 0
30 *1776:B1 *1122:90 0
31 *2045:D *2045:CLK 3.14978e-05
32 *2045:RESET_B *2045:CLK 0.000127503
33 *2066:D *1122:32 2.78772e-05
34 *2067:D *1122:32 6.94804e-05
35 *2067:D *1122:38 7.78069e-05
36 *2067:RESET_B *2067:CLK 0
37 *2067:RESET_B *1122:32 0.000127207
38 *2067:RESET_B *1122:38 7.25324e-06
39 *2071:D *2071:CLK 3.22909e-05
40 *2071:RESET_B *2071:CLK 0
41 *2075:RESET_B *1122:38 0.000110099
42 *2118:D *1122:90 0
43 *2122:D *1122:90 5.66868e-06
44 *2124:D *1122:16 6.27332e-05
45 *2124:D *1122:22 6.08467e-05
46 *2136:A *1122:8 2.41274e-06
47 *436:67 *2071:CLK 5.04829e-06
48 *761:14 *1122:79 3.20069e-06
49 *761:14 *1122:90 8.82042e-05
50 *762:10 *2045:CLK 0.000204647
51 *762:10 *1122:16 7.45404e-05
52 *762:10 *1122:79 7.14746e-05
53 *762:12 *1122:16 0.000113471
54 *837:14 *1122:8 3.99086e-06
55 *849:16 *1122:32 0.000301351
56 *849:16 *1122:38 6.64392e-05
57 *853:28 *1122:79 0
58 *1106:28 *1122:90 0.000175181
59 *1107:260 *2071:CLK 2.35336e-05
*RES
1 *2504:X *1122:8 14.4725 
2 *1122:8 *1122:16 11.3742 
3 *1122:16 *1122:22 10.9348 
4 *1122:22 *1122:32 16.5457 
5 *1122:32 *1122:38 12.0084 
6 *1122:38 *2071:CLK 28.8449 
7 *1122:38 *2075:CLK 10.2378 
8 *1122:32 *2067:CLK 9.82786 
9 *1122:22 *2066:CLK 13.7491 
10 *1122:16 *2124:CLK 9.24915 
11 *1122:8 *1122:79 2.24725 
12 *1122:79 *2045:CLK 18.9094 
13 *1122:79 *1122:90 17.1963 
14 *1122:90 *2122:CLK 13.7491 
15 *1122:90 *2121:CLK 20.3233 
*END

*D_NET *774 0.000321382
*CONN
*I *2536:A I *D sky130_fd_sc_hd__dlygate4sd3_1
*I *2129:Q O *D sky130_fd_sc_hd__dfrtp_1
*CAP
1 *2536:A 0.000160691
2 *2129:Q 0.000160691
*RES
1 *2129:Q *2536:A 21.3195 
*END

*D_NET *776 0.00734381
*CONN
*I *1752:A1 I *D sky130_fd_sc_hd__a21oi_1
*I *1751:C1 I *D sky130_fd_sc_hd__a211oi_1
*I *2126:D I *D sky130_fd_sc_hd__dfrtp_1
*I *2090:D I *D sky130_fd_sc_hd__dfrtp_1
*I *1685:Y O *D sky130_fd_sc_hd__o21ai_1
*CAP
1 *1752:A1 4.91201e-05
2 *1751:C1 1.16004e-05
3 *2126:D 1.98947e-05
4 *2090:D 0.000160559
5 *1685:Y 0.00145361
6 *776:28 0.000294954
7 *776:22 0.000189341
8 *776:18 0.000240837
9 *776:16 0.00158209
10 *1751:C1 *1751:A2 6.08467e-05
11 *1751:C1 *838:39 4.88955e-05
12 *1752:A1 *849:16 3.07848e-05
13 *2090:D *790:12 0.000370271
14 *2090:D *907:15 9.29777e-05
15 *2126:D *2126:RESET_B 6.08467e-05
16 *2126:D *1124:36 2.16355e-05
17 *776:16 cio_gpio_o[0] 0.000209791
18 *776:16 *1685:A1 0.000120038
19 *776:16 *1807:A1 3.677e-05
20 *776:16 *1957:CLK 8.82641e-05
21 *776:16 *788:14 3.5929e-05
22 *776:16 *998:12 0.00016195
23 *776:16 *1125:33 6.06031e-05
24 *776:16 *1125:35 0.000157446
25 *776:18 *788:14 1.50087e-06
26 *776:28 *1751:A1 3.58208e-05
27 *776:28 *1751:A2 0.000164829
28 *776:28 *790:12 0.000211443
29 *776:28 *838:39 0.0002646
30 *776:28 *907:15 0.000216196
31 *1685:B1 *776:16 7.01935e-06
32 *1752:B1 *776:18 2.6046e-05
33 *1752:B1 *776:22 0.000101148
34 *458:195 *2090:D 6.90388e-05
35 *458:206 *2090:D 8.75441e-06
36 *458:206 *776:18 8.43648e-05
37 *458:206 *776:22 1.55462e-05
38 *458:230 *776:16 0.000135635
39 *458:230 *776:18 8.79082e-06
40 *458:253 *776:16 3.88415e-05
41 *611:64 *776:18 0.000255748
42 *611:64 *776:22 0.000139435
*RES
1 *1685:Y *776:16 47.4862 
2 *776:16 *776:18 4.82425 
3 *776:18 *776:22 7.1625 
4 *776:22 *776:28 11.3501 
5 *776:28 *2090:D 20.5642 
6 *776:28 *2126:D 14.4725 
7 *776:22 *1751:C1 9.97254 
8 *776:18 *1752:A1 14.4725 
*END

*D_NET *777 0.00935005
*CONN
*I *1771:A1 I *D sky130_fd_sc_hd__a21oi_1
*I *1770:C1 I *D sky130_fd_sc_hd__a211oi_1
*I *2127:D I *D sky130_fd_sc_hd__dfrtp_1
*I *2091:D I *D sky130_fd_sc_hd__dfrtp_1
*I *1726:Y O *D sky130_fd_sc_hd__o21ai_1
*CAP
1 *1771:A1 1.29793e-05
2 *1770:C1 0
3 *2127:D 0.000284385
4 *2091:D 0.000381022
5 *1726:Y 0.000907603
6 *777:18 0.000687438
7 *777:16 9.3738e-05
8 *777:14 0.00103921
9 *777:8 0.00186213
10 *2091:D *1770:A1 9.81288e-06
11 *2091:D *1770:A2 7.19887e-05
12 *2091:D *2091:RESET_B 0.000108684
13 *2091:D *2127:RESET_B 4.89392e-05
14 *2091:D *835:31 0.000310724
15 *2127:D *2127:RESET_B 0.000171273
16 *777:8 *1197:B 7.21131e-05
17 *777:8 *1636:B 2.51064e-05
18 *777:14 *1573:B 2.3735e-05
19 *777:14 *1768:A 1.83992e-05
20 *777:14 *1111:23 0.000107432
21 *777:16 *1770:A2 6.69404e-05
22 *777:18 *1770:A2 2.58757e-05
23 *1199:A *777:8 0.000143413
24 *1574:A1 *777:14 0.000310394
25 *1604:A *777:8 0.000228247
26 *1726:B1 *777:8 5.57012e-05
27 *1767:A2 *777:8 7.91715e-05
28 *1768:B *777:14 2.58757e-05
29 *1769:B *777:14 1.55033e-05
30 *1771:A2 *1771:A1 3.63169e-05
31 *1771:A2 *777:14 5.26896e-05
32 *1771:B1 *777:16 6.27782e-05
33 *1853:A *777:8 0
34 *1955:D *777:14 3.86207e-06
35 *2040:D *777:8 4.40158e-05
36 *291:10 *777:8 0.00012049
37 *457:23 *2091:D 0
38 *457:27 *2127:D 0.000196954
39 *458:46 *2091:D 0.000352796
40 *598:396 *777:14 1.00766e-05
41 *611:152 *777:8 0.000496147
42 *640:16 *2127:D 2.9373e-05
43 *733:12 *777:8 0.000756712
*RES
1 *1726:Y *777:8 47.1403 
2 *777:8 *777:14 20.0771 
3 *777:14 *777:16 2.38721 
4 *777:16 *777:18 0.723396 
5 *777:18 *2091:D 31.5024 
6 *777:18 *2127:D 27.7273 
7 *777:16 *1770:C1 9.24915 
8 *777:14 *1771:A1 9.82786 
*END

*D_NET *778 0.00883356
*CONN
*I *1903:C1 I *D sky130_fd_sc_hd__a211oi_1
*I *1904:A1 I *D sky130_fd_sc_hd__a21oi_1
*I *2128:D I *D sky130_fd_sc_hd__dfrtp_1
*I *2092:D I *D sky130_fd_sc_hd__dfrtp_1
*I *1767:Y O *D sky130_fd_sc_hd__o21ai_1
*CAP
1 *1903:C1 0.000140355
2 *1904:A1 7.98254e-05
3 *2128:D 0.000106664
4 *2092:D 2.4338e-05
5 *1767:Y 0.000855133
6 *778:50 0.000488876
7 *778:28 0.000400031
8 *778:22 0.0011525
9 *778:18 0.00146991
10 *1903:C1 *1903:A2 0.00025744
11 *1903:C1 *1903:B1 2.16355e-05
12 *2092:D *2092:CLK 2.58616e-05
13 *2128:D *846:10 3.94878e-05
14 *778:18 *1721:B 4.92721e-05
15 *778:18 *1766:A 1.27469e-05
16 *778:18 *1766:B 7.92757e-06
17 *778:18 *1928:RESET_B 0.000164815
18 *778:18 *988:12 0.000118
19 *778:18 *1113:170 0
20 *778:18 *1131:19 1.87125e-05
21 *778:18 *1131:21 9.54576e-05
22 *778:18 *1131:23 6.57892e-05
23 *778:18 *1131:25 6.5862e-05
24 *778:22 *1565:A1 0.000110458
25 *778:22 *1634:B 0.000131271
26 *778:22 *1968:CLK 0.000206718
27 *778:22 *2092:CLK 3.66374e-05
28 *778:28 *2092:CLK 0.000143227
29 *778:50 *1903:A2 0.000249293
30 *778:50 *1130:46 0
31 *1635:A1 *778:22 5.62568e-05
32 *1635:B1 *778:22 0.000111352
33 *1767:B1 *778:18 4.31703e-05
34 *1901:B *2128:D 9.29919e-05
35 *1904:B1 *1904:A1 0.000107496
36 *1925:D *778:22 4.39835e-05
37 *2142:A *778:18 0.000153271
38 *185:128 *778:18 4.0752e-05
39 *185:141 *778:22 8.92339e-05
40 *388:131 *778:18 0.000293097
41 *388:133 *778:18 4.73676e-05
42 *388:143 *778:18 5.12622e-05
43 *458:126 *778:18 0.000388861
44 *598:360 *778:18 3.94515e-05
45 *652:19 *1903:C1 0.000220747
46 *652:19 *778:50 0.000516021
*RES
1 *1767:Y *778:18 49.4586 
2 *778:18 *778:22 20.7523 
3 *778:22 *778:28 7.01694 
4 *778:28 *2092:D 9.97254 
5 *778:28 *2128:D 21.3269 
6 *778:22 *778:50 14.2218 
7 *778:50 *1904:A1 15.0271 
8 *778:50 *1903:C1 19.3507 
*END

*D_NET *786 0.0071039
*CONN
*I *1741:C1 I *D sky130_fd_sc_hd__a211oi_1
*I *1742:A1 I *D sky130_fd_sc_hd__a21oi_1
*I *2089:D I *D sky130_fd_sc_hd__dfrtp_1
*I *2125:D I *D sky130_fd_sc_hd__dfrtp_1
*I *1738:Y O *D sky130_fd_sc_hd__o21ai_1
*CAP
1 *1741:C1 0.000294264
2 *1742:A1 0.000145172
3 *2089:D 0.000697882
4 *2125:D 7.2784e-05
5 *1738:Y 0.000173477
6 *786:20 0.00111595
7 *786:10 0.000627559
8 *786:8 0.000604844
9 *1741:C1 *1741:A1 5.04829e-06
10 *1741:C1 *1741:B1 1.96456e-05
11 *1741:C1 *1807:B1 0.000161243
12 *1741:C1 *2124:RESET_B 6.29565e-05
13 *1741:C1 *787:14 0.000433955
14 *1742:A1 *1532:A2 2.40615e-05
15 *2089:D *2042:RESET_B 0.000196546
16 *2089:D *2089:CLK 0.000106225
17 *2089:D *853:28 5.56367e-05
18 *2089:D *1113:66 0
19 *2089:D *1123:8 4.97352e-05
20 *2089:D *1123:88 8.56223e-05
21 *2125:D *2125:CLK 0.000195605
22 *2125:D *838:21 0.000113289
23 *786:8 *837:14 0.000110306
24 *786:8 *837:25 0.000149247
25 *786:10 *787:14 0.000263466
26 *786:20 *2125:CLK 6.8802e-05
27 *786:20 *838:21 3.20011e-05
28 *786:20 *853:28 0.00013412
29 cio_gpio_en_o[0] *1741:C1 3.00174e-06
30 cio_gpio_en_o[1] *1741:C1 0
31 *1558:B1 *786:20 4.4201e-05
32 *1558:B2 *1741:C1 6.94589e-05
33 *1558:B2 *786:10 0.000377536
34 *1558:B2 *786:20 0.00012136
35 *1676:A1 *2089:D 6.30746e-05
36 *1742:B1 *1742:A1 0.00011502
37 *2132:A *2089:D 9.04224e-05
38 *637:31 *2089:D 0
39 *637:31 *786:20 0.000146617
40 *644:16 *786:20 7.37686e-05
*RES
1 *1738:Y *786:8 16.691 
2 *786:8 *786:10 6.81502 
3 *786:10 *786:20 16.5429 
4 *786:20 *2125:D 13.8548 
5 *786:20 *2089:D 36.922 
6 *786:10 *1742:A1 16.1364 
7 *786:8 *1741:C1 23.6425 
*END

*D_NET *550 0.00106399
*CONN
*P intr_gpio_o[0] O
*I *1411:X O *D sky130_fd_sc_hd__clkdlybuf4s50_1
*CAP
1 intr_gpio_o[0] 0.000448207
2 *1411:X 0.000448207
3 intr_gpio_o[0] cio_gpio_o[0] 4.41622e-05
4 intr_gpio_o[0] intr_gpio_o[3] 4.41622e-05
5 intr_gpio_o[0] *1776:A2 9.43222e-06
6 intr_gpio_o[0] *2181:A 7.30461e-06
7 intr_gpio_o[0] *2531:A 2.58757e-05
8 intr_gpio_o[0] *862:14 3.66374e-05
*RES
1 *1411:X intr_gpio_o[0] 21.4181 
*END

*D_NET *540 0.000827317
*CONN
*P intr_gpio_o[1] O
*I *1375:X O *D sky130_fd_sc_hd__clkdlybuf4s50_1
*CAP
1 intr_gpio_o[1] 0.000380653
2 *1375:X 0.000380653
3 intr_gpio_o[1] intr_gpio_o[3] 4.76126e-05
4 intr_gpio_o[1] *788:14 1.83992e-05
*RES
1 *1375:X intr_gpio_o[1] 20.3089 
*END

*D_NET *472 0.000649823
*CONN
*P intr_gpio_o[2] O
*I *1287:X O *D sky130_fd_sc_hd__clkdlybuf4s50_1
*CAP
1 intr_gpio_o[2] 0.000191823
2 *1287:X 0.000191823
3 intr_gpio_o[2] axi_lite_o[35] 0.000187492
4 intr_gpio_o[2] *2180:A 7.86847e-05
*RES
1 *1287:X intr_gpio_o[2] 20.6863 
*END

*D_NET *1103 0.000920722
*CONN
*P intr_gpio_o[3] O
*I *2485:X O *D sky130_fd_sc_hd__clkdlybuf4s50_1
*CAP
1 intr_gpio_o[3] 0.000274928
2 *2485:X 0.000274928
3 intr_gpio_o[3] *2112:RESET_B 0.000160942
4 intr_gpio_o[0] intr_gpio_o[3] 4.41622e-05
5 intr_gpio_o[1] intr_gpio_o[3] 4.76126e-05
6 *788:14 intr_gpio_o[3] 0.00011815
*RES
1 *2485:X intr_gpio_o[3] 20.8579 
*END

*D_NET *736 0.000942363
*CONN
*I *2162:A I *D sky130_fd_sc_hd__clkdlybuf4s50_1
*I *1183:Y O *D sky130_fd_sc_hd__o21ai_0
*CAP
1 *2162:A 0.000348025
2 *1183:Y 0.000348025
3 *2162:A *1181:A 5.76589e-05
4 *384:6 *2162:A 0.000188654
*RES
1 *1183:Y *2162:A 24.6472 
*END

*D_NET *737 0.000114473
*CONN
*I *2161:A I *D sky130_fd_sc_hd__clkdlybuf4s50_1
*I *1186:Y O *D sky130_fd_sc_hd__o21ai_0
*CAP
1 *2161:A 5.72367e-05
2 *1186:Y 5.72367e-05
*RES
1 *1186:Y *2161:A 19.8004 
*END

*D_NET *738 0.00048709
*CONN
*I *2160:A I *D sky130_fd_sc_hd__clkdlybuf4s50_1
*I *1229:Y O *D sky130_fd_sc_hd__o21ai_0
*CAP
1 *2160:A 0.000215888
2 *1229:Y 0.000215888
3 *2160:A *1227:A 3.61639e-05
4 *2160:A *1952:RESET_B 0
5 *1229:B1 *2160:A 4.29314e-06
6 *415:8 *2160:A 1.48571e-05
*RES
1 *1229:Y *2160:A 31.5781 
*END

*D_NET *739 0.0003454
*CONN
*I *2159:A I *D sky130_fd_sc_hd__clkdlybuf4s50_1
*I *1232:Y O *D sky130_fd_sc_hd__o21ai_0
*CAP
1 *2159:A 0.000112729
2 *1232:Y 0.000112729
3 *1232:A2 *2159:A 3.01683e-06
4 *1232:B1 *2159:A 0.000106831
5 *417:6 *2159:A 1.00937e-05
*RES
1 *1232:Y *2159:A 21.1749 
*END

*D_NET *740 0.00061826
*CONN
*I *2158:A I *D sky130_fd_sc_hd__clkdlybuf4s50_1
*I *1223:Y O *D sky130_fd_sc_hd__o21ai_0
*CAP
1 *2158:A 0.000211498
2 *1223:Y 0.000211498
3 *1223:A2 *2158:A 0
4 *411:6 *2158:A 0.000195265
*RES
1 *1223:Y *2158:A 22.4287 
*END

*D_NET *741 0.000634529
*CONN
*I *2157:A I *D sky130_fd_sc_hd__clkdlybuf4s50_1
*I *1226:Y O *D sky130_fd_sc_hd__o21ai_0
*CAP
1 *2157:A 0.000310166
2 *1226:Y 0.000310166
3 *1226:B1 *2157:A 1.41976e-05
*RES
1 *1226:Y *2157:A 25.901 
*END

*D_NET *742 0.000589622
*CONN
*I *2156:A I *D sky130_fd_sc_hd__clkdlybuf4s50_1
*I *1735:Y O *D sky130_fd_sc_hd__o21ai_0
*CAP
1 *2156:A 0.000206397
2 *1735:Y 0.000206397
3 *2156:A *1733:A 3.77635e-05
4 *267:6 *2156:A 0.000139065
*RES
1 *1735:Y *2156:A 22.4287 
*END

*D_NET *743 0.00106535
*CONN
*I *2155:A I *D sky130_fd_sc_hd__clkdlybuf4s50_1
*I *1217:Y O *D sky130_fd_sc_hd__o21ai_0
*CAP
1 *2155:A 0.000340017
2 *1217:Y 0.000340017
3 *407:6 *2155:A 0.00038532
*RES
1 *1217:Y *2155:A 24.6472 
*END

*D_NET *744 0.00131922
*CONN
*I *2154:A I *D sky130_fd_sc_hd__clkdlybuf4s50_1
*I *1220:Y O *D sky130_fd_sc_hd__o21ai_0
*CAP
1 *2154:A 0.000463399
2 *1220:Y 0.000463399
3 *2154:A axi_lite_o[31] 0
4 *2154:A *1218:A 9.88345e-05
5 *2154:A *1224:A 0
6 *2154:A *1950:RESET_B 1.46079e-05
7 *409:14 *2154:A 0.000277575
8 *734:16 *2154:A 1.4091e-06
*RES
1 *1220:Y *2154:A 36.0444 
*END

*D_NET *745 0.00061826
*CONN
*I *2153:A I *D sky130_fd_sc_hd__clkdlybuf4s50_1
*I *1211:Y O *D sky130_fd_sc_hd__o21ai_0
*CAP
1 *2153:A 0.000211498
2 *1211:Y 0.000211498
3 *1211:A2 *2153:A 0
4 *403:6 *2153:A 0.000195265
*RES
1 *1211:Y *2153:A 22.4287 
*END

*D_NET *746 0.00114513
*CONN
*I *2152:A I *D sky130_fd_sc_hd__clkdlybuf4s50_1
*I *1214:Y O *D sky130_fd_sc_hd__o21ai_0
*CAP
1 *2152:A 0.000421129
2 *1214:Y 0.000421129
3 *2152:A *1227:A 6.65913e-05
4 *2152:A *1113:959 0
5 *1214:B1 *2152:A 0.000222149
6 *2163:A *2152:A 0
7 *405:8 *2152:A 1.41291e-05
*RES
1 *1214:Y *2152:A 37.676 
*END

*D_NET *747 0.000903616
*CONN
*I *2151:A I *D sky130_fd_sc_hd__clkdlybuf4s50_1
*I *1906:Y O *D sky130_fd_sc_hd__o21ai_0
*CAP
1 *2151:A 0.000451808
2 *1906:Y 0.000451808
*RES
1 *1906:Y *2151:A 29.2287 
*END

*D_NET *748 0.00215069
*CONN
*I *2150:A I *D sky130_fd_sc_hd__clkdlybuf4s50_1
*I *1647:A I *D sky130_fd_sc_hd__nand2_4
*I *1646:Y O *D sky130_fd_sc_hd__nand2_4
*CAP
1 *2150:A 0
2 *1647:A 0.000195006
3 *1646:Y 0.000308526
4 *748:10 0.000503531
5 *1647:A axi_lite_o[35] 0.000127194
6 *1647:A *2050:CLK 0
7 *1647:A *789:26 0
8 *1647:A *1135:52 3.8079e-05
9 *748:10 *1643:A2 2.5971e-05
10 *748:10 *1646:B 6.27718e-05
11 *748:10 *2105:CLK 2.53347e-05
12 *748:10 *1029:12 4.66492e-05
13 *748:10 *1029:25 0.0001195
14 *748:10 *1029:33 0.000235343
15 *748:10 *1135:52 5.45692e-05
16 *1645:A *748:10 4.88661e-05
17 *1647:B *1647:A 3.42601e-05
18 *1649:A *1647:A 0.000196797
19 *1649:B *748:10 7.65987e-05
20 *208:10 *748:10 2.48232e-05
21 *676:14 *1647:A 2.6874e-05
*RES
1 *1646:Y *748:10 24.7489 
2 *748:10 *1647:A 20.7627 
3 *748:10 *2150:A 13.7491 
*END

*D_NET *749 0.00191774
*CONN
*I *1358:A I *D sky130_fd_sc_hd__nand2_1
*I *2149:A I *D sky130_fd_sc_hd__clkdlybuf4s50_1
*I *1357:Y O *D sky130_fd_sc_hd__nand2_1
*CAP
1 *1358:A 0
2 *2149:A 0.000457311
3 *1357:Y 0.000251809
4 *749:10 0.00070912
5 *2149:A *2184:A 0
6 *2149:A *2189:A 0.000106165
7 *2149:A *2557:A 5.00217e-05
8 *749:10 *1139:31 3.30805e-05
9 *1357:A *749:10 1.19705e-05
10 *1358:B *2149:A 8.2492e-05
11 *526:8 *749:10 5.04829e-06
12 *527:10 *749:10 7.26606e-05
13 *719:19 *2149:A 5.3697e-05
14 *719:28 *2149:A 8.43674e-05
*RES
1 *1357:Y *749:10 18.7989 
2 *749:10 *2149:A 28.4862 
3 *749:10 *1358:A 13.7491 
*END

*D_NET *751 0.00356029
*CONN
*I *2148:A I *D sky130_fd_sc_hd__clkdlybuf4s50_1
*I *1786:Y O *D sky130_fd_sc_hd__o21ai_0
*CAP
1 *2148:A 0
2 *1786:Y 0.00108416
3 *751:12 0.00108416
4 *751:12 *1844:B 0
5 *751:12 *2551:A 0
6 *751:12 *951:14 2.20937e-05
7 *751:12 *957:10 4.02577e-05
8 *751:12 *1110:731 0
9 *751:12 *1110:739 0
10 *751:12 *1135:62 0.00030115
11 *1653:S *751:12 7.15669e-05
12 *1660:B *751:12 0.000705265
13 *1845:A *751:12 8.62321e-06
14 *2052:D *751:12 3.77804e-05
15 *215:16 *751:12 9.28672e-05
16 *425:20 *751:12 0
17 *456:10 *751:12 0.000112361
18 *717:10 *751:12 0
*RES
1 *1786:Y *751:12 48.7658 
2 *751:12 *2148:A 9.24915 
*END

*D_NET *752 0.00693548
*CONN
*I *1371:A I *D sky130_fd_sc_hd__xor2_1
*I *1868:B I *D sky130_fd_sc_hd__nor2_1
*I *2144:A I *D sky130_fd_sc_hd__clkdlybuf4s50_1
*I *2147:A I *D sky130_fd_sc_hd__clkdlybuf4s50_1
*I *1373:A I *D sky130_fd_sc_hd__inv_1
*I *1367:Y O *D sky130_fd_sc_hd__a21oi_2
*CAP
1 *1371:A 0.000281502
2 *1868:B 4.49498e-05
3 *2144:A 0
4 *2147:A 0.000162914
5 *1373:A 3.28588e-05
6 *1367:Y 0.000401389
7 *752:25 0.00142834
8 *752:21 0.00194702
9 *752:8 0.000789388
10 *1371:A *2063:RESET_B 0.000146652
11 *1371:A *1139:81 6.4628e-05
12 *1868:B *1279:A 0.000122098
13 *1868:B *1110:613 0.000122098
14 *2147:A axi_lite_o[39] 0
15 *2147:A axi_lite_o[40] 1.66626e-05
16 *752:21 *2009:RESET_B 0.000110099
17 *752:21 *2035:RESET_B 4.88955e-05
18 *752:25 axi_lite_o[40] 2.36025e-05
19 *752:25 *2009:CLK 2.63773e-05
20 *752:25 *2035:RESET_B 0.000455839
21 *752:25 *2035:CLK 3.61993e-05
22 *752:25 *1140:25 0.000137247
23 *1371:B *1371:A 0.000335017
24 *2035:D *752:25 6.50586e-05
25 *533:14 *1371:A 0.000126679
26 *538:8 *1373:A 5.04829e-06
27 *538:8 *752:8 4.92098e-06
*RES
1 *1367:Y *752:8 12.2151 
2 *752:8 *1373:A 10.2438 
3 *752:8 *752:21 9.62117 
4 *752:21 *752:25 20.5686 
5 *752:25 *2147:A 22.1574 
6 *752:25 *2144:A 9.24915 
7 *752:21 *1868:B 20.4964 
8 *1367:Y *1371:A 36.9792 
*END

*D_NET *753 0.0021029
*CONN
*I *2145:A I *D sky130_fd_sc_hd__clkdlybuf4s50_1
*I *1732:Y O *D sky130_fd_sc_hd__nand2_1
*CAP
1 *2145:A 0.000647332
2 *1732:Y 0.000647332
3 *2145:A *1937:RESET_B 0.000114341
4 *2145:A *1937:CLK 4.66112e-05
5 *2145:A *965:10 2.16355e-05
6 *2145:A *1143:10 1.37921e-05
7 *1937:D *2145:A 1.03594e-05
8 *185:178 *2145:A 1.35317e-05
9 *598:145 *2145:A 0.000587963
*RES
1 *1732:Y *2145:A 47.3322 
*END

*D_NET *755 0.000671565
*CONN
*I *2143:A I *D sky130_fd_sc_hd__clkdlybuf4s50_1
*I *1729:Y O *D sky130_fd_sc_hd__nand2_1
*CAP
1 *2143:A 0.000264578
2 *1729:Y 0.000264578
3 *1627:A2 *2143:A 4.29314e-06
4 *1727:A *2143:A 2.41483e-05
5 *1729:A *2143:A 0.000113968
*RES
1 *1729:Y *2143:A 22.9833 
*END

*D_NET *756 0.00126897
*CONN
*I *2142:A I *D sky130_fd_sc_hd__clkdlybuf4s50_1
*I *1723:Y O *D sky130_fd_sc_hd__nand2_1
*CAP
1 *2142:A 0.000367767
2 *1723:Y 0.000367767
3 *2142:A *1721:B 1.58551e-05
4 *2142:A *1928:RESET_B 1.65872e-05
5 *2142:A *778:18 0.000153271
6 *2142:A *1131:19 0.000118485
7 *1723:A *2142:A 0.000107496
8 *185:128 *2142:A 0.000113968
9 *388:131 *2142:A 7.77309e-06
*RES
1 *1723:Y *2142:A 35.0746 
*END

*D_NET *757 0.000813888
*CONN
*I *2141:A I *D sky130_fd_sc_hd__clkdlybuf4s50_1
*I *1720:Y O *D sky130_fd_sc_hd__nand2_1
*CAP
1 *2141:A 0.000104099
2 *1720:Y 0.000104099
3 *2141:A *1968:CLK 0.000449845
4 *1720:A *2141:A 6.46815e-05
5 *1968:D *2141:A 9.11633e-05
*RES
1 *1720:Y *2141:A 24.0926 
*END

*D_NET *758 0.00368419
*CONN
*I *2140:A I *D sky130_fd_sc_hd__clkdlybuf4s50_1
*I *1714:Y O *D sky130_fd_sc_hd__nand2_1
*CAP
1 *2140:A 0
2 *1714:Y 0.000974891
3 *758:8 0.000974891
4 *758:8 *1684:B 0.000249335
5 *758:8 *1934:CLK 0
6 *758:8 *2038:RESET_B 0.000276982
7 *758:8 *881:8 8.5976e-05
8 *758:8 *962:14 0.000285547
9 *758:8 *1106:91 0.000116971
10 *1233:A *758:8 6.76593e-05
11 *1970:D *758:8 9.96342e-05
12 *2175:A *758:8 0.0005523
13 *726:14 *758:8 0
*RES
1 *1714:Y *758:8 46.3098 
2 *758:8 *2140:A 13.7491 
*END

*D_NET *759 0.00355545
*CONN
*I *2139:A I *D sky130_fd_sc_hd__clkdlybuf4s50_1
*I *1707:Y O *D sky130_fd_sc_hd__nand2_1
*CAP
1 *2139:A 0.000931714
2 *1707:Y 0.000931714
3 *2139:A *1186:A1 2.41274e-06
4 *2139:A *1111:595 0.000107643
5 *2139:A *1111:603 0.000176652
6 *2139:A *1128:67 0
7 *2139:A *1128:80 0
8 *598:582 *2139:A 1.44467e-05
9 *598:599 *2139:A 0.000270358
10 *598:614 *2139:A 0.00112051
*RES
1 *1707:Y *2139:A 48.205 
*END

*D_NET *760 0.000380402
*CONN
*I *2138:A I *D sky130_fd_sc_hd__clkdlybuf4s50_1
*I *1704:Y O *D sky130_fd_sc_hd__nand2_1
*CAP
1 *2138:A 0.000122888
2 *1704:Y 0.000122888
3 *2138:A axi_lite_o[9] 0
4 *2138:A *1932:CLK 5.04829e-06
5 *2138:A *1941:CLK 0.000127164
6 *1704:A *2138:A 2.41274e-06
*RES
1 *1704:Y *2138:A 30.4689 
*END

*D_NET *761 0.00476497
*CONN
*I *1558:B2 I *D sky130_fd_sc_hd__a221oi_1
*I *2137:A I *D sky130_fd_sc_hd__clkdlybuf4s50_1
*I *1670:A0 I *D sky130_fd_sc_hd__mux2_1
*I *2045:Q O *D sky130_fd_sc_hd__dfrtp_1
*CAP
1 *1558:B2 0.000585263
2 *2137:A 0
3 *1670:A0 0.000332781
4 *2045:Q 0
5 *761:14 0.000785091
6 *761:4 0.00103757
7 *1558:B2 cio_gpio_en_o[1] 5.04829e-06
8 *1558:B2 *1736:A 8.30351e-05
9 *1558:B2 *1737:B 1.13359e-05
10 *1558:B2 *1741:C1 6.94589e-05
11 *1558:B2 *2037:CLK 4.45999e-05
12 *1558:B2 *2124:RESET_B 0.000248908
13 *1558:B2 *786:10 0.000377536
14 *1558:B2 *786:20 0.00012136
15 *1558:B2 *787:14 9.28816e-05
16 *1558:B2 *837:14 5.8973e-05
17 *1558:B2 *837:25 2.99287e-05
18 *1558:B2 *853:28 0.000113706
19 *1670:A0 *2118:D 0
20 *1670:A0 *2124:D 6.50088e-05
21 *761:14 *1736:A 0.000127312
22 *761:14 *2125:RESET_B 5.37479e-05
23 *761:14 *853:28 7.94976e-05
24 *761:14 *1122:79 3.20069e-06
25 *761:14 *1122:90 8.82042e-05
26 *1670:A1 *1670:A0 0.000261817
27 *1738:A2 *1558:B2 5.04829e-06
28 *2045:D *1670:A0 0
29 *269:12 *1558:B2 8.36551e-05
*RES
1 *2045:Q *761:4 9.24915 
2 *761:4 *761:14 20.0404 
3 *761:14 *1670:A0 28.8014 
4 *761:14 *2137:A 9.24915 
5 *761:4 *1558:B2 48.3355 
*END

*D_NET *762 0.00710723
*CONN
*I *2136:A I *D sky130_fd_sc_hd__clkdlybuf4s50_1
*I *1669:A0 I *D sky130_fd_sc_hd__mux2_1
*I *1555:B2 I *D sky130_fd_sc_hd__a221oi_1
*I *2046:Q O *D sky130_fd_sc_hd__dfrtp_1
*CAP
1 *2136:A 7.28755e-05
2 *1669:A0 0.000650669
3 *1555:B2 0.000740551
4 *2046:Q 0.000504759
5 *762:12 0.00146027
6 *762:10 0.000646689
7 *1555:B2 *1351:A0 9.50021e-05
8 *1555:B2 *2066:RESET_B 0.000284026
9 *1555:B2 *2125:RESET_B 0
10 *1555:B2 *845:31 0.000825674
11 *1555:B2 *1122:16 2.95757e-05
12 *1669:A0 *1122:16 0.000213725
13 *1669:A0 *1122:22 0.000105636
14 *2136:A *837:14 0.000213725
15 *2136:A *1122:8 2.41274e-06
16 *762:10 *2045:RESET_B 4.6035e-06
17 *762:10 *2045:CLK 0.000204647
18 *762:10 *853:28 3.68867e-05
19 *762:10 *1122:16 7.45404e-05
20 *762:10 *1122:79 7.14746e-05
21 *762:12 *2125:RESET_B 0
22 *762:12 *853:28 1.36556e-05
23 *762:12 *1122:16 0.000113471
24 *1355:A1 *1555:B2 0.000108746
25 *1670:S *1669:A0 5.52748e-05
26 *1742:A2 *1555:B2 0.000147742
27 *224:117 *1669:A0 1.67663e-05
28 *637:31 *1555:B2 0
29 *644:16 *1555:B2 0.000413833
*RES
1 *2046:Q *762:10 23.2357 
2 *762:10 *762:12 2.24725 
3 *762:12 *1555:B2 46.8631 
4 *762:12 *1669:A0 24.6483 
5 *762:10 *2136:A 16.1364 
*END

*D_NET *763 0.0114548
*CONN
*I *1552:B2 I *D sky130_fd_sc_hd__a221oi_1
*I *2135:A I *D sky130_fd_sc_hd__clkdlybuf4s50_1
*I *1668:A0 I *D sky130_fd_sc_hd__mux2_1
*I *2047:Q O *D sky130_fd_sc_hd__dfrtp_1
*CAP
1 *1552:B2 0.00120905
2 *2135:A 0.000319838
3 *1668:A0 0
4 *2047:Q 0.000236043
5 *763:33 0.00199769
6 *763:14 0.00183338
7 *763:12 0.00160062
8 *1552:B2 *1236:A 6.50727e-05
9 *1552:B2 *1347:A0 0.000146752
10 *1552:B2 *2069:RESET_B 5.61895e-05
11 *1552:B2 *2084:RESET_B 0.000208716
12 *2135:A cio_gpio_en_o[2] 0.000171456
13 *2135:A *1399:A0 8.18319e-05
14 *2135:A *1399:S 0.000117376
15 *763:12 *1307:A 0
16 *763:12 *2043:CLK 4.57262e-05
17 *763:12 *2047:RESET_B 3.25052e-05
18 *763:33 *1305:A 0.000161234
19 *763:33 *1305:B 6.64392e-05
20 *763:33 *1307:A 0.000224381
21 *763:33 *1308:A1 2.61012e-05
22 *763:33 *1399:A0 0.000164059
23 *763:33 *1399:S 1.5962e-05
24 *763:33 *2027:RESET_B 0.000120418
25 *763:33 *2027:CLK 0.00041808
26 *763:33 *2198:A 0.000118796
27 *763:33 *1104:212 0.000413238
28 *763:33 *1114:10 0.000167076
29 *1308:A2 *763:33 0.000253437
30 *1308:B1 *763:33 3.82228e-05
31 *1347:A1 *1552:B2 5.12094e-05
32 *1347:A1 *763:14 6.14949e-06
33 *1399:A1 *2135:A 0.000171288
34 *2015:D *2135:A 6.99486e-05
35 *2027:D *763:33 2.65831e-05
36 *2047:D *763:12 0
37 *2084:D *763:12 0
38 *224:38 *1552:B2 7.02865e-05
39 *224:38 *763:14 1.43848e-05
40 *453:29 *1552:B2 0.000238552
41 *475:8 *763:12 0.000112367
42 *519:12 *763:14 3.62662e-06
43 *519:12 *763:33 0.000103529
44 *688:16 *763:33 0.000277171
*RES
1 *2047:Q *763:12 24.6812 
2 *763:12 *763:14 2.38721 
3 *763:14 *1668:A0 9.24915 
4 *763:14 *763:33 44.9711 
5 *763:33 *2135:A 20.51 
6 *763:12 *1552:B2 42.9001 
*END

*D_NET *764 0.00210913
*CONN
*I *2134:A I *D sky130_fd_sc_hd__clkdlybuf4s50_1
*I *1835:A0 I *D sky130_fd_sc_hd__mux2_1
*I *1549:B2 I *D sky130_fd_sc_hd__a221oi_1
*I *2048:Q O *D sky130_fd_sc_hd__dfrtp_1
*CAP
1 *2134:A 5.9282e-05
2 *1835:A0 0.000369076
3 *1549:B2 0.000328402
4 *2048:Q 0
5 *764:8 0.000766787
6 *764:4 0.000128591
7 *1549:B2 *1884:A0 5.43595e-05
8 *1549:B2 *847:27 8.14875e-05
9 *2134:A *832:27 3.00829e-05
10 *1549:B1 *1549:B2 6.53744e-05
11 *1549:C1 *1549:B2 6.08467e-05
12 *224:68 *1549:B2 0
13 *458:10 *1549:B2 0
14 *637:23 *1549:B2 0.000164843
*RES
1 *2048:Q *764:4 9.24915 
2 *764:4 *764:8 5.91674 
3 *764:8 *1549:B2 23.8116 
4 *764:8 *1835:A0 18.9094 
5 *764:4 *2134:A 10.9612 
*END

*D_NET *769 0.000514456
*CONN
*I *2133:A I *D sky130_fd_sc_hd__clkdlybuf4s50_1
*I *1581:A I *D sky130_fd_sc_hd__inv_1
*I *2041:Q O *D sky130_fd_sc_hd__dfrtp_1
*CAP
1 *2133:A 0
2 *1581:A 4.71546e-05
3 *2041:Q 0.000157197
4 *769:12 0.000204351
5 *1581:A *834:23 5.49652e-05
6 *769:12 *2041:RESET_B 2.74484e-05
7 *663:10 *769:12 2.3339e-05
*RES
1 *2041:Q *769:12 21.635 
2 *769:12 *1581:A 10.6779 
3 *769:12 *2133:A 9.24915 
*END

*D_NET *770 0.00129696
*CONN
*I *2132:A I *D sky130_fd_sc_hd__clkdlybuf4s50_1
*I *1575:A I *D sky130_fd_sc_hd__inv_1
*I *2042:Q O *D sky130_fd_sc_hd__dfrtp_1
*CAP
1 *2132:A 0.000206901
2 *1575:A 4.81683e-05
3 *2042:Q 7.14133e-05
4 *770:8 0.000326483
5 *2132:A *1930:CLK 0.000143032
6 *2132:A *2042:RESET_B 6.17773e-05
7 *2132:A *2089:D 9.04224e-05
8 *770:8 *2042:RESET_B 4.94526e-05
9 *1576:A2 *2132:A 1.51778e-05
10 *1576:A2 *770:8 4.94526e-05
11 *1676:A1 *2132:A 0.000108038
12 *1676:B1 *2132:A 0
13 *477:32 *1575:A 0.000126645
*RES
1 *2042:Q *770:8 15.9964 
2 *770:8 *1575:A 15.1779 
3 *770:8 *2132:A 20.7627 
*END

*D_NET *771 0.00162893
*CONN
*I *1570:A I *D sky130_fd_sc_hd__inv_1
*I *1601:A I *D sky130_fd_sc_hd__clkdlybuf4s50_1
*I *2043:Q O *D sky130_fd_sc_hd__dfrtp_1
*CAP
1 *1570:A 7.74943e-06
2 *1601:A 0.000286505
3 *2043:Q 0.000182675
4 *771:10 0.00047693
5 *1601:A *847:16 0.00022786
6 *1601:A *1137:12 5.27235e-05
7 *771:10 *835:31 0.000154145
8 *771:10 *847:16 0.000139817
9 *771:10 *1137:12 3.66316e-05
10 *1672:A1 *1570:A 3.19445e-05
11 *421:33 *1570:A 3.19445e-05
12 *636:23 *1601:A 0
*RES
1 *2043:Q *771:10 18.2442 
2 *771:10 *1601:A 21.8422 
3 *771:10 *1570:A 14.1289 
*END

*D_NET *772 0.0114422
*CONN
*I *1487:A I *D sky130_fd_sc_hd__clkdlybuf4s50_1
*I *1561:A I *D sky130_fd_sc_hd__inv_1
*I *2044:Q O *D sky130_fd_sc_hd__dfrtp_1
*CAP
1 *1487:A 0.00143501
2 *1561:A 9.0693e-05
3 *2044:Q 0.000473746
4 *772:31 0.00308968
5 *772:10 0.00221911
6 *1487:A *1344:A 0.000122896
7 *1487:A *1829:B 0.000261135
8 *1487:A *1830:A1 9.81288e-06
9 *1487:A *2001:CLK 4.89392e-05
10 *1487:A *2019:RESET_B 0.000171584
11 *1487:A *1112:161 6.27718e-05
12 *772:10 *1895:A 0
13 *772:10 *2044:RESET_B 1.75715e-05
14 *772:10 *910:121 0
15 *772:10 *1142:167 0
16 *772:31 *1386:S 2.91598e-05
17 *772:31 *2085:CLK 7.65364e-05
18 *772:31 *2524:A 7.96256e-05
19 *772:31 *1107:81 8.4601e-05
20 *772:31 *1110:209 5.5232e-05
21 *772:31 *1141:35 0.000134431
22 *772:31 *1142:167 0.00025821
23 *1321:A2 *1487:A 0.00183585
24 *1830:B1 *1487:A 2.30636e-05
25 *1897:B *1561:A 1.55847e-05
26 *2001:D *772:31 8.36586e-06
27 *175:12 *1561:A 0.000114659
28 *175:12 *772:10 0.000369862
29 *224:68 *1561:A 3.19445e-05
30 *340:10 *1487:A 2.77625e-06
31 *674:18 *1487:A 0.000283738
32 *688:22 *772:31 3.56264e-05
*RES
1 *2044:Q *772:10 25.1642 
2 *772:10 *1561:A 16.3762 
3 *772:10 *772:31 39.9033 
4 *772:31 *1487:A 46.6487 
*END

*D_NET *787 0.0042773
*CONN
*I *1411:A I *D sky130_fd_sc_hd__clkdlybuf4s50_1
*I *1742:Y O *D sky130_fd_sc_hd__a21oi_1
*CAP
1 *1411:A 2.2953e-05
2 *1742:Y 0.00101573
3 *787:14 0.00103868
4 *1411:A *1776:A2 6.36477e-05
5 *787:14 *1532:A2 3.00082e-05
6 *787:14 *1737:B 0
7 *787:14 *1756:A 0
8 *787:14 *2121:RESET_B 0.000112458
9 *787:14 *865:29 0.000107116
10 *787:14 *865:42 0.000163359
11 cio_gpio_en_o[0] *787:14 6.13671e-05
12 *1558:B2 *787:14 9.28816e-05
13 *1741:C1 *787:14 0.000433955
14 *1742:B1 *787:14 0
15 *1772:A *787:14 0.0002087
16 *1776:A1 *787:14 0.000457664
17 *2037:D *787:14 0
18 *296:10 *787:14 0.000205317
19 *786:10 *787:14 0.000263466
*RES
1 *1742:Y *787:14 47.5217 
2 *787:14 *1411:A 14.4725 
*END

*D_NET *788 0.00492397
*CONN
*I *1375:A I *D sky130_fd_sc_hd__clkdlybuf4s50_1
*I *1752:Y O *D sky130_fd_sc_hd__a21oi_1
*CAP
1 *1375:A 0
2 *1752:Y 4.04077e-05
3 *788:14 0.0012757
4 *788:8 0.00131611
5 *788:8 *849:16 5.08393e-05
6 *788:14 intr_gpio_o[3] 0.00011815
7 *788:14 *1520:A2 8.81107e-05
8 *788:14 *1926:RESET_B 0
9 *788:14 *1957:CLK 0.000189414
10 *788:14 *2123:D 8.96342e-05
11 *788:14 *2181:A 2.58757e-05
12 *788:14 *2507:A 1.93781e-05
13 *788:14 *863:14 0
14 *788:14 *1125:31 0.000243661
15 *788:14 *1125:33 0.000217474
16 *788:14 *1125:35 0.000367283
17 intr_gpio_o[1] *788:14 1.83992e-05
18 *1560:A2 *788:14 3.57378e-06
19 *1633:A1 *788:14 7.64213e-06
20 *1752:A2 *788:8 1.55025e-05
21 *1764:B1 *788:14 2.70061e-05
22 *1807:A2 *788:14 0
23 *1926:D *788:14 0.000292359
24 *1965:D *788:14 0.000121831
25 *287:15 *788:14 0
26 *458:253 *788:14 1.13775e-05
27 *611:64 *788:14 0.000159131
28 *626:14 *788:14 0
29 *642:16 *788:14 0
30 *644:16 *788:8 0.000158357
31 *644:16 *788:14 2.93302e-05
32 *776:16 *788:14 3.5929e-05
33 *776:18 *788:14 1.50087e-06
*RES
1 *1752:Y *788:8 15.5817 
2 *788:8 *788:14 44.9827 
3 *788:14 *1375:A 9.24915 
*END

*D_NET *789 0.009062
*CONN
*I *1287:A I *D sky130_fd_sc_hd__clkdlybuf4s50_1
*I *1771:Y O *D sky130_fd_sc_hd__a21oi_1
*CAP
1 *1287:A 0
2 *1771:Y 0.00410853
3 *789:26 0.00410853
4 *789:26 axi_lite_o[35] 0
5 *789:26 *2492:A 2.40917e-06
6 *789:26 *1030:12 0.00033617
7 *1647:A *789:26 0
8 *1649:A *789:26 3.9739e-05
9 *1649:B *789:26 3.13173e-05
10 *186:10 *789:26 0
11 *213:10 *789:26 2.9287e-05
12 *422:10 *789:26 0.000100376
13 *450:67 *789:26 2.50747e-05
14 *457:27 *789:26 0.000107858
15 *676:14 *789:26 0.000172706
*RES
1 *1771:Y *789:26 43.5178 
2 *789:26 *1287:A 9.24915 
*END

*D_NET *790 0.00963467
*CONN
*I *2485:A I *D sky130_fd_sc_hd__clkdlybuf4s50_1
*I *1904:Y O *D sky130_fd_sc_hd__a21oi_1
*CAP
1 *2485:A 0
2 *1904:Y 8.68298e-05
3 *790:22 0.000936531
4 *790:12 0.0020897
5 *790:8 0.00124
6 *790:12 *1555:A1 0.000107263
7 *790:12 *1751:A1 0.000170592
8 *790:12 *2041:RESET_B 0.000141755
9 *790:12 *2090:RESET_B 2.56391e-05
10 *790:12 *2125:CLK 4.15143e-05
11 *790:12 *832:27 0.000105064
12 *790:12 *907:15 0.000132377
13 *790:12 *1113:86 5.53186e-05
14 *790:22 cio_gpio_o[0] 0.0015523
15 *790:22 *1555:A1 2.49836e-05
16 *790:22 *1756:A 0
17 *790:22 *1807:C1 6.14694e-05
18 *790:22 *1808:B 0.000290644
19 *790:22 *2112:RESET_B 0.000157107
20 *790:22 *907:15 6.31417e-05
21 *1582:A2 *790:12 0.000117694
22 *1583:B *790:12 3.06239e-05
23 *1742:B1 *790:22 6.18826e-05
24 *1763:A1 *790:22 0.00014244
25 *1807:D1 *790:22 0.000118002
26 *1904:A2 *790:8 0.000207266
27 *2090:D *790:12 0.000370271
28 *284:12 *790:22 0.00033617
29 *323:10 *790:22 9.57945e-05
30 *453:55 *790:12 0
31 *458:195 *790:12 0
32 *611:70 *790:22 2.10465e-05
33 *611:91 *790:22 2.8322e-05
34 *638:10 *790:8 0.000360145
35 *663:10 *790:12 3.28882e-05
36 *773:38 *790:12 3.35951e-05
37 *773:38 *790:22 0.000184857
38 *776:28 *790:12 0.000211443
*RES
1 *1904:Y *790:8 17.8002 
2 *790:8 *790:12 35.5773 
3 *790:12 *790:22 42.0809 
4 *790:22 *2485:A 9.24915 
*END

*D_NET *1107 0.0313792
*CONN
*I *1292:A2 I *D sky130_fd_sc_hd__o21ai_0
*I *1291:A I *D sky130_fd_sc_hd__nand2_1
*I *1887:B I *D sky130_fd_sc_hd__nor2_1
*I *1888:A1 I *D sky130_fd_sc_hd__a31oi_1
*I *1308:A1 I *D sky130_fd_sc_hd__a31oi_1
*I *1304:A2 I *D sky130_fd_sc_hd__o21ai_0
*I *1330:B I *D sky130_fd_sc_hd__nor2_1
*I *1331:A1 I *D sky130_fd_sc_hd__a21oi_1
*I *1315:B I *D sky130_fd_sc_hd__nor2_1
*I *1316:A1 I *D sky130_fd_sc_hd__a31oi_1
*I *1355:S I *D sky130_fd_sc_hd__mux2_1
*I *1351:S I *D sky130_fd_sc_hd__mux2_1
*I *1325:B I *D sky130_fd_sc_hd__nor2_1
*I *1326:A1 I *D sky130_fd_sc_hd__a21oi_1
*I *1338:B I *D sky130_fd_sc_hd__nor2_1
*I *1339:A1 I *D sky130_fd_sc_hd__a31oi_1
*I *1311:B I *D sky130_fd_sc_hd__nor2_1
*I *1312:A1 I *D sky130_fd_sc_hd__a31oi_1
*I *1303:A I *D sky130_fd_sc_hd__nand2_1
*I *1298:A2 I *D sky130_fd_sc_hd__o21ai_0
*I *1297:A I *D sky130_fd_sc_hd__nand2_1
*I *1342:B I *D sky130_fd_sc_hd__nor2_1
*I *1343:A1 I *D sky130_fd_sc_hd__a31oi_1
*I *1891:B I *D sky130_fd_sc_hd__nor2_1
*I *1892:A1 I *D sky130_fd_sc_hd__a21oi_1
*I *1896:A1 I *D sky130_fd_sc_hd__a31oi_1
*I *1884:S I *D sky130_fd_sc_hd__mux2_1
*I *1897:A I *D sky130_fd_sc_hd__nand2_1
*I *1898:A2 I *D sky130_fd_sc_hd__o21ai_0
*I *1347:S I *D sky130_fd_sc_hd__mux2_1
*I *1895:B I *D sky130_fd_sc_hd__nor2_1
*I *1320:B I *D sky130_fd_sc_hd__nor2_1
*I *1321:A1 I *D sky130_fd_sc_hd__a21oi_1
*I *1307:B I *D sky130_fd_sc_hd__nor2_1
*I *1334:B I *D sky130_fd_sc_hd__nor2_1
*I *1335:A1 I *D sky130_fd_sc_hd__a31oi_1
*I *2489:X O *D sky130_fd_sc_hd__buf_4
*CAP
1 *1292:A2 0.000487826
2 *1291:A 6.064e-05
3 *1887:B 0
4 *1888:A1 0.000337806
5 *1308:A1 4.69256e-05
6 *1304:A2 0.000246914
7 *1330:B 3.52712e-05
8 *1331:A1 0
9 *1315:B 0.000260312
10 *1316:A1 0.000157117
11 *1355:S 0.00027516
12 *1351:S 0
13 *1325:B 8.2965e-05
14 *1326:A1 0
15 *1338:B 0
16 *1339:A1 0.000161058
17 *1311:B 1.59937e-05
18 *1312:A1 9.90796e-05
19 *1303:A 0.000319745
20 *1298:A2 1.79275e-05
21 *1297:A 0
22 *1342:B 1.63873e-05
23 *1343:A1 0
24 *1891:B 0.000168215
25 *1892:A1 4.51842e-05
26 *1896:A1 2.64699e-05
27 *1884:S 0.000167613
28 *1897:A 0
29 *1898:A2 3.62347e-05
30 *1347:S 0.000238457
31 *1895:B 4.34088e-05
32 *1320:B 8.46641e-05
33 *1321:A1 0
34 *1307:B 0
35 *1334:B 0
36 *1335:A1 8.72387e-05
37 *2489:X 0.000183049
38 *1107:416 0.000772705
39 *1107:390 0.000359086
40 *1107:359 0.000342374
41 *1107:352 0.000276611
42 *1107:326 0.000581873
43 *1107:310 0.000639527
44 *1107:292 0.000183391
45 *1107:288 0.000756048
46 *1107:280 0.000580101
47 *1107:262 0.000161058
48 *1107:260 0.000424418
49 *1107:240 0.000201107
50 *1107:238 0.000526711
51 *1107:234 0.000710407
52 *1107:204 0.000423094
53 *1107:195 0.000259913
54 *1107:184 0.000292433
55 *1107:177 0.000181051
56 *1107:171 0.000638226
57 *1107:160 0.00060663
58 *1107:149 0.000423103
59 *1107:138 0.000430966
60 *1107:107 3.62347e-05
61 *1107:94 0.000339111
62 *1107:92 0.000594739
63 *1107:81 0.000598672
64 *1107:77 0.000659348
65 *1107:64 0.000330722
66 *1107:53 0.000364167
67 *1107:49 0.000359616
68 *1107:40 0.000306505
69 *1107:34 0.000589544
70 *1107:14 0.000251409
71 *1107:10 0.000749537
72 *1107:6 0.000707286
73 *1308:A1 *2027:RESET_B 1.64789e-05
74 *1339:A1 *2075:CLK 1.03434e-05
75 *1888:A1 *2080:CLK 7.28994e-06
76 *1888:A1 *1112:153 7.87187e-05
77 *1888:A1 *1112:393 0.00021217
78 *1888:A1 *1115:16 4.70559e-05
79 *1888:A1 *1115:24 4.58907e-05
80 *1888:A1 *1137:24 4.76161e-06
81 *1891:B *1110:256 0.00027329
82 *1107:6 *2072:RESET_B 8.6198e-05
83 *1107:10 *2072:RESET_B 4.93824e-05
84 *1107:10 *1110:24 9.15727e-05
85 *1107:14 *1137:24 0
86 *1107:14 *1137:28 0
87 *1107:34 *1137:24 0
88 *1107:40 *2076:RESET_B 0.000131198
89 *1107:40 *1110:45 4.82347e-05
90 *1107:49 *2076:RESET_B 5.41227e-05
91 *1107:53 *2076:RESET_B 0.000126058
92 *1107:77 *1141:35 7.6276e-06
93 *1107:81 *1141:35 4.47179e-05
94 *1107:81 *1142:10 0.000169041
95 *1107:81 *1142:167 1.43698e-05
96 *1107:92 *2084:CLK 0.000164829
97 *1107:92 *2085:CLK 0.000608374
98 *1107:92 *1142:167 7.67734e-06
99 *1107:138 *2081:CLK 0.000145591
100 *1107:138 *1142:10 3.46262e-05
101 *1107:149 *2081:CLK 8.62661e-05
102 *1107:149 *1116:83 1.59966e-05
103 *1107:160 *2077:RESET_B 0
104 *1107:160 *1116:83 2.48716e-05
105 *1107:171 *2070:RESET_B 0
106 *1107:171 *1123:34 6.80864e-05
107 *1107:234 *2074:CLK 2.32865e-05
108 *1107:234 *1123:28 0.000119587
109 *1107:234 *1123:34 8.95833e-05
110 *1107:260 *2071:CLK 2.35336e-05
111 *1107:260 *2074:CLK 0
112 *1107:280 *1113:20 0
113 *1107:416 *2492:A 6.77963e-05
114 *1258:B *1107:14 9.34396e-06
115 *1291:B *1291:A 4.76161e-06
116 *1292:B1 *1292:A2 1.91391e-05
117 *1298:A1 *1298:A2 3.05876e-05
118 *1298:A1 *1303:A 6.78364e-06
119 *1298:A1 *1107:195 9.95922e-06
120 *1298:A1 *1107:204 9.95542e-06
121 *1304:A1 *1304:A2 1.78942e-05
122 *1306:B *1107:40 0.000191451
123 *1306:B *1107:49 1.87125e-05
124 *1306:B *1107:53 0.000408047
125 *1308:B1 *1308:A1 6.9865e-05
126 *1311:A *1107:238 0.000360313
127 *1311:A *1107:240 0.000114584
128 *1311:A *1107:352 0.000102987
129 *1312:B1 *1311:B 4.65954e-06
130 *1312:B1 *1312:A1 6.92766e-05
131 *1312:B1 *1107:240 2.99287e-05
132 *1315:A *1315:B 2.07656e-06
133 *1316:A2 *1316:A1 3.5063e-05
134 *1316:A3 *1316:A1 1.15639e-05
135 *1316:B1 *1315:B 0.000314502
136 *1316:B1 *1316:A1 0.000110596
137 *1321:B1 *1320:B 0.000263038
138 *1325:A *1107:310 0.000118116
139 *1326:A2 *1339:A1 1.9503e-05
140 *1326:B1 *1325:B 6.27332e-05
141 *1326:B1 *1107:292 8.82095e-05
142 *1326:B1 *1107:310 0.000309709
143 *1330:A *1304:A2 7.49001e-05
144 *1330:A *1330:B 1.02267e-05
145 *1331:B1 *1330:B 4.29314e-06
146 *1331:B1 *1107:352 6.46815e-05
147 *1331:B1 *1107:359 7.28567e-06
148 *1335:A3 *1335:A1 0
149 *1335:B1 *1335:A1 4.24529e-05
150 *1338:A *1107:260 5.39608e-05
151 *1338:A *1107:280 5.22654e-06
152 *1339:A3 *1339:A1 1.64789e-05
153 *1339:B1 *1339:A1 0.000110596
154 *1341:A *1107:177 3.01683e-06
155 *1341:B *1107:171 3.58457e-05
156 *1341:B *1107:234 1.32509e-05
157 *1342:A *1107:195 0.000175485
158 *1343:A2 *1107:177 7.98425e-06
159 *1343:A3 *1107:177 2.41274e-06
160 *1343:B1 *1342:B 3.01683e-06
161 *1343:B1 *1107:184 7.22498e-05
162 *1343:B1 *1107:195 3.14978e-05
163 *1351:A0 *1355:S 0.000312718
164 *1351:A0 *1107:310 4.17605e-05
165 *1351:A1 *1107:310 7.74853e-06
166 *1352:A *1107:288 8.21761e-06
167 *1352:A *1107:292 1.41976e-05
168 *1355:A0 *1355:S 4.89251e-05
169 *1671:A *1291:A 4.87301e-05
170 *1671:B *1291:A 4.04393e-05
171 *1672:B1 *1291:A 1.37189e-05
172 *1675:B *1303:A 1.7841e-05
173 *1835:A1 *1884:S 3.31882e-05
174 *1887:A *1107:14 0
175 *1887:A *1107:34 0.000211539
176 *1887:A *1107:416 0
177 *1888:B1 *1888:A1 0.000301811
178 *1888:B1 *1107:34 6.27782e-05
179 *1888:B1 *1107:40 0.000107496
180 *1892:B1 *1891:B 7.87349e-05
181 *1892:B1 *1892:A1 6.08467e-05
182 *1892:B1 *1107:160 0
183 *1897:B *1898:A2 1.63255e-05
184 *1898:A1 *1898:A2 6.46815e-05
185 *1898:B1 *1898:A2 0.000112367
186 *2044:D *1320:B 3.00829e-05
187 *2044:D *1107:77 0
188 *2044:D *1107:138 0
189 *2047:RESET_B *1291:A 0.000277621
190 *2068:D *1347:S 0.000205686
191 *2068:D *1884:S 5.99802e-05
192 *2068:D *1107:94 0.000198469
193 *2070:D *1107:184 1.41291e-05
194 *2071:D *1339:A1 6.32945e-05
195 *2072:D *1107:14 3.77659e-05
196 *2073:D *1888:A1 2.19092e-05
197 *2075:D *1107:280 0
198 *2075:D *1107:288 0.000160047
199 *2075:D *1107:310 4.85806e-05
200 *2077:D *1107:149 9.43419e-05
201 *2077:D *1107:160 8.25851e-05
202 *2079:D *1312:A1 6.27718e-05
203 *2084:D *1292:A2 2.18821e-05
204 *2489:A *1107:6 0.000217951
205 *2494:A *1888:A1 6.77815e-05
206 *175:12 *1292:A2 0.000195984
207 *175:12 *1107:416 4.29646e-05
208 *224:38 *1292:A2 0.000141928
209 *224:68 *1884:S 0.000365784
210 *224:68 *1898:A2 1.88563e-05
211 *224:68 *1107:94 7.14368e-05
212 *224:90 *1303:A 1.61631e-05
213 *224:98 *1303:A 0.000270995
214 *343:10 *1896:A1 2.65667e-05
215 *436:86 *1107:234 0
216 *436:88 *1107:160 0
217 *436:88 *1107:171 0
218 *436:94 *1107:77 0
219 *436:94 *1107:138 0
220 *436:94 *1107:149 0
221 *436:120 *1107:40 0.000271269
222 *442:16 *1335:A1 5.04829e-06
223 *506:16 *1312:A1 3.90325e-05
224 *506:16 *1330:B 4.76161e-06
225 *506:16 *1107:240 9.54357e-06
226 *506:16 *1107:352 2.17834e-05
227 *506:16 *1107:359 1.83992e-05
228 *519:12 *1308:A1 0.000158357
229 *763:33 *1308:A1 2.61012e-05
230 *772:31 *1107:81 8.4601e-05
231 *831:19 *1347:S 0.000164257
232 *840:8 *1107:14 0
233 *910:121 *1884:S 5.2558e-05
234 *1040:12 *1107:53 0.000138334
235 *1040:12 *1107:64 1.15085e-05
236 *1040:12 *1107:77 1.93511e-06
237 *1043:10 *1107:171 4.58259e-05
*RES
1 *2489:X *1107:6 14.964 
2 *1107:6 *1107:10 12.4332 
3 *1107:10 *1107:14 7.993 
4 *1107:14 *1335:A1 11.6605 
5 *1107:14 *1334:B 9.24915 
6 *1107:10 *1107:34 11.9047 
7 *1107:34 *1107:40 15.0845 
8 *1107:40 *1307:B 13.7491 
9 *1107:40 *1107:49 1.00149 
10 *1107:49 *1107:53 10.4546 
11 *1107:53 *1321:A1 13.7491 
12 *1107:53 *1107:64 1.67322 
13 *1107:64 *1320:B 17.0696 
14 *1107:64 *1107:77 3.70063 
15 *1107:77 *1107:81 11.324 
16 *1107:81 *1895:B 10.2378 
17 *1107:81 *1107:92 13.5424 
18 *1107:92 *1107:94 3.90826 
19 *1107:94 *1347:S 21.2932 
20 *1107:94 *1107:107 4.5 
21 *1107:107 *1898:A2 11.1059 
22 *1107:107 *1897:A 9.24915 
23 *1107:92 *1884:S 20.8817 
24 *1107:77 *1107:138 7.30355 
25 *1107:138 *1896:A1 14.4725 
26 *1107:138 *1107:149 4.32351 
27 *1107:149 *1892:A1 14.4725 
28 *1107:149 *1107:160 5.98452 
29 *1107:160 *1891:B 19.464 
30 *1107:160 *1107:171 5.98452 
31 *1107:171 *1107:177 6.35672 
32 *1107:177 *1343:A1 9.24915 
33 *1107:177 *1107:184 2.94181 
34 *1107:184 *1342:B 9.82786 
35 *1107:184 *1107:195 5.18434 
36 *1107:195 *1297:A 9.24915 
37 *1107:195 *1107:204 2.41132 
38 *1107:204 *1298:A2 10.7442 
39 *1107:204 *1303:A 24.5715 
40 *1107:171 *1107:234 14.2218 
41 *1107:234 *1107:238 4.62973 
42 *1107:238 *1107:240 2.38721 
43 *1107:240 *1312:A1 12.625 
44 *1107:240 *1311:B 9.82786 
45 *1107:238 *1107:260 11.7303 
46 *1107:260 *1107:262 4.5 
47 *1107:262 *1339:A1 14.3129 
48 *1107:262 *1338:B 9.24915 
49 *1107:260 *1107:280 2.6625 
50 *1107:280 *1107:288 10.4077 
51 *1107:288 *1107:292 3.23117 
52 *1107:292 *1326:A1 9.24915 
53 *1107:292 *1325:B 11.6605 
54 *1107:288 *1107:310 10.1758 
55 *1107:310 *1351:S 9.24915 
56 *1107:310 *1355:S 16.6278 
57 *1107:280 *1107:326 8.40826 
58 *1107:326 *1316:A1 13.7342 
59 *1107:326 *1315:B 16.8207 
60 *1107:234 *1107:352 4.79853 
61 *1107:352 *1331:A1 9.24915 
62 *1107:352 *1107:359 1.8326 
63 *1107:359 *1330:B 10.5513 
64 *1107:359 *1304:A2 15.5427 
65 *1107:49 *1308:A1 16.1605 
66 *1107:34 *1107:390 0.578717 
67 *1107:390 *1888:A1 30.2836 
68 *1107:390 *1887:B 9.24915 
69 *1107:6 *1107:416 10.4845 
70 *1107:416 *1291:A 17.2697 
71 *1107:416 *1292:A2 25.8076 
*END

*D_NET *1109 0.0488587
*CONN
*I *1476:A2 I *D sky130_fd_sc_hd__o21ai_0
*I *1420:A I *D sky130_fd_sc_hd__nand2_1
*I *1423:A I *D sky130_fd_sc_hd__nand2_1
*I *1861:A I *D sky130_fd_sc_hd__nand2_1
*I *1474:A2 I *D sky130_fd_sc_hd__o21ai_0
*I *1473:A I *D sky130_fd_sc_hd__nand2_1
*I *1475:A I *D sky130_fd_sc_hd__nand2_1
*I *1462:A I *D sky130_fd_sc_hd__nand2_1
*I *1463:A2 I *D sky130_fd_sc_hd__o21ai_0
*I *1459:A I *D sky130_fd_sc_hd__nand2_1
*I *1460:A2 I *D sky130_fd_sc_hd__o21ai_0
*I *1441:A I *D sky130_fd_sc_hd__nand2_1
*I *1409:A I *D sky130_fd_sc_hd__inv_4
*I *1458:A2 I *D sky130_fd_sc_hd__o21ai_0
*I *1457:A I *D sky130_fd_sc_hd__nand2_1
*I *1448:A I *D sky130_fd_sc_hd__nand2_1
*I *1449:A2 I *D sky130_fd_sc_hd__o21ai_0
*I *1426:A I *D sky130_fd_sc_hd__nand2_1
*I *1438:A I *D sky130_fd_sc_hd__nand2_1
*I *1429:A I *D sky130_fd_sc_hd__nand2_1
*I *1432:A I *D sky130_fd_sc_hd__nand2_1
*I *1435:A I *D sky130_fd_sc_hd__nand2_1
*I *1466:A I *D sky130_fd_sc_hd__nand2_1
*I *1467:A2 I *D sky130_fd_sc_hd__o21ai_0
*I *1454:A2 I *D sky130_fd_sc_hd__o21ai_0
*I *1453:A I *D sky130_fd_sc_hd__nand2_1
*I *1447:A2 I *D sky130_fd_sc_hd__o21ai_0
*I *1451:A2 I *D sky130_fd_sc_hd__o21ai_0
*I *1450:A I *D sky130_fd_sc_hd__nand2_1
*I *1468:A I *D sky130_fd_sc_hd__nand2_1
*I *1469:A2 I *D sky130_fd_sc_hd__o21ai_0
*I *1445:A2 I *D sky130_fd_sc_hd__o21ai_0
*I *1444:A I *D sky130_fd_sc_hd__nand2_1
*I *1446:A I *D sky130_fd_sc_hd__nand2_1
*I *1456:A2 I *D sky130_fd_sc_hd__o21ai_0
*I *1455:A I *D sky130_fd_sc_hd__nand2_1
*I *1464:A I *D sky130_fd_sc_hd__nand2_1
*I *1465:A2 I *D sky130_fd_sc_hd__o21ai_0
*I *1471:A I *D sky130_fd_sc_hd__nand2_1
*I *1417:A I *D sky130_fd_sc_hd__nand2_1
*I *1418:A2 I *D sky130_fd_sc_hd__o21ai_0
*I *1412:A I *D sky130_fd_sc_hd__nand2_1
*I *1415:A I *D sky130_fd_sc_hd__nand2_1
*I *2491:X O *D sky130_fd_sc_hd__buf_4
*CAP
1 *1476:A2 0
2 *1420:A 0.000510568
3 *1423:A 0
4 *1861:A 0.00059463
5 *1474:A2 0
6 *1473:A 0
7 *1475:A 0
8 *1462:A 0.000124038
9 *1463:A2 0
10 *1459:A 0.000143319
11 *1460:A2 0
12 *1441:A 1.90687e-05
13 *1409:A 2.12792e-05
14 *1458:A2 8.11801e-05
15 *1457:A 4.98286e-05
16 *1448:A 4.48106e-05
17 *1449:A2 0
18 *1426:A 0
19 *1438:A 6.14547e-05
20 *1429:A 0
21 *1432:A 0
22 *1435:A 0.000487474
23 *1466:A 1.69877e-05
24 *1467:A2 0
25 *1454:A2 1.93283e-05
26 *1453:A 0
27 *1447:A2 0
28 *1451:A2 3.60004e-05
29 *1450:A 0.000153285
30 *1468:A 6.51357e-06
31 *1469:A2 0.000148852
32 *1445:A2 0
33 *1444:A 1.67509e-05
34 *1446:A 0
35 *1456:A2 0
36 *1455:A 5.82604e-05
37 *1464:A 1.31016e-05
38 *1465:A2 0
39 *1471:A 9.36721e-06
40 *1417:A 0
41 *1418:A2 9.88911e-05
42 *1412:A 3.0578e-05
43 *1415:A 0.000283958
44 *2491:X 0.000331479
45 *1109:497 0.00104911
46 *1109:486 0.00100268
47 *1109:479 0.000188422
48 *1109:466 0.00040782
49 *1109:442 0.00021539
50 *1109:422 0.000862396
51 *1109:403 0.000850164
52 *1109:376 0.000518012
53 *1109:356 0.000259164
54 *1109:350 0.000817441
55 *1109:348 0.000414993
56 *1109:346 0.000613857
57 *1109:335 0.000591925
58 *1109:322 0.00084509
59 *1109:295 0.0010464
60 *1109:289 0.000795592
61 *1109:283 0.000782161
62 *1109:272 0.000167003
63 *1109:263 0.000363472
64 *1109:250 0.000616064
65 *1109:212 0.000495505
66 *1109:194 0.000155366
67 *1109:192 0.000778364
68 *1109:178 2.99812e-05
69 *1109:174 0.000865826
70 *1109:161 0.000409676
71 *1109:159 0.000308293
72 *1109:153 0.00027907
73 *1109:151 0.000876707
74 *1109:147 0.00104892
75 *1109:123 7.01156e-05
76 *1109:119 0.000719271
77 *1109:108 0.000403408
78 *1109:97 0.00051346
79 *1109:78 0.000787194
80 *1109:58 0.00046849
81 *1109:48 0.00152961
82 *1109:46 0.00111505
83 *1109:42 0.00051551
84 *1109:16 0.00117518
85 *1109:10 0.0016278
86 *1420:A *1984:RESET_B 0
87 *1420:A *1985:RESET_B 0
88 *1420:A *1110:180 0
89 *1435:A *1110:136 0
90 *1458:A2 *1349:A 1.77537e-06
91 *1458:A2 *1119:10 0
92 *1459:A *1353:A 0
93 *1464:A *1110:352 6.50727e-05
94 *1468:A *2196:A 6.50727e-05
95 *1469:A2 *2196:A 2.89547e-05
96 *1109:48 *2033:RESET_B 0.000205903
97 *1109:97 *1114:24 0.00036413
98 *1109:108 *1110:364 4.13313e-05
99 *1109:108 *1112:68 0
100 *1109:108 *1114:24 6.27718e-05
101 *1109:119 *2496:A 0
102 *1109:119 *1110:352 0
103 *1109:119 *1174:16 9.14201e-05
104 *1109:147 *1174:16 3.97119e-05
105 *1109:151 *1997:CLK 0.000175689
106 *1109:159 *1994:CLK 3.75603e-05
107 *1109:159 *1174:16 4.80635e-06
108 *1109:161 *1174:16 1.61631e-05
109 *1109:174 *1118:14 0.000154038
110 *1109:174 *1174:16 6.69883e-05
111 *1109:192 *2197:A 0
112 *1109:192 *2202:A 0
113 *1109:192 *1118:45 0
114 *1109:192 *1118:60 0
115 *1109:212 *1995:CLK 7.95068e-05
116 *1109:212 *1118:60 0
117 *1109:263 *2499:A 1.5714e-05
118 *1109:289 *1296:A1 0.000351385
119 *1109:295 *2003:RESET_B 0
120 *1109:295 *1110:136 0
121 *1109:295 *1112:190 0
122 *1109:295 *1112:203 0
123 *1109:335 *2000:CLK 0
124 *1109:346 *2000:CLK 0
125 *1109:376 *1349:A 5.77061e-05
126 *1109:376 *1119:12 0
127 *1109:422 *1313:A 0.000172696
128 *1109:422 *1353:A 0
129 *1109:422 *1991:CLK 8.70662e-06
130 *1109:422 *1112:299 0
131 *1109:479 *1112:31 0.00026225
132 *1246:A *1109:497 2.85677e-05
133 *1249:A *1861:A 0.000127179
134 *1252:A1 *1861:A 0
135 *1253:A *1861:A 0
136 *1253:C *1861:A 0
137 *1255:A *1109:78 8.62625e-06
138 *1255:A *1109:97 0.000146825
139 *1275:A *1109:78 0
140 *1277:A2 *1109:48 5.76849e-05
141 *1277:B1 *1109:48 6.08467e-05
142 *1280:A *1415:A 9.06263e-05
143 *1283:A1 *1109:42 0.000216109
144 *1283:B1 *1109:42 7.07115e-06
145 *1296:A2 *1109:272 0
146 *1296:B1 *1109:283 0
147 *1296:B1 *1109:322 0
148 *1314:A *1109:422 2.16355e-05
149 *1316:A2 *1109:422 0.000160478
150 *1316:A3 *1109:422 7.67734e-06
151 *1317:A *1109:151 2.61857e-05
152 *1317:A *1109:159 0.000194941
153 *1319:B1 *1109:151 0
154 *1319:B1 *1109:159 6.08467e-05
155 *1322:A *1109:350 0.000243096
156 *1322:A *1109:356 8.6781e-05
157 *1324:A2 *1109:356 6.94382e-05
158 *1344:A *1109:151 0.00013832
159 *1344:A *1109:442 1.43698e-05
160 *1345:B *1109:147 0
161 *1349:B *1457:A 0.000318385
162 *1350:A2 *1458:A2 0.000157495
163 *1350:A2 *1109:376 0.000191541
164 *1353:B *1459:A 4.0752e-05
165 *1381:A1 *1109:58 7.11193e-06
166 *1381:A2 *1109:78 0
167 *1382:A1 *1420:A 0.000114584
168 *1386:S *1435:A 0.000558534
169 *1389:A1 *1109:346 2.86829e-05
170 *1391:S *1109:192 0
171 *1394:A0 *1454:A2 7.16016e-06
172 *1394:A0 *1109:263 1.31206e-05
173 *1395:A0 *1109:147 4.25952e-05
174 *1397:A0 *1459:A 5.04829e-06
175 *1399:A0 *1109:119 2.28997e-05
176 *1401:S *1109:212 5.23435e-05
177 *1403:A1 *1471:A 6.50586e-05
178 *1406:B *1109:42 0.000152945
179 *1412:B *1412:A 1.64026e-05
180 *1412:B *1415:A 0.000255277
181 *1418:A1 *1418:A2 0.000289325
182 *1418:A1 *1109:58 2.93674e-05
183 *1418:A1 *1109:78 6.93171e-05
184 *1418:B1 *1418:A2 0.000109421
185 *1421:A *1420:A 1.59362e-06
186 *1421:B *1420:A 0.000114584
187 *1423:B *1109:497 1.8733e-05
188 *1424:B *1109:497 3.05464e-05
189 *1429:B *1109:295 1.07248e-05
190 *1430:B *1109:289 9.7422e-05
191 *1432:B *1435:A 8.04608e-05
192 *1433:B *1109:295 5.26306e-05
193 *1436:B *1435:A 0.000109421
194 *1438:B *1438:A 6.27718e-05
195 *1439:B *1438:A 4.17531e-06
196 *1440:B *1109:422 0.000209636
197 *1441:B *1109:348 6.08467e-05
198 *1441:B *1109:403 0.000251866
199 *1442:A *1109:422 0.000132746
200 *1442:B *1441:A 1.02267e-05
201 *1442:B *1109:403 3.00829e-05
202 *1442:B *1109:422 1.4106e-05
203 *1445:A1 *1444:A 3.93092e-05
204 *1445:A1 *1109:178 2.58616e-05
205 *1445:B1 *1444:A 0.000114271
206 *1445:B1 *1109:178 4.76794e-05
207 *1446:B *1109:174 0.000219479
208 *1447:A1 *1109:159 0.000142037
209 *1447:A1 *1109:161 6.50586e-05
210 *1447:A1 *1109:174 7.32658e-06
211 *1447:B1 *1109:161 1.67988e-05
212 *1447:B1 *1109:174 6.78596e-05
213 *1449:A1 *1109:356 3.13443e-07
214 *1449:B1 *1448:A 9.34905e-05
215 *1449:B1 *1109:356 0.000109421
216 *1451:A1 *1450:A 7.71723e-05
217 *1451:B1 *1450:A 1.98846e-05
218 *1453:B *1109:151 5.22654e-06
219 *1453:B *1109:250 0.000145755
220 *1454:A1 *1454:A2 9.95922e-06
221 *1454:A1 *1109:250 3.00829e-05
222 *1454:A1 *1109:263 0.000182095
223 *1454:B1 *1109:159 9.18559e-06
224 *1454:B1 *1109:250 0
225 *1454:B1 *1109:263 1.74385e-05
226 *1456:A1 *1455:A 4.06993e-05
227 *1456:A1 *1109:123 6.50586e-05
228 *1456:B1 *1455:A 0.000116528
229 *1456:B1 *1109:123 1.92172e-05
230 *1458:B1 *1457:A 0.000136559
231 *1458:B1 *1458:A2 4.86366e-05
232 *1460:B1 *1459:A 5.04734e-05
233 *1460:B1 *1109:422 5.22654e-06
234 *1461:A *1420:A 0
235 *1463:A1 *1462:A 6.9116e-05
236 *1463:A1 *1109:147 3.13805e-06
237 *1463:A1 *1109:442 3.00829e-05
238 *1463:B1 *1462:A 6.2835e-05
239 *1465:A1 *1109:97 2.58757e-05
240 *1465:A1 *1109:108 2.30636e-05
241 *1465:B1 *1109:108 0.000114659
242 *1466:B *1109:272 3.67528e-06
243 *1466:B *1109:283 1.78514e-05
244 *1466:B *1109:322 3.0079e-05
245 *1467:B1 *1466:A 2.65667e-05
246 *1467:B1 *1109:263 1.41215e-05
247 *1467:B1 *1109:272 4.5539e-05
248 *1467:B1 *1109:289 1.37563e-05
249 *1468:B *1109:192 1.07248e-05
250 *1468:B *1109:212 0.000130611
251 *1469:A1 *1469:A2 6.50586e-05
252 *1469:B1 *1469:A2 0.000572471
253 *1472:B *1471:A 6.50586e-05
254 *1473:B *1109:479 9.75548e-05
255 *1473:B *1109:486 2.16355e-05
256 *1474:A1 *1109:479 0.000113237
257 *1474:A1 *1109:486 6.27782e-05
258 *1474:A1 *1109:497 2.91008e-06
259 *1474:B1 *1109:486 1.27122e-05
260 *1474:B1 *1109:497 2.20471e-05
261 *1476:A1 *1109:42 5.02455e-05
262 *1476:A1 *1109:46 8.7133e-05
263 *1476:A1 *1109:466 0.000300565
264 *1476:A1 *1109:479 0.000138511
265 *1834:B1 *1109:295 0
266 *1864:A1 *1861:A 1.03434e-05
267 *1865:B *1861:A 0.000522271
268 *1984:D *1109:42 0.0001221
269 *1984:D *1109:46 6.37652e-06
270 *1985:D *1420:A 3.1218e-05
271 *1989:D *1109:78 0
272 *1989:D *1109:97 7.92757e-06
273 *1989:CLK *1109:78 4.47713e-05
274 *1990:D *1420:A 0
275 *1991:D *1109:422 0.000143905
276 *1993:D *1109:147 9.40857e-05
277 *1994:D *1109:250 1.41976e-05
278 *1994:D *1109:263 9.626e-05
279 *1996:D *1109:356 1.03403e-05
280 *1997:D *1109:159 0.00011818
281 *1997:D *1109:161 1.65872e-05
282 *1998:D *1109:174 7.0379e-05
283 *1999:RESET_B *1109:422 2.67222e-05
284 *2002:D *1109:295 3.56264e-05
285 *2003:D *1109:295 0
286 *2008:CLK *1109:16 0.000397883
287 *2013:RESET_B *1451:A2 4.39919e-05
288 *2013:RESET_B *1109:212 9.78191e-05
289 *2016:D *1109:151 7.54446e-05
290 *2033:CLK *1418:A2 3.22559e-05
291 *2033:CLK *1109:58 0.000175139
292 *2057:D *1861:A 0.000307836
293 *431:12 *1109:497 0.000382168
294 *434:10 *1861:A 0
295 *438:12 *1861:A 0
296 *462:16 *1109:42 5.1674e-06
297 *462:16 *1109:46 5.04829e-06
298 *462:16 *1109:48 1.30118e-05
299 *480:8 *1109:289 7.6174e-05
300 *480:8 *1109:295 6.50727e-05
301 *496:8 *1109:159 6.07463e-05
302 *500:14 *1109:356 4.39463e-06
303 *506:16 *1438:A 0.000165902
304 *517:12 *1109:151 3.69148e-05
305 *548:6 *1109:348 4.78464e-05
306 *548:6 *1109:350 2.41274e-06
307 *548:6 *1109:403 9.67912e-06
308 *548:6 *1109:422 1.77588e-05
309 *548:65 *1109:42 0
310 *667:14 *1415:A 0
311 *673:8 *1109:78 3.1218e-05
312 *673:8 *1109:97 9.1013e-05
313 *679:10 *1444:A 1.4106e-05
314 *683:22 *1109:174 3.79563e-05
315 *684:20 *1109:348 0.000206696
316 *686:16 *1464:A 2.58757e-05
317 *689:8 *1466:A 1.19721e-05
318 *689:8 *1109:289 0.00120121
319 *690:14 *1469:A2 1.00981e-05
320 *691:16 *1420:A 3.54718e-05
321 *712:22 *1109:479 8.03393e-06
322 *850:16 *1459:A 0.000113968
323 *850:20 *1459:A 3.90689e-06
324 *850:20 *1109:422 1.00691e-05
325 *1042:10 *1109:16 3.01368e-06
326 *1047:8 *1109:10 0.000279823
327 *1047:8 *1109:42 0.000217121
328 *1056:12 *1109:322 0
329 *1057:10 *1109:108 7.33779e-05
330 *1057:10 *1109:119 4.64787e-05
331 *1059:10 *1459:A 7.09395e-05
332 *1067:12 *1109:174 0.000117421
333 *1104:44 *1415:A 4.58259e-05
334 *1104:55 *1415:A 1.77537e-06
335 *1104:55 *1109:58 1.98698e-05
336 *1104:59 *1109:78 0
337 *1104:121 *1109:10 7.04866e-05
338 *1104:121 *1109:42 0.000127659
339 *1104:123 *1109:42 6.77948e-06
340 *1104:145 *1861:A 0.000113178
341 *1104:189 *1420:A 4.92827e-05
342 *1104:189 *1109:479 9.93876e-06
343 *1104:193 *1420:A 0
344 *1104:270 *1109:147 7.20028e-05
345 *1104:270 *1109:151 0
346 *1104:278 *1109:263 0
347 *1104:278 *1109:272 0
348 *1104:284 *1109:322 0.000113585
349 *1104:296 *1109:192 0
350 *1104:344 *1109:322 0.000136675
351 *1104:344 *1109:335 8.62625e-06
352 *1104:350 *1109:335 0
353 *1104:350 *1109:346 0
354 *1104:361 *1109:346 0
*RES
1 *2491:X *1109:10 22.9542 
2 *1109:10 *1109:16 18.558 
3 *1109:16 *1415:A 26.2084 
4 *1109:16 *1412:A 10.2378 
5 *1109:10 *1109:42 19.6509 
6 *1109:42 *1109:46 2.54394 
7 *1109:46 *1109:48 11.8155 
8 *1109:48 *1109:58 15.3305 
9 *1109:58 *1418:A2 13.7583 
10 *1109:58 *1417:A 9.24915 
11 *1109:48 *1109:78 13.3913 
12 *1109:78 *1471:A 14.4725 
13 *1109:78 *1109:97 16.6851 
14 *1109:97 *1465:A2 9.24915 
15 *1109:97 *1109:108 8.7164 
16 *1109:108 *1464:A 14.4725 
17 *1109:108 *1109:119 6.81502 
18 *1109:119 *1109:123 5.2234 
19 *1109:123 *1455:A 11.6846 
20 *1109:123 *1456:A2 9.24915 
21 *1109:119 *1109:147 15.9504 
22 *1109:147 *1109:151 17.9591 
23 *1109:151 *1109:153 4.5 
24 *1109:153 *1109:159 8.53607 
25 *1109:159 *1109:161 1.278 
26 *1109:161 *1446:A 9.24915 
27 *1109:161 *1109:174 16.6387 
28 *1109:174 *1109:178 5.2234 
29 *1109:178 *1444:A 10.5271 
30 *1109:178 *1445:A2 9.24915 
31 *1109:174 *1109:192 10.5523 
32 *1109:192 *1109:194 4.5 
33 *1109:194 *1469:A2 16.0973 
34 *1109:194 *1468:A 9.97254 
35 *1109:192 *1109:212 8.89128 
36 *1109:212 *1450:A 16.5704 
37 *1109:212 *1451:A2 14.7506 
38 *1109:159 *1447:A2 9.24915 
39 *1109:153 *1453:A 9.24915 
40 *1109:151 *1109:250 13.4796 
41 *1109:250 *1454:A2 9.82786 
42 *1109:250 *1109:263 11.2107 
43 *1109:263 *1467:A2 13.7491 
44 *1109:263 *1109:272 3.07775 
45 *1109:272 *1466:A 14.4725 
46 *1109:272 *1109:283 1.00149 
47 *1109:283 *1109:289 19.5225 
48 *1109:289 *1109:295 18.6825 
49 *1109:295 *1435:A 28.4862 
50 *1109:295 *1432:A 13.7491 
51 *1109:289 *1429:A 9.24915 
52 *1109:283 *1109:322 13.7766 
53 *1109:322 *1438:A 16.1605 
54 *1109:322 *1109:335 6.39977 
55 *1109:335 *1426:A 13.7491 
56 *1109:335 *1109:346 11.7303 
57 *1109:346 *1109:348 5.16022 
58 *1109:348 *1109:350 5.71483 
59 *1109:350 *1109:356 6.46234 
60 *1109:356 *1449:A2 9.24915 
61 *1109:356 *1448:A 10.8888 
62 *1109:350 *1109:376 14.637 
63 *1109:376 *1457:A 17.2456 
64 *1109:376 *1458:A2 16.8269 
65 *1109:348 *1409:A 9.82786 
66 *1109:346 *1109:403 4.05102 
67 *1109:403 *1441:A 9.82786 
68 *1109:403 *1109:422 24.1977 
69 *1109:422 *1460:A2 13.7491 
70 *1109:422 *1459:A 18.5201 
71 *1109:147 *1109:442 2.38721 
72 *1109:442 *1463:A2 9.24915 
73 *1109:442 *1462:A 13.686 
74 *1109:46 *1109:466 5.03966 
75 *1109:466 *1475:A 9.24915 
76 *1109:466 *1109:479 15.5742 
77 *1109:479 *1473:A 9.24915 
78 *1109:479 *1109:486 1.278 
79 *1109:486 *1474:A2 9.24915 
80 *1109:486 *1109:497 12.4183 
81 *1109:497 *1861:A 36.0511 
82 *1109:497 *1423:A 9.24915 
83 *1109:486 *1420:A 30.9832 
84 *1109:42 *1476:A2 9.24915 
*END

*D_NET *1104 0.0523515
*CONN
*I *1407:A2 I *D sky130_fd_sc_hd__o21ai_0
*I *1406:A I *D sky130_fd_sc_hd__nand2_1
*I *1383:S I *D sky130_fd_sc_hd__mux2_1
*I *1386:S I *D sky130_fd_sc_hd__mux2_1
*I *1387:S I *D sky130_fd_sc_hd__mux2_1
*I *1398:S I *D sky130_fd_sc_hd__mux2_1
*I *1394:S I *D sky130_fd_sc_hd__mux2_1
*I *1385:S I *D sky130_fd_sc_hd__mux2_1
*I *1400:S I *D sky130_fd_sc_hd__mux2_1
*I *1388:S I *D sky130_fd_sc_hd__mux2_1
*I *1389:S I *D sky130_fd_sc_hd__mux2_1
*I *1397:S I *D sky130_fd_sc_hd__mux2_1
*I *1396:S I *D sky130_fd_sc_hd__mux2_1
*I *1392:S I *D sky130_fd_sc_hd__mux2_1
*I *1384:S I *D sky130_fd_sc_hd__mux2_1
*I *1401:S I *D sky130_fd_sc_hd__mux2_1
*I *1393:S I *D sky130_fd_sc_hd__mux2_1
*I *1390:S I *D sky130_fd_sc_hd__mux2_1
*I *1391:S I *D sky130_fd_sc_hd__mux2_1
*I *1395:S I *D sky130_fd_sc_hd__mux2_1
*I *1399:S I *D sky130_fd_sc_hd__mux2_1
*I *1382:S I *D sky130_fd_sc_hd__mux2_1
*I *1404:A I *D sky130_fd_sc_hd__nand2_1
*I *1405:A2 I *D sky130_fd_sc_hd__o21ai_0
*I *1864:A2 I *D sky130_fd_sc_hd__o21ai_0
*I *1863:A I *D sky130_fd_sc_hd__nand2_1
*I *1869:B I *D sky130_fd_sc_hd__nor2_1
*I *1378:A I *D sky130_fd_sc_hd__nand2_1
*I *1381:A2 I *D sky130_fd_sc_hd__o21ai_0
*I *1380:A I *D sky130_fd_sc_hd__nand2_1
*I *1402:A I *D sky130_fd_sc_hd__nand2_1
*I *1403:A2 I *D sky130_fd_sc_hd__o21ai_0
*I *1379:A2 I *D sky130_fd_sc_hd__o21ai_0
*I *1376:A I *D sky130_fd_sc_hd__nand2_1
*I *1377:A2 I *D sky130_fd_sc_hd__o21ai_0
*I *2486:X O *D sky130_fd_sc_hd__buf_4
*CAP
1 *1407:A2 0.000103649
2 *1406:A 5.54397e-05
3 *1383:S 0.00016877
4 *1386:S 0.000405257
5 *1387:S 0
6 *1398:S 0
7 *1394:S 0
8 *1385:S 0.000567157
9 *1400:S 0
10 *1388:S 0
11 *1389:S 0
12 *1397:S 0.000387924
13 *1396:S 0.000106681
14 *1392:S 0.000409614
15 *1384:S 0
16 *1401:S 3.48229e-05
17 *1393:S 0.000339121
18 *1390:S 0
19 *1391:S 0.000183131
20 *1395:S 7.71439e-05
21 *1399:S 0.000148282
22 *1382:S 0
23 *1404:A 0
24 *1405:A2 0
25 *1864:A2 0
26 *1863:A 0.000174993
27 *1869:B 1.97721e-05
28 *1378:A 0
29 *1381:A2 0.000166019
30 *1380:A 0
31 *1402:A 0.00014507
32 *1403:A2 0
33 *1379:A2 5.84131e-05
34 *1376:A 0.000186537
35 *1377:A2 0.000156094
36 *2486:X 0
37 *1104:442 0.000677163
38 *1104:389 0.000513197
39 *1104:365 0.00114457
40 *1104:361 0.00123415
41 *1104:350 0.000790588
42 *1104:344 0.00052765
43 *1104:296 0.000818048
44 *1104:292 0.001182
45 *1104:288 0.00124497
46 *1104:284 0.00137168
47 *1104:280 0.000172464
48 *1104:278 0.00111902
49 *1104:270 0.00167518
50 *1104:249 0.00145119
51 *1104:230 0.00101865
52 *1104:214 0.000742129
53 *1104:212 0.00102383
54 *1104:193 0.000804543
55 *1104:189 0.000675196
56 *1104:172 0.000562761
57 *1104:145 0.00104387
58 *1104:131 0.000899044
59 *1104:129 0.000607688
60 *1104:123 0.000458098
61 *1104:121 0.000783724
62 *1104:79 0.000201217
63 *1104:59 0.000438874
64 *1104:55 0.000757827
65 *1104:44 0.000571105
66 *1104:40 0.00032249
67 *1104:25 0.000524009
68 *1104:14 0.000635163
69 *1104:8 0.00083727
70 *1104:4 0.00108141
71 *1381:A2 *1109:78 0
72 *1383:S *1985:CLK 1.03403e-05
73 *1385:S *1340:A 6.20449e-05
74 *1385:S *1112:222 0.000212208
75 *1385:S *1112:243 2.39581e-05
76 *1386:S *1435:A 0.000558534
77 *1386:S *2497:A 7.13655e-06
78 *1391:S *2500:A 1.5555e-05
79 *1391:S *1109:192 0
80 *1393:S *1995:CLK 0.000140648
81 *1395:S *1993:CLK 7.58194e-05
82 *1397:S *1120:10 0
83 *1399:S *2198:A 6.64392e-05
84 *1399:S *1174:16 0.000114495
85 *1401:S *1109:212 5.23435e-05
86 *1863:A *1865:B 3.25554e-05
87 *1863:A *1105:43 0.000114594
88 *1104:14 *2034:RESET_B 3.67528e-06
89 *1104:14 *2528:A 7.95338e-05
90 *1104:44 *1415:A 4.58259e-05
91 *1104:55 *1415:A 1.77537e-06
92 *1104:55 *1109:58 1.98698e-05
93 *1104:59 *2012:CLK 0
94 *1104:59 *2212:A 0
95 *1104:59 *1108:53 0
96 *1104:59 *1109:78 0
97 *1104:121 *2011:CLK 0
98 *1104:121 *1109:10 7.04866e-05
99 *1104:121 *1109:42 0.000127659
100 *1104:121 *1139:81 0
101 *1104:123 *1109:42 6.77948e-06
102 *1104:145 *1861:A 0.000113178
103 *1104:145 *2011:RESET_B 0.000216313
104 *1104:145 *1110:530 1.49011e-05
105 *1104:189 *1420:A 4.92827e-05
106 *1104:189 *1985:CLK 8.09995e-05
107 *1104:189 *2005:CLK 0
108 *1104:189 *1109:479 9.93876e-06
109 *1104:193 *1420:A 0
110 *1104:193 *1985:RESET_B 5.04734e-05
111 *1104:193 *2005:CLK 8.16827e-05
112 *1104:193 *1110:180 4.09612e-05
113 *1104:193 *1115:30 0.000214577
114 *1104:193 *1115:32 8.89094e-05
115 *1104:212 *1112:157 8.8463e-05
116 *1104:212 *1115:30 1.03594e-05
117 *1104:230 *1346:A1 0.00011818
118 *1104:249 *1174:16 0.000263677
119 *1104:270 *1109:147 7.20028e-05
120 *1104:270 *1109:151 0
121 *1104:270 *1110:344 1.06049e-05
122 *1104:270 *1110:346 5.1674e-06
123 *1104:270 *1118:14 0
124 *1104:278 *1109:263 0
125 *1104:278 *1109:272 0
126 *1104:284 *1109:322 0.000113585
127 *1104:288 *2014:CLK 0.000503244
128 *1104:288 *1118:62 0.000397616
129 *1104:292 *2013:CLK 0.00016195
130 *1104:292 *1118:62 0.000157107
131 *1104:296 *2197:A 4.47442e-05
132 *1104:296 *2213:A 0
133 *1104:296 *2500:A 7.83471e-05
134 *1104:296 *1109:192 0
135 *1104:344 *1109:322 0.000136675
136 *1104:344 *1109:335 8.62625e-06
137 *1104:350 *1109:335 0
138 *1104:350 *1109:346 0
139 *1104:361 *1109:346 0
140 *1104:365 *1112:313 0.000223975
141 *1104:389 *1112:313 0.000110583
142 *1247:A *1104:172 1.92656e-05
143 *1247:A *1104:189 3.44412e-06
144 *1280:A *1104:14 0.00015985
145 *1280:A *1104:25 0.000156476
146 *1280:A *1104:40 0.000202415
147 *1282:B *1104:129 0.000420294
148 *1282:B *1104:131 4.60221e-06
149 *1282:B *1104:172 1.27831e-06
150 *1282:D *1104:55 0
151 *1296:B1 *1385:S 6.50586e-05
152 *1300:A *1104:278 5.04734e-05
153 *1319:A1 *1104:270 9.60479e-05
154 *1319:A2 *1104:270 9.60201e-05
155 *1329:A2 *1104:350 0
156 *1329:B1 *1104:350 0
157 *1345:B *1104:230 2.61696e-05
158 *1346:B1 *1104:230 0.000306147
159 *1350:A2 *1104:365 0.000260374
160 *1350:B1 *1104:365 6.50727e-05
161 *1372:A *1104:8 3.21692e-05
162 *1374:A *1104:8 3.8519e-05
163 *1377:A1 *1377:A2 0.00019096
164 *1379:A1 *1379:A2 0.000205006
165 *1380:B *1104:55 0.000166572
166 *1381:A1 *1381:A2 1.87252e-05
167 *1381:A1 *1104:55 0
168 *1381:B1 *1381:A2 0.00016195
169 *1382:A0 *1104:212 0.0001195
170 *1383:A0 *1383:S 0.000117376
171 *1383:A1 *1383:S 9.95542e-06
172 *1384:A0 *1104:350 7.56859e-06
173 *1385:A0 *1385:S 2.41483e-05
174 *1385:A1 *1385:S 0.000171288
175 *1387:A0 *1386:S 6.50586e-05
176 *1387:A0 *1104:442 3.58208e-05
177 *1388:A0 *1104:344 1.63652e-05
178 *1389:A1 *1397:S 5.22654e-06
179 *1389:A1 *1104:361 0.000114536
180 *1390:A0 *1391:S 0.0001195
181 *1391:A0 *1391:S 1.88563e-05
182 *1392:A0 *1392:S 9.81288e-06
183 *1393:A1 *1393:S 3.58321e-05
184 *1394:A0 *1104:270 1.88422e-05
185 *1394:A1 *1104:270 6.27782e-05
186 *1395:A0 *1104:270 5.91681e-06
187 *1395:A1 *1104:249 0
188 *1398:A0 *1104:214 0.000322673
189 *1398:A0 *1104:230 0.000120962
190 *1398:A0 *1104:442 6.22868e-05
191 *1400:A0 *1385:S 0.00021233
192 *1400:A0 *1104:278 2.15348e-05
193 *1403:A1 *1402:A 4.93115e-05
194 *1403:B1 *1402:A 0.000115934
195 *1405:A1 *1104:129 8.93503e-05
196 *1405:A1 *1104:145 2.02035e-05
197 *1405:B1 *1104:131 3.63593e-05
198 *1405:B1 *1104:145 9.12416e-06
199 *1405:B1 *1104:172 0.000274309
200 *1406:B *1406:A 1.3023e-05
201 *1406:B *1104:123 2.37478e-05
202 *1407:A1 *1406:A 2.82171e-06
203 *1407:A1 *1407:A2 2.9959e-05
204 *1407:A1 *1104:123 5.39635e-06
205 *1407:B1 *1406:A 2.93744e-05
206 *1408:B *1104:8 0.000158931
207 *1408:B *1104:121 7.60324e-05
208 *1412:B *1104:40 0.000304859
209 *1413:B *1104:40 5.79027e-06
210 *1415:B *1379:A2 4.97617e-05
211 *1419:B *1104:442 4.89898e-06
212 *1421:A *1104:212 0.000184946
213 *1421:A *1104:442 0.000313495
214 *1432:B *1386:S 8.62625e-06
215 *1435:B *1386:S 8.35747e-05
216 *1438:B *1104:344 4.76794e-05
217 *1438:B *1104:350 6.46815e-05
218 *1446:B *1391:S 3.32903e-05
219 *1448:B *1392:S 0.000312627
220 *1449:A1 *1392:S 2.59855e-05
221 *1449:B1 *1392:S 7.01935e-06
222 *1456:A1 *1104:230 8.94429e-05
223 *1456:B1 *1104:230 0.000211492
224 *1459:B *1397:S 6.92705e-05
225 *1461:A *1104:212 1.69932e-05
226 *1466:B *1104:284 8.62625e-06
227 *1468:B *1104:296 0
228 *1473:B *1104:172 5.03545e-06
229 *1473:B *1104:189 3.78664e-05
230 *1861:B *1863:A 0.000105589
231 *1861:B *1104:145 4.40654e-05
232 *1862:B *1104:145 0.000161399
233 *1863:B *1863:A 0.000161399
234 *1864:A1 *1104:145 6.36477e-05
235 *1864:B1 *1863:A 1.36815e-05
236 *1866:A1 *1104:8 1.03434e-05
237 *1866:A1 *1104:121 6.50727e-05
238 *1866:A2 *1104:121 1.07248e-05
239 *1868:A *1104:8 0.000171273
240 *1869:A *1869:B 4.65954e-06
241 *1869:A *1104:8 5.481e-05
242 *1985:D *1104:189 0.000122083
243 *1990:D *1104:212 0
244 *1995:RESET_B *1104:350 0
245 *1996:RESET_B *1104:361 0
246 *1997:RESET_B *1104:270 0.000524201
247 *1997:RESET_B *1104:278 0
248 *2001:D *1386:S 0.000163492
249 *2010:D *1104:121 0.000127194
250 *2010:D *1104:145 0
251 *2011:D *1104:145 0.00033835
252 *2012:D *1402:A 6.92705e-05
253 *2013:D *1104:296 3.00174e-06
254 *2014:RESET_B *1104:278 1.46079e-05
255 *2014:RESET_B *1104:284 4.14166e-05
256 *2016:D *1104:230 3.14978e-05
257 *2018:RESET_B *1392:S 0
258 *2018:RESET_B *1396:S 0
259 *2025:D *1397:S 0
260 *2025:RESET_B *1397:S 0.000342432
261 *2027:D *1104:442 6.50727e-05
262 *2031:D *1383:S 0.000117066
263 *2035:D *1104:14 0
264 *2135:A *1399:S 0.000117376
265 *442:16 *1383:S 0.000712155
266 *442:16 *1104:189 0.000147325
267 *468:12 *1406:A 2.35904e-05
268 *485:20 *1104:288 3.59852e-05
269 *498:10 *1104:270 2.83365e-05
270 *506:16 *1104:344 6.50586e-05
271 *506:16 *1104:350 0.00011818
272 *548:40 *1386:S 0
273 *548:52 *1104:193 0.000120594
274 *548:52 *1104:212 0.000504087
275 *667:14 *1377:A2 6.27718e-05
276 *667:14 *1104:44 0.000159942
277 *667:14 *1104:55 0.000581669
278 *668:6 *1379:A2 2.65667e-05
279 *672:24 *1104:278 0.000260388
280 *673:8 *1104:59 0
281 *679:10 *1104:270 0.000405053
282 *682:12 *1391:S 0.000111352
283 *683:22 *1391:S 7.90806e-05
284 *684:16 *1104:350 8.62625e-06
285 *684:16 *1104:361 0.000335772
286 *685:14 *1104:350 2.30636e-05
287 *686:22 *1386:S 5.22654e-06
288 *688:16 *1104:442 0.000423936
289 *688:22 *1386:S 0
290 *712:22 *1104:172 0.000101553
291 *713:10 *1104:59 3.67528e-06
292 *763:33 *1399:S 1.5962e-05
293 *763:33 *1104:212 0.000413238
294 *772:31 *1386:S 2.91598e-05
295 *1047:8 *1104:121 0
296 *1062:10 *1104:270 0.00011815
297 *1065:12 *1392:S 0
298 *1068:10 *1397:S 8.75207e-05
299 *1073:16 *1385:S 0
300 *1088:25 *1104:8 2.18145e-05
*RES
1 *2486:X *1104:4 9.24915 
2 *1104:4 *1104:8 11.285 
3 *1104:8 *1104:14 13.9837 
4 *1104:14 *1377:A2 18.9094 
5 *1104:14 *1104:25 3.07775 
6 *1104:25 *1376:A 17.8002 
7 *1104:25 *1104:40 11.9047 
8 *1104:40 *1104:44 7.57775 
9 *1104:44 *1379:A2 16.1364 
10 *1104:44 *1104:55 13.4591 
11 *1104:55 *1104:59 11.315 
12 *1104:59 *1403:A2 9.24915 
13 *1104:59 *1402:A 14.1682 
14 *1104:55 *1104:79 5.2328 
15 *1104:79 *1380:A 9.24915 
16 *1104:79 *1381:A2 22.9641 
17 *1104:40 *1378:A 9.24915 
18 *1104:8 *1869:B 9.82786 
19 *1104:4 *1104:121 23.0842 
20 *1104:121 *1104:123 1.00149 
21 *1104:123 *1104:129 7.55236 
22 *1104:129 *1104:131 0.793864 
23 *1104:131 *1104:145 24.8989 
24 *1104:145 *1863:A 23.5748 
25 *1104:145 *1864:A2 9.24915 
26 *1104:131 *1405:A2 13.7491 
27 *1104:129 *1104:172 6.6074 
28 *1104:172 *1404:A 13.7491 
29 *1104:172 *1104:189 15.8618 
30 *1104:189 *1104:193 11.315 
31 *1104:193 *1382:S 13.7491 
32 *1104:193 *1104:212 31.7357 
33 *1104:212 *1104:214 3.49641 
34 *1104:214 *1104:230 21.1863 
35 *1104:230 *1399:S 18.3836 
36 *1104:230 *1104:249 10.5578 
37 *1104:249 *1395:S 11.6605 
38 *1104:249 *1104:270 38.6171 
39 *1104:270 *1104:278 21.8029 
40 *1104:278 *1104:280 0.578717 
41 *1104:280 *1104:284 9.23876 
42 *1104:284 *1104:288 20.7523 
43 *1104:288 *1104:292 7.99641 
44 *1104:292 *1104:296 15.5842 
45 *1104:296 *1391:S 19.6535 
46 *1104:296 *1390:S 13.7491 
47 *1104:292 *1393:S 23.3638 
48 *1104:288 *1401:S 19.2506 
49 *1104:284 *1104:344 11.2079 
50 *1104:344 *1104:350 12.593 
51 *1104:350 *1384:S 13.7491 
52 *1104:350 *1104:361 18.3743 
53 *1104:361 *1104:365 20.1977 
54 *1104:365 *1392:S 25.0304 
55 *1104:365 *1396:S 16.4116 
56 *1104:361 *1104:389 3.52053 
57 *1104:389 *1397:S 30.3693 
58 *1104:389 *1389:S 9.24915 
59 *1104:344 *1388:S 9.24915 
60 *1104:280 *1400:S 9.24915 
61 *1104:278 *1385:S 26.0802 
62 *1104:270 *1394:S 9.24915 
63 *1104:214 *1398:S 9.24915 
64 *1104:212 *1104:442 9.64528 
65 *1104:442 *1387:S 9.24915 
66 *1104:442 *1386:S 32.4316 
67 *1104:189 *1383:S 18.2916 
68 *1104:123 *1406:A 15.7192 
69 *1104:121 *1407:A2 15.9842 
*END

*D_NET *1105 0.0069031
*CONN
*I *1359:B I *D sky130_fd_sc_hd__xnor2_1
*I *1369:A I *D sky130_fd_sc_hd__nand2_1
*I *1865:B I *D sky130_fd_sc_hd__xor2_1
*I *1264:C1 I *D sky130_fd_sc_hd__o211ai_1
*I *1242:A I *D sky130_fd_sc_hd__inv_4
*I *2487:X O *D sky130_fd_sc_hd__buf_4
*CAP
1 *1359:B 1.5751e-05
2 *1369:A 0.000374571
3 *1865:B 0.000634851
4 *1264:C1 0.000180339
5 *1242:A 0.000563778
6 *2487:X 1.79376e-05
7 *1105:62 0.000767034
8 *1105:43 0.0013694
9 *1105:6 0.000404219
10 *1242:A *1110:904 0.000201811
11 *1264:C1 *1110:904 0
12 *1369:A *1139:81 4.30712e-05
13 *1865:B *1861:A 0.000522271
14 *1865:B *1908:CLK 0
15 *1865:B *1112:10 4.2372e-05
16 *1105:62 *2520:A 2.05712e-05
17 *1105:62 *1139:10 9.98296e-05
18 *1105:62 *1142:236 1.16345e-05
19 *1253:C *1865:B 0
20 *1254:A3 *1264:C1 0
21 *1262:A *1242:A 6.27782e-05
22 *1262:A *1264:C1 0
23 *1359:A *1359:B 1.09551e-05
24 *1359:A *1105:62 0.000217937
25 *1365:A *1369:A 5.30213e-05
26 *1863:A *1865:B 3.25554e-05
27 *1863:A *1105:43 0.000114594
28 *1863:B *1105:43 2.29454e-05
29 *1866:A2 *1369:A 2.14842e-06
30 *1874:A *1105:62 7.34948e-06
31 *1874:B *1105:62 0.00011818
32 *1908:D *1865:B 0
33 *1909:D *1105:62 0
34 *2058:D *1369:A 0
35 *2487:A *1242:A 6.27718e-05
36 *2487:A *1264:C1 0
37 *2487:A *1105:6 6.27782e-05
38 *427:8 *1105:43 7.63221e-05
39 *438:12 *1264:C1 6.50586e-05
40 *462:28 *1865:B 0.000110297
41 *532:16 *1369:A 0.000295351
42 *714:14 *1105:43 0.000127307
43 *1086:10 *1105:62 0
44 *1086:29 *1359:B 1.09551e-05
45 *1086:29 *1369:A 0.000172668
46 *1086:29 *1105:62 7.68538e-06
47 *1092:14 *1105:62 0
*RES
1 *2487:X *1105:6 9.97254 
2 *1105:6 *1242:A 24.684 
3 *1105:6 *1264:C1 22.4655 
4 *1242:A *1105:43 22.8157 
5 *1105:43 *1865:B 30.0495 
6 *1105:43 *1105:62 14.6749 
7 *1105:62 *1369:A 27.5403 
8 *1105:62 *1359:B 9.82786 
*END

*D_NET *1106 0.0376743
*CONN
*I *2108:RESET_B I *D sky130_fd_sc_hd__dfrtp_1
*I *2107:RESET_B I *D sky130_fd_sc_hd__dfrtp_1
*I *2109:RESET_B I *D sky130_fd_sc_hd__dfrtp_1
*I *2101:RESET_B I *D sky130_fd_sc_hd__dfrtp_1
*I *2110:RESET_B I *D sky130_fd_sc_hd__dfrtp_1
*I *2097:RESET_B I *D sky130_fd_sc_hd__dfrtp_1
*I *2104:RESET_B I *D sky130_fd_sc_hd__dfrtp_1
*I *2105:RESET_B I *D sky130_fd_sc_hd__dfrtp_1
*I *2098:RESET_B I *D sky130_fd_sc_hd__dfrtp_1
*I *2099:RESET_B I *D sky130_fd_sc_hd__dfrtp_1
*I *2100:RESET_B I *D sky130_fd_sc_hd__dfrtp_1
*I *2039:RESET_B I *D sky130_fd_sc_hd__dfrtp_1
*I *2106:RESET_B I *D sky130_fd_sc_hd__dfrtp_1
*I *2103:RESET_B I *D sky130_fd_sc_hd__dfrtp_1
*I *2102:RESET_B I *D sky130_fd_sc_hd__dfrtp_1
*I *2040:RESET_B I *D sky130_fd_sc_hd__dfrtp_1
*I *2124:RESET_B I *D sky130_fd_sc_hd__dfrtp_1
*I *2115:RESET_B I *D sky130_fd_sc_hd__dfrtp_1
*I *2116:RESET_B I *D sky130_fd_sc_hd__dfrtp_1
*I *2117:RESET_B I *D sky130_fd_sc_hd__dfrtp_1
*I *2037:RESET_B I *D sky130_fd_sc_hd__dfrtp_1
*I *2114:RESET_B I *D sky130_fd_sc_hd__dfrtp_1
*I *2123:RESET_B I *D sky130_fd_sc_hd__dfrtp_1
*I *2111:RESET_B I *D sky130_fd_sc_hd__dfrtp_1
*I *2113:RESET_B I *D sky130_fd_sc_hd__dfrtp_1
*I *2038:RESET_B I *D sky130_fd_sc_hd__dfrtp_1
*I *2112:RESET_B I *D sky130_fd_sc_hd__dfrtp_1
*I *2121:RESET_B I *D sky130_fd_sc_hd__dfrtp_1
*I *2122:RESET_B I *D sky130_fd_sc_hd__dfrtp_1
*I *2119:RESET_B I *D sky130_fd_sc_hd__dfrtp_1
*I *2118:RESET_B I *D sky130_fd_sc_hd__dfrtp_1
*I *2120:RESET_B I *D sky130_fd_sc_hd__dfrtp_1
*I *2488:X O *D sky130_fd_sc_hd__buf_4
*CAP
1 *2108:RESET_B 0.000160994
2 *2107:RESET_B 0.000244763
3 *2109:RESET_B 6.47464e-05
4 *2101:RESET_B 5.15389e-05
5 *2110:RESET_B 0.000226203
6 *2097:RESET_B 4.67465e-05
7 *2104:RESET_B 0
8 *2105:RESET_B 0.000219523
9 *2098:RESET_B 0.000499264
10 *2099:RESET_B 0
11 *2100:RESET_B 0.000534272
12 *2039:RESET_B 0
13 *2106:RESET_B 0.000507037
14 *2103:RESET_B 0
15 *2102:RESET_B 0.000294913
16 *2040:RESET_B 0.000639324
17 *2124:RESET_B 0.000601301
18 *2115:RESET_B 0.000327813
19 *2116:RESET_B 8.19255e-05
20 *2117:RESET_B 0.000185553
21 *2037:RESET_B 0.00104017
22 *2114:RESET_B 0.000433419
23 *2123:RESET_B 0.000691427
24 *2111:RESET_B 0.000496559
25 *2113:RESET_B 0
26 *2038:RESET_B 0.000375128
27 *2112:RESET_B 0.00099569
28 *2121:RESET_B 0.000806683
29 *2122:RESET_B 0.000340463
30 *2119:RESET_B 0.00039514
31 *2118:RESET_B 0.000435631
32 *2120:RESET_B 0.000116679
33 *2488:X 0
34 *1106:373 0.000576566
35 *1106:347 0.000360887
36 *1106:343 0.000332246
37 *1106:316 0.000435248
38 *1106:314 0.00033103
39 *1106:279 0.000466134
40 *1106:275 0.000568392
41 *1106:273 0.000465581
42 *1106:237 0.000771703
43 *1106:235 0.00319047
44 *1106:233 0.00306166
45 *1106:173 0.000613493
46 *1106:167 0.000766787
47 *1106:91 0.000195721
48 *1106:87 0.000465539
49 *1106:28 0.000749751
50 *1106:4 0.000397925
51 *2037:RESET_B *1965:RESET_B 0
52 *2037:RESET_B *2037:CLK 2.28919e-05
53 *2097:RESET_B *2097:CLK 0.000104815
54 *2097:RESET_B *2110:CLK 2.58757e-05
55 *2098:RESET_B *1135:20 0
56 *2105:RESET_B *2109:CLK 0.000229226
57 *2106:RESET_B *1143:36 0
58 *2110:RESET_B *2110:CLK 2.30636e-05
59 *2112:RESET_B *1125:91 1.82696e-05
60 *2114:RESET_B *2114:CLK 5.20546e-06
61 *2114:RESET_B *2115:CLK 9.14669e-05
62 *2114:RESET_B *1126:92 0.000132607
63 *2116:RESET_B *2116:CLK 0.000107496
64 *2117:RESET_B *1126:25 0.000110084
65 *2118:RESET_B *2118:CLK 7.16893e-05
66 *2124:RESET_B *2037:CLK 3.92706e-05
67 *1106:28 *1122:90 0.000175181
68 *1106:87 *2111:CLK 0.000100268
69 *1106:173 *1126:79 2.98322e-05
70 *1106:235 *1201:A 5.34989e-05
71 *1106:235 *1959:CLK 5.05771e-05
72 *1106:235 *2510:A 5.82261e-05
73 *1106:235 *1111:65 0
74 *1106:235 *1111:100 0
75 *1106:235 *1111:117 0
76 *1106:235 *1111:230 0
77 *1106:235 *1113:255 7.5094e-05
78 *1106:235 *1143:223 1.41396e-05
79 *1106:347 *1134:45 2.86829e-05
80 *1106:347 *1134:64 6.93171e-05
81 axi_lite_o[6] *1106:235 1.91246e-05
82 cio_gpio_en_o[1] *2124:RESET_B 0.000195139
83 intr_gpio_o[3] *2112:RESET_B 0.000160942
84 *1200:B *1106:235 0.000170592
85 *1530:B *1106:235 0.00013832
86 *1554:B1 *1106:235 0
87 *1558:B2 *2124:RESET_B 0.000248908
88 *1686:B *1106:273 0
89 *1694:B *1106:235 0.000175689
90 *1695:B *1106:235 0.000304343
91 *1702:B *1106:235 0
92 *1724:A *1106:314 0
93 *1736:A *2124:RESET_B 3.45278e-05
94 *1741:B1 *2124:RESET_B 5.18861e-05
95 *1741:C1 *2124:RESET_B 6.29565e-05
96 *1755:A *2037:RESET_B 5.71992e-05
97 *1756:A *2121:RESET_B 0
98 *1781:A *2116:RESET_B 5.90501e-05
99 *1791:A1 *1106:173 0
100 *1794:B *1106:173 0.000153566
101 *1795:A *2114:RESET_B 3.60363e-05
102 *1795:B *2114:RESET_B 4.04393e-05
103 *1797:A *2108:RESET_B 7.15593e-05
104 *1804:A *2106:RESET_B 1.55025e-05
105 *1807:A1 *2037:RESET_B 0.0001195
106 *1822:A *2100:RESET_B 0.000267404
107 *1822:A *2106:RESET_B 0
108 *1822:A *1106:279 0
109 *1826:A *2040:RESET_B 6.27718e-05
110 *1826:B *2040:RESET_B 1.4106e-05
111 *1935:D *1106:235 0
112 *1959:D *1106:235 0.000274307
113 *1965:D *2037:RESET_B 2.99412e-05
114 *2037:D *2124:RESET_B 0.000165521
115 *2038:D *2123:RESET_B 4.12636e-05
116 *2098:D *1106:373 0.00013702
117 *2100:D *1106:273 0
118 *2100:D *1106:275 0
119 *2101:D *1106:343 0
120 *2102:D *2040:RESET_B 2.8322e-05
121 *2102:D *1106:237 1.37566e-05
122 *2103:D *1106:235 0
123 *2103:D *1106:237 0
124 *2104:D *2105:RESET_B 6.62387e-06
125 *2107:D *2109:RESET_B 4.4877e-05
126 *2108:D *2108:RESET_B 0
127 *2108:D *2109:RESET_B 0.000102525
128 *2111:D *1106:87 3.55357e-05
129 *2114:D *2114:RESET_B 0.000116355
130 *2115:D *2115:RESET_B 0.000203185
131 *2115:D *1106:173 0.000421541
132 *2122:D *1106:28 0.000179256
133 *2174:A *2117:RESET_B 0.000111677
134 *2174:A *1106:173 0.000395651
135 *2174:A *1106:233 0
136 *2174:A *1106:235 0
137 *185:335 *1106:235 0
138 *185:337 *1106:235 0
139 *282:19 *1106:28 0
140 *307:10 *2117:RESET_B 0
141 *307:10 *1106:233 5.41377e-05
142 *309:10 *1106:173 0.000149052
143 *337:12 *2040:RESET_B 0.000458346
144 *388:125 *1106:235 6.14128e-05
145 *388:212 *1106:235 0.000180379
146 *592:38 *2101:RESET_B 1.83257e-05
147 *598:36 *1106:235 2.652e-05
148 *598:51 *1106:235 1.70077e-05
149 *598:64 *1106:235 0.000751703
150 *598:167 *1106:235 0
151 *598:173 *1106:235 9.46878e-05
152 *598:332 *1106:235 0.00058389
153 *726:14 *2038:RESET_B 8.70866e-05
154 *726:14 *1106:91 2.61857e-05
155 *758:8 *2038:RESET_B 0.000276982
156 *758:8 *1106:91 0.000116971
157 *787:14 *2121:RESET_B 0.000112458
158 *790:22 *2112:RESET_B 0.000157107
159 *853:28 *2124:RESET_B 9.60216e-05
160 *862:14 *2112:RESET_B 6.27718e-05
161 *864:8 *2123:RESET_B 6.59887e-05
162 *869:6 *2037:RESET_B 1.19751e-05
163 *872:18 *2117:RESET_B 1.03594e-05
164 *872:18 *1106:173 0.000545124
165 *877:10 *2117:RESET_B 5.19713e-05
166 *879:10 *2114:RESET_B 0.000114284
167 *891:14 *2106:RESET_B 1.40631e-05
168 *893:14 *1106:279 0.000143161
169 *901:10 *1106:237 0
170 *903:26 *2097:RESET_B 2.39165e-05
171 *903:26 *2106:RESET_B 6.20478e-05
172 *903:26 *1106:273 2.13165e-05
173 *903:26 *1106:275 0.000139467
174 *903:26 *1106:279 0.000259004
175 *903:39 *1106:273 0.000201734
176 *904:12 *2098:RESET_B 0.000125079
177 *904:12 *2106:RESET_B 0.000340998
178 *904:12 *1106:314 0.000362627
179 *904:12 *1106:316 0.000268834
180 *905:12 *2040:RESET_B 7.23277e-05
181 *965:10 *1106:235 0.000134841
182 *980:12 *1106:235 0.000329417
183 *995:8 *1106:235 5.41227e-05
184 *1000:12 *1106:235 0
185 *1001:16 *1106:235 2.48669e-05
*RES
1 *2488:X *1106:4 9.24915 
2 *1106:4 *2120:RESET_B 11.6625 
3 *1106:4 *2118:RESET_B 6.18504 
4 *2118:RESET_B *1106:28 15.3998 
5 *1106:28 *2119:RESET_B 8.59636 
6 *1106:28 *2122:RESET_B 4.15953 
7 *2122:RESET_B *2121:RESET_B 13.3235 
8 *2121:RESET_B *2112:RESET_B 25.4698 
9 *2112:RESET_B *1106:87 6.95666 
10 *1106:87 *1106:91 6.74725 
11 *1106:91 *2038:RESET_B 9.87776 
12 *1106:91 *2113:RESET_B 4.5 
13 *1106:87 *2111:RESET_B 1.1936 
14 *2038:RESET_B *2123:RESET_B 15.2139 
15 *2111:RESET_B *2114:RESET_B 20.1717 
16 *2123:RESET_B *2037:RESET_B 19.7816 
17 *2114:RESET_B *1106:167 4.5 
18 *1106:167 *1106:173 18.9306 
19 *1106:173 *2117:RESET_B 7.94085 
20 *1106:173 *2116:RESET_B 6.80281 
21 *1106:167 *2115:RESET_B 11.0461 
22 *2037:RESET_B *2124:RESET_B 23.7174 
23 *2117:RESET_B *1106:233 6.85717 
24 *1106:233 *1106:235 85.0901 
25 *1106:235 *1106:237 4.73876 
26 *1106:237 *2040:RESET_B 13.2351 
27 *1106:237 *2102:RESET_B 9.21413 
28 *1106:235 *2103:RESET_B 4.5 
29 *2040:RESET_B *1106:273 15.0523 
30 *1106:273 *1106:275 2.6625 
31 *1106:275 *1106:279 5.47156 
32 *1106:279 *2106:RESET_B 14.0303 
33 *1106:279 *2039:RESET_B 4.5 
34 *1106:275 *2100:RESET_B 12.3488 
35 *1106:273 *2099:RESET_B 4.5 
36 *2106:RESET_B *1106:314 10.8998 
37 *1106:314 *1106:316 4.73876 
38 *1106:316 *2098:RESET_B 6.74725 
39 *1106:316 *2105:RESET_B 10.685 
40 *1106:314 *2104:RESET_B 4.5 
41 *2100:RESET_B *1106:343 9.23876 
42 *1106:343 *1106:347 6.74725 
43 *1106:347 *2097:RESET_B 1.74821 
44 *1106:347 *2110:RESET_B 5.07583 
45 *1106:343 *2101:RESET_B 5.6936 
46 *2098:RESET_B *1106:373 10.0673 
47 *1106:373 *2109:RESET_B 11.4107 
48 *1106:373 *2107:RESET_B 1.74821 
49 *2107:RESET_B *2108:RESET_B 13.5473 
*END

*D_NET *1110 0.0786936
*CONN
*I *2073:RESET_B I *D sky130_fd_sc_hd__dfrtp_1
*I *2005:RESET_B I *D sky130_fd_sc_hd__dfrtp_1
*I *2064:RESET_B I *D sky130_fd_sc_hd__dfrtp_1
*I *1908:RESET_B I *D sky130_fd_sc_hd__dfrtp_1
*I *1917:RESET_B I *D sky130_fd_sc_hd__dfrtp_1
*I *1916:RESET_B I *D sky130_fd_sc_hd__dfrtp_1
*I *1909:RESET_B I *D sky130_fd_sc_hd__dfrtp_1
*I *2061:RESET_B I *D sky130_fd_sc_hd__dfrtp_1
*I *1920:RESET_B I *D sky130_fd_sc_hd__dfrtp_1
*I *2055:RESET_B I *D sky130_fd_sc_hd__dfrtp_1
*I *1915:RESET_B I *D sky130_fd_sc_hd__dfrtp_1
*I *2050:RESET_B I *D sky130_fd_sc_hd__dfrtp_1
*I *1907:RESET_B I *D sky130_fd_sc_hd__dfrtp_1
*I *2049:RESET_B I *D sky130_fd_sc_hd__dfrtp_1
*I *2051:RESET_B I *D sky130_fd_sc_hd__dfrtp_1
*I *1921:RESET_B I *D sky130_fd_sc_hd__dfrtp_1
*I *1914:RESET_B I *D sky130_fd_sc_hd__dfrtp_1
*I *2052:RESET_B I *D sky130_fd_sc_hd__dfrtp_1
*I *1919:RESET_B I *D sky130_fd_sc_hd__dfrtp_1
*I *2092:RESET_B I *D sky130_fd_sc_hd__dfrtp_1
*I *2063:RESET_B I *D sky130_fd_sc_hd__dfrtp_1
*I *2034:RESET_B I *D sky130_fd_sc_hd__dfrtp_1
*I *1918:RESET_B I *D sky130_fd_sc_hd__dfrtp_1
*I *2085:RESET_B I *D sky130_fd_sc_hd__dfrtp_1
*I *2058:RESET_B I *D sky130_fd_sc_hd__dfrtp_1
*I *2059:RESET_B I *D sky130_fd_sc_hd__dfrtp_1
*I *2009:RESET_B I *D sky130_fd_sc_hd__dfrtp_1
*I *2035:RESET_B I *D sky130_fd_sc_hd__dfrtp_1
*I *2060:RESET_B I *D sky130_fd_sc_hd__dfrtp_1
*I *2036:RESET_B I *D sky130_fd_sc_hd__dfrtp_1
*I *2026:RESET_B I *D sky130_fd_sc_hd__dfrtp_1
*I *2068:RESET_B I *D sky130_fd_sc_hd__dfrtp_1
*I *2011:RESET_B I *D sky130_fd_sc_hd__dfrtp_1
*I *2062:RESET_B I *D sky130_fd_sc_hd__dfrtp_1
*I *2010:RESET_B I *D sky130_fd_sc_hd__dfrtp_1
*I *2033:RESET_B I *D sky130_fd_sc_hd__dfrtp_1
*I *2008:RESET_B I *D sky130_fd_sc_hd__dfrtp_1
*I *2007:RESET_B I *D sky130_fd_sc_hd__dfrtp_1
*I *1940:RESET_B I *D sky130_fd_sc_hd__dfrtp_1
*I *1971:RESET_B I *D sky130_fd_sc_hd__dfrtp_1
*I *2053:RESET_B I *D sky130_fd_sc_hd__dfrtp_1
*I *2065:RESET_B I *D sky130_fd_sc_hd__dfrtp_1
*I *2054:RESET_B I *D sky130_fd_sc_hd__dfrtp_1
*I *2000:RESET_B I *D sky130_fd_sc_hd__dfrtp_1
*I *2081:RESET_B I *D sky130_fd_sc_hd__dfrtp_1
*I *2019:RESET_B I *D sky130_fd_sc_hd__dfrtp_1
*I *1993:RESET_B I *D sky130_fd_sc_hd__dfrtp_1
*I *1989:RESET_B I *D sky130_fd_sc_hd__dfrtp_1
*I *1986:RESET_B I *D sky130_fd_sc_hd__dfrtp_1
*I *2012:RESET_B I *D sky130_fd_sc_hd__dfrtp_1
*I *2015:RESET_B I *D sky130_fd_sc_hd__dfrtp_1
*I *1984:RESET_B I *D sky130_fd_sc_hd__dfrtp_1
*I *2091:RESET_B I *D sky130_fd_sc_hd__dfrtp_1
*I *2074:RESET_B I *D sky130_fd_sc_hd__dfrtp_1
*I *2079:RESET_B I *D sky130_fd_sc_hd__dfrtp_1
*I *2029:RESET_B I *D sky130_fd_sc_hd__dfrtp_1
*I *2070:RESET_B I *D sky130_fd_sc_hd__dfrtp_1
*I *2077:RESET_B I *D sky130_fd_sc_hd__dfrtp_1
*I *1988:RESET_B I *D sky130_fd_sc_hd__dfrtp_1
*I *2020:RESET_B I *D sky130_fd_sc_hd__dfrtp_1
*I *1994:RESET_B I *D sky130_fd_sc_hd__dfrtp_1
*I *2016:RESET_B I *D sky130_fd_sc_hd__dfrtp_1
*I *2032:RESET_B I *D sky130_fd_sc_hd__dfrtp_1
*I *1990:RESET_B I *D sky130_fd_sc_hd__dfrtp_1
*I *1985:RESET_B I *D sky130_fd_sc_hd__dfrtp_1
*I *2069:RESET_B I *D sky130_fd_sc_hd__dfrtp_1
*I *2002:RESET_B I *D sky130_fd_sc_hd__dfrtp_1
*I *2003:RESET_B I *D sky130_fd_sc_hd__dfrtp_1
*I *2028:RESET_B I *D sky130_fd_sc_hd__dfrtp_1
*I *2006:RESET_B I *D sky130_fd_sc_hd__dfrtp_1
*I *2084:RESET_B I *D sky130_fd_sc_hd__dfrtp_1
*I *2001:RESET_B I *D sky130_fd_sc_hd__dfrtp_1
*I *2027:RESET_B I *D sky130_fd_sc_hd__dfrtp_1
*I *2076:RESET_B I *D sky130_fd_sc_hd__dfrtp_1
*I *2080:RESET_B I *D sky130_fd_sc_hd__dfrtp_1
*I *2057:RESET_B I *D sky130_fd_sc_hd__dfrtp_1
*I *2031:RESET_B I *D sky130_fd_sc_hd__dfrtp_1
*I *2072:RESET_B I *D sky130_fd_sc_hd__dfrtp_1
*I *2492:X O *D sky130_fd_sc_hd__buf_4
*CAP
1 *2073:RESET_B 5.23983e-05
2 *2005:RESET_B 7.48166e-05
3 *2064:RESET_B 9.40349e-05
4 *1908:RESET_B 3.42437e-05
5 *1917:RESET_B 0.000402275
6 *1916:RESET_B 0.000291891
7 *1909:RESET_B 2.83975e-05
8 *2061:RESET_B 3.44683e-05
9 *1920:RESET_B 0.000589272
10 *2055:RESET_B 0.000217123
11 *1915:RESET_B 0.000644986
12 *2050:RESET_B 0.000744633
13 *1907:RESET_B 0
14 *2049:RESET_B 0
15 *2051:RESET_B 0.000642815
16 *1921:RESET_B 0
17 *1914:RESET_B 0.000192242
18 *2052:RESET_B 0.000845231
19 *1919:RESET_B 0.000443904
20 *2092:RESET_B 0.000550495
21 *2063:RESET_B 0.00038841
22 *2034:RESET_B 0.000100389
23 *1918:RESET_B 0.000153742
24 *2085:RESET_B 0.000674299
25 *2058:RESET_B 0
26 *2059:RESET_B 0.000715061
27 *2009:RESET_B 2.65194e-05
28 *2035:RESET_B 0.000211974
29 *2060:RESET_B 0.000264284
30 *2036:RESET_B 0.000550417
31 *2026:RESET_B 0.000338402
32 *2068:RESET_B 0.000532574
33 *2011:RESET_B 5.54506e-05
34 *2062:RESET_B 0.000292382
35 *2010:RESET_B 0
36 *2033:RESET_B 0.000227962
37 *2008:RESET_B 0.000793253
38 *2007:RESET_B 0.000273392
39 *1940:RESET_B 5.13117e-05
40 *1971:RESET_B 0
41 *2053:RESET_B 0.000455892
42 *2065:RESET_B 0.000443355
43 *2054:RESET_B 0.000271589
44 *2000:RESET_B 0.000640329
45 *2081:RESET_B 0.000785331
46 *2019:RESET_B 6.21739e-05
47 *1993:RESET_B 0
48 *1989:RESET_B 0.00029596
49 *1986:RESET_B 0.000368738
50 *2012:RESET_B 8.29178e-05
51 *2015:RESET_B 6.37901e-05
52 *1984:RESET_B 0.00109002
53 *2091:RESET_B 0.000774433
54 *2074:RESET_B 0.000320458
55 *2079:RESET_B 0.000122181
56 *2029:RESET_B 0.000690674
57 *2070:RESET_B 0.00047813
58 *2077:RESET_B 0.000544046
59 *1988:RESET_B 0.000767752
60 *2020:RESET_B 6.00673e-05
61 *1994:RESET_B 0
62 *2016:RESET_B 0.000592585
63 *2032:RESET_B 5.15627e-05
64 *1990:RESET_B 0.000656673
65 *1985:RESET_B 8.55441e-05
66 *2069:RESET_B 0.000661121
67 *2002:RESET_B 3.07371e-05
68 *2003:RESET_B 0.000459461
69 *2028:RESET_B 0.00032124
70 *2006:RESET_B 0.000186406
71 *2084:RESET_B 0.00053575
72 *2001:RESET_B 0.000248792
73 *2027:RESET_B 0.000301961
74 *2076:RESET_B 0.000496137
75 *2080:RESET_B 0.000244201
76 *2057:RESET_B 0.000173272
77 *2031:RESET_B 6.42908e-05
78 *2072:RESET_B 0.000468097
79 *2492:X 0.000136523
80 *1110:924 0.000258643
81 *1110:914 0.000327479
82 *1110:904 0.000537085
83 *1110:890 0.00105068
84 *1110:876 0.000605301
85 *1110:867 0.000276388
86 *1110:857 0.000330849
87 *1110:739 0.000894533
88 *1110:735 0.000362222
89 *1110:733 0.00030859
90 *1110:731 0.000964185
91 *1110:729 0.000304146
92 *1110:727 0.000131037
93 *1110:641 0.000425282
94 *1110:622 0.000138104
95 *1110:613 0.000729075
96 *1110:539 0.000371519
97 *1110:530 0.000449649
98 *1110:497 0.000556424
99 *1110:485 0.000492662
100 *1110:442 0.000367499
101 *1110:440 0.000764433
102 *1110:438 0.000532133
103 *1110:436 0.000839318
104 *1110:364 0.000442872
105 *1110:352 0.000697484
106 *1110:346 0.000505216
107 *1110:344 0.000788381
108 *1110:289 0.000606194
109 *1110:277 0.000590732
110 *1110:256 0.000686374
111 *1110:226 0.00103143
112 *1110:219 0.000504113
113 *1110:209 0.000646824
114 *1110:180 0.000423874
115 *1110:178 0.000416849
116 *1110:136 0.000869375
117 *1110:129 0.000583167
118 *1110:68 0.000555682
119 *1110:45 0.000709197
120 *1110:26 0.00055947
121 *1110:24 0.000978828
122 *1916:RESET_B *1916:CLK 7.66888e-05
123 *1917:RESET_B *1917:CLK 0.00011915
124 *1919:RESET_B *2052:CLK 0.000397867
125 *1920:RESET_B *1915:CLK 6.31921e-05
126 *1940:RESET_B *1924:CLK 1.77566e-05
127 *1984:RESET_B *1112:31 0.000144525
128 *1984:RESET_B *1112:103 0.000177437
129 *1988:RESET_B *1117:10 0
130 *1988:RESET_B *1117:72 0
131 *1989:RESET_B *1112:55 0
132 *2000:RESET_B *2079:CLK 3.87022e-06
133 *2000:RESET_B *1112:274 8.44703e-05
134 *2001:RESET_B *1893:A 0.000253753
135 *2003:RESET_B *2003:CLK 9.11429e-05
136 *2006:RESET_B *1112:157 0.00011946
137 *2012:RESET_B *1986:CLK 9.21105e-05
138 *2016:RESET_B *1117:18 2.23519e-05
139 *2020:RESET_B *2020:CLK 6.31969e-05
140 *2027:RESET_B *1305:A 0.000161234
141 *2027:RESET_B *1893:A 0.000308804
142 *2034:RESET_B *2528:A 0
143 *2035:RESET_B *2009:CLK 9.58746e-05
144 *2036:RESET_B *2065:CLK 0.00017577
145 *2052:RESET_B *2052:CLK 2.39581e-05
146 *2053:RESET_B *1111:10 2.33374e-05
147 *2053:RESET_B *1136:14 4.79437e-05
148 *2053:RESET_B *1136:16 7.01677e-05
149 *2054:RESET_B *1136:10 0
150 *2057:RESET_B *1112:153 5.78454e-05
151 *2064:RESET_B *1137:32 2.58757e-05
152 *2068:RESET_B *2068:CLK 0.000413073
153 *2069:RESET_B *1137:14 4.96368e-05
154 *2070:RESET_B *1123:34 0
155 *2073:RESET_B *1137:28 0.000122858
156 *2079:RESET_B *1123:26 0.000405074
157 *2081:RESET_B *1116:10 0
158 *2081:RESET_B *1116:49 0
159 *2084:RESET_B *2043:CLK 0.000110306
160 *2091:RESET_B *2091:CLK 0.000101672
161 *2092:RESET_B *2128:CLK 8.26466e-05
162 *1110:45 *1137:24 7.77295e-05
163 *1110:45 *1137:28 1.44611e-05
164 *1110:209 *1117:18 0.000141193
165 *1110:219 *1112:179 0
166 *1110:219 *1117:12 0
167 *1110:219 *1117:16 0
168 *1110:226 *1117:12 0
169 *1110:344 *1117:18 0.000139858
170 *1110:352 *2496:A 0.000222099
171 *1110:352 *1112:85 0.000330195
172 *1110:436 *1924:CLK 5.75774e-05
173 *1110:438 *1136:63 0
174 *1110:641 *2011:CLK 0
175 *1110:857 *1919:CLK 5.71849e-05
176 *1110:857 *1139:44 5.37077e-05
177 *1110:857 *1154:10 0.00026882
178 *1110:867 *1154:10 0.000362071
179 *1110:876 *1154:10 0.000122068
180 *1110:890 *1154:10 0.000193835
181 *1110:924 *1137:28 0.000210184
182 axi_lite_o[35] *2050:RESET_B 0
183 *1236:A *2069:RESET_B 0.000329003
184 *1242:A *1110:904 0.000201811
185 *1253:C *2062:RESET_B 0
186 *1253:C *1110:530 0
187 *1253:C *1110:539 0
188 *1256:A *1984:RESET_B 0
189 *1259:A *1914:RESET_B 4.59816e-06
190 *1261:A1 *1915:RESET_B 0
191 *1262:A *1110:904 0.000122541
192 *1264:C1 *1110:904 0
193 *1270:A *1110:733 0.000120458
194 *1270:A *1110:735 1.37566e-05
195 *1275:A *2007:RESET_B 4.13646e-05
196 *1275:A *2033:RESET_B 0
197 *1277:A2 *2033:RESET_B 6.46815e-05
198 *1279:A *2035:RESET_B 2.95031e-05
199 *1279:A *2060:RESET_B 4.90673e-05
200 *1279:A *1110:613 9.8332e-05
201 *1281:A *2007:RESET_B 0.000276513
202 *1281:A *2033:RESET_B 6.49659e-05
203 *1282:A *2008:RESET_B 0
204 *1282:A *1110:613 0.000152412
205 *1283:A2 *2008:RESET_B 3.68055e-05
206 *1283:A3 *2008:RESET_B 0.000146029
207 *1283:A3 *2033:RESET_B 0.00025532
208 *1289:B *1110:352 0.000373047
209 *1294:A *1988:RESET_B 1.4106e-05
210 *1296:A2 *1988:RESET_B 2.95757e-05
211 *1297:B *2070:RESET_B 0
212 *1305:B *2027:RESET_B 6.3657e-05
213 *1307:A *2076:RESET_B 0
214 *1307:A *2084:RESET_B 0.000164189
215 *1308:A1 *2027:RESET_B 1.64789e-05
216 *1309:B *2026:RESET_B 7.60173e-05
217 *1310:B *2000:RESET_B 4.78409e-05
218 *1312:A3 *2000:RESET_B 3.87022e-06
219 *1319:B1 *1110:344 2.41274e-06
220 *1321:A2 *2001:RESET_B 0.000100397
221 *1331:B1 *2074:RESET_B 0
222 *1342:A *2070:RESET_B 0
223 *1342:A *1110:277 2.24632e-05
224 *1342:A *1110:289 3.00174e-06
225 *1345:B *1110:352 4.25685e-05
226 *1347:A1 *2069:RESET_B 2.63639e-05
227 *1361:A *1918:RESET_B 0
228 *1361:A *2036:RESET_B 5.98634e-05
229 *1368:A *2059:RESET_B 0
230 *1368:A *1110:641 0
231 *1371:A *2063:RESET_B 0.000146652
232 *1371:B *2063:RESET_B 1.22289e-05
233 *1388:A0 *2026:RESET_B 0.000158432
234 *1394:A0 *1988:RESET_B 0
235 *1399:A1 *1110:364 0
236 *1405:B1 *1110:530 0.000130663
237 *1406:B *1984:RESET_B 0
238 *1419:B *2006:RESET_B 0.000122936
239 *1420:A *1984:RESET_B 0
240 *1420:A *1985:RESET_B 0
241 *1420:A *1110:180 0
242 *1434:B *1110:68 1.02356e-05
243 *1435:A *1110:136 0
244 *1437:B *2000:RESET_B 5.52256e-05
245 *1439:A *2026:RESET_B 3.20433e-05
246 *1439:B *2026:RESET_B 3.12323e-05
247 *1454:B1 *1110:226 0
248 *1461:A *1110:178 0
249 *1461:A *1110:180 0
250 *1464:A *1110:352 6.50727e-05
251 *1464:B *2015:RESET_B 6.81838e-05
252 *1464:B *1110:352 1.65872e-05
253 *1467:A1 *1988:RESET_B 0.000420436
254 *1474:A1 *1984:RESET_B 3.62414e-05
255 *1479:A2 *2054:RESET_B 0
256 *1487:A *2019:RESET_B 0.000171584
257 *1515:B *1110:438 4.63668e-05
258 *1516:A2 *1110:438 0.00015324
259 *1552:B2 *2069:RESET_B 5.61895e-05
260 *1552:B2 *2084:RESET_B 0.000208716
261 *1562:A *2092:RESET_B 0.000156076
262 *1605:A1 *1110:436 0.000112361
263 *1605:A2 *1110:436 0.000201144
264 *1605:A2 *1110:438 0.000190896
265 *1643:B1 *2054:RESET_B 0
266 *1643:B1 *1110:442 0
267 *1653:A0 *1110:735 2.48716e-05
268 *1653:A1 *1110:735 0.000193478
269 *1658:A *1110:731 0.000118485
270 *1658:A *1110:733 0.000297797
271 *1658:A *1110:735 0.000266261
272 *1673:B *2070:RESET_B 0
273 *1786:A2 *1110:727 5.36397e-05
274 *1786:A2 *1110:729 0.00012038
275 *1786:A2 *1110:731 6.00269e-05
276 *1833:B *2020:RESET_B 0.000260577
277 *1845:A *1110:735 0.000207203
278 *1845:A *1110:739 0.000242134
279 *1860:A *1110:904 0
280 *1868:B *1110:613 0.000122098
281 *1872:A *1918:RESET_B 0.000261007
282 *1872:A *1110:727 0
283 *1878:A2 *2063:RESET_B 0
284 *1891:A *2077:RESET_B 0
285 *1891:B *1110:256 0.00027329
286 *1892:B1 *2077:RESET_B 0.000168189
287 *1892:B1 *2081:RESET_B 0
288 *1895:A *2068:RESET_B 1.34905e-05
289 *1896:B1 *2081:RESET_B 4.36097e-05
290 *1901:B *2092:RESET_B 1.32043e-05
291 *1915:D *1920:RESET_B 6.64392e-05
292 *1917:D *1110:890 0
293 *1940:D *1110:436 6.25883e-06
294 *1984:CLK *1110:485 2.16355e-05
295 *1986:D *1989:RESET_B 0
296 *1988:D *1988:RESET_B 3.40114e-05
297 *1989:D *1110:364 8.60778e-05
298 *2000:D *2026:RESET_B 0.000101177
299 *2003:D *2003:RESET_B 1.07248e-05
300 *2009:D *1110:613 1.02448e-05
301 *2011:D *2062:RESET_B 3.20069e-06
302 *2011:D *1110:530 0.000156823
303 *2011:D *1110:539 5.47392e-05
304 *2035:D *2034:RESET_B 0
305 *2043:D *2069:RESET_B 4.78554e-05
306 *2044:D *2081:RESET_B 0
307 *2047:D *2076:RESET_B 3.25776e-05
308 *2047:D *1110:45 9.40339e-05
309 *2047:RESET_B *2069:RESET_B 2.8906e-05
310 *2051:D *2051:RESET_B 4.89195e-05
311 *2052:D *2052:RESET_B 0.000164843
312 *2052:D *1110:739 3.00073e-05
313 *2053:D *2054:RESET_B 0
314 *2053:D *1110:442 0
315 *2057:D *2057:RESET_B 0
316 *2058:D *2059:RESET_B 0.000577744
317 *2062:D *2059:RESET_B 0
318 *2064:D *1110:914 0
319 *2070:D *2070:RESET_B 9.40857e-05
320 *2072:D *1110:24 6.50727e-05
321 *2074:D *2074:RESET_B 0
322 *2076:D *1110:68 2.58757e-05
323 *2084:D *2084:RESET_B 0.000116986
324 *2091:D *2091:RESET_B 0.000108684
325 *2105:D *2050:RESET_B 0.000122098
326 *2489:A *2072:RESET_B 6.50727e-05
327 *2491:A *1110:613 0
328 *216:14 *1914:RESET_B 5.37479e-05
329 *216:55 *1915:RESET_B 9.89271e-05
330 *217:8 *1915:RESET_B 4.01715e-05
331 *217:8 *1920:RESET_B 3.63704e-05
332 *224:12 *2069:RESET_B 0.000143161
333 *224:38 *2084:RESET_B 9.11429e-05
334 *224:46 *2076:RESET_B 0
335 *224:68 *2085:RESET_B 0
336 *224:117 *2074:RESET_B 0
337 *340:10 *2001:RESET_B 8.58902e-06
338 *364:8 *2063:RESET_B 0
339 *425:20 *2051:RESET_B 0.000718877
340 *427:37 *1917:RESET_B 7.72414e-06
341 *435:12 *1110:530 0
342 *436:94 *2001:RESET_B 0.000260635
343 *436:94 *2027:RESET_B 0.000305313
344 *436:120 *1110:45 0.000528197
345 *436:126 *2073:RESET_B 3.14642e-05
346 *436:126 *1110:914 1.7841e-05
347 *436:126 *1110:924 6.48988e-05
348 *436:132 *1110:904 7.12459e-05
349 *436:132 *1110:914 5.66868e-06
350 *436:196 *2020:RESET_B 0.000403483
351 *456:10 *1918:RESET_B 0
352 *457:38 *2092:RESET_B 9.29777e-05
353 *462:16 *1110:485 6.19661e-05
354 *462:16 *1110:530 8.81872e-06
355 *462:28 *2064:RESET_B 7.93545e-05
356 *462:28 *1110:530 5.20546e-06
357 *466:8 *2007:RESET_B 0.00032035
358 *468:12 *1110:530 7.04109e-05
359 *468:30 *2064:RESET_B 0.000449027
360 *475:8 *2032:RESET_B 1.83116e-05
361 *478:6 *1988:RESET_B 6.08467e-05
362 *485:20 *2000:RESET_B 0.000106724
363 *485:20 *2029:RESET_B 0.000342463
364 *485:24 *2029:RESET_B 1.7738e-05
365 *485:24 *2070:RESET_B 0.000203999
366 *498:10 *1110:344 7.26748e-05
367 *506:16 *2000:RESET_B 2.23519e-05
368 *506:16 *2026:RESET_B 9.15567e-05
369 *517:12 *1110:352 0
370 *519:12 *2027:RESET_B 0.000237178
371 *528:27 *2059:RESET_B 0
372 *533:14 *2063:RESET_B 0.000353316
373 *548:22 *2000:RESET_B 1.83257e-05
374 *548:22 *2029:RESET_B 0.000140512
375 *548:24 *2003:RESET_B 0
376 *548:32 *2003:RESET_B 0
377 *548:52 *1110:178 0.000265583
378 *548:52 *1110:180 0.00027707
379 *598:376 *1110:436 0
380 *598:376 *1110:438 0
381 *652:10 *1110:436 0
382 *674:18 *2019:RESET_B 5.06863e-05
383 *686:16 *1110:352 7.60449e-05
384 *691:16 *1984:RESET_B 9.37259e-05
385 *691:22 *1990:RESET_B 0.000143633
386 *691:22 *2057:RESET_B 0
387 *692:18 *1986:RESET_B 0.000252126
388 *692:18 *2012:RESET_B 0.000355099
389 *712:16 *1110:485 0.000489818
390 *714:12 *1110:867 0
391 *714:12 *1110:876 0
392 *717:10 *1915:RESET_B 0
393 *717:10 *1110:735 0.000131434
394 *717:10 *1110:739 0.000367283
395 *751:12 *1110:731 0
396 *751:12 *1110:739 0
397 *752:21 *2009:RESET_B 0.000110099
398 *752:21 *2035:RESET_B 4.88955e-05
399 *752:25 *2035:RESET_B 0.000455839
400 *763:33 *2027:RESET_B 0.000120418
401 *772:31 *1110:209 5.5232e-05
402 *793:11 *1110:890 0
403 *834:23 *2079:RESET_B 8.08839e-05
404 *835:31 *2084:RESET_B 9.55447e-05
405 *836:31 *2068:RESET_B 5.48288e-05
406 *847:16 *2085:RESET_B 0.000246636
407 *910:121 *2069:RESET_B 3.55296e-05
408 *951:14 *1110:727 0.000104731
409 *951:14 *1110:729 0.000273828
410 *951:14 *1110:731 0.000297535
411 *952:14 *1915:RESET_B 2.58616e-05
412 *953:10 *1919:RESET_B 7.23277e-05
413 *1026:20 *2055:RESET_B 0.000132739
414 *1028:10 *2050:RESET_B 1.44611e-05
415 *1028:10 *2055:RESET_B 0.000164189
416 *1042:10 *2008:RESET_B 3.90891e-05
417 *1043:10 *1110:256 0.00016096
418 *1045:10 *2005:RESET_B 3.73595e-05
419 *1051:12 *1110:876 0
420 *1051:12 *1110:890 0
421 *1051:12 *1110:904 0
422 *1057:10 *1110:364 9.58263e-05
423 *1062:10 *2019:RESET_B 6.27782e-05
424 *1062:10 *1110:346 8.17858e-05
425 *1062:10 *1110:352 1.72644e-05
426 *1063:8 *1110:226 0
427 *1075:14 *1110:26 0.00011349
428 *1088:8 *2060:RESET_B 0
429 *1088:8 *1110:613 0
430 *1091:26 *1110:731 0.000277304
431 *1091:26 *1110:733 8.62625e-06
432 *1092:31 *2059:RESET_B 5.19453e-05
433 *1095:8 *2036:RESET_B 1.5224e-05
434 *1104:14 *2034:RESET_B 3.67528e-06
435 *1104:145 *2011:RESET_B 0.000216313
436 *1104:145 *1110:530 1.49011e-05
437 *1104:193 *1985:RESET_B 5.04734e-05
438 *1104:193 *1110:180 4.09612e-05
439 *1104:270 *1110:344 1.06049e-05
440 *1104:270 *1110:346 5.1674e-06
441 *1107:6 *2072:RESET_B 8.6198e-05
442 *1107:10 *2072:RESET_B 4.93824e-05
443 *1107:10 *1110:24 9.15727e-05
444 *1107:40 *2076:RESET_B 0.000131198
445 *1107:40 *1110:45 4.82347e-05
446 *1107:49 *2076:RESET_B 5.41227e-05
447 *1107:53 *2076:RESET_B 0.000126058
448 *1107:160 *2077:RESET_B 0
449 *1107:171 *2070:RESET_B 0
450 *1108:19 *2008:RESET_B 0
451 *1108:19 *1110:613 0
452 *1108:32 *2008:RESET_B 0
453 *1109:48 *2033:RESET_B 0.000205903
454 *1109:108 *1110:364 4.13313e-05
455 *1109:119 *1110:352 0
456 *1109:295 *2003:RESET_B 0
457 *1109:295 *1110:136 0
*RES
1 *2492:X *2072:RESET_B 13.2158 
2 *2072:RESET_B *1110:24 7.12545 
3 *1110:24 *1110:26 6.82404 
4 *1110:26 *2031:RESET_B 1.1936 
5 *1110:26 *2057:RESET_B 13.7388 
6 *1110:24 *1110:45 15.8828 
7 *1110:45 *2080:RESET_B 5.6936 
8 *1110:45 *2076:RESET_B 14.2951 
9 *2076:RESET_B *1110:68 7.91202 
10 *1110:68 *2027:RESET_B 17.4117 
11 *1110:68 *2001:RESET_B 10.4324 
12 *2080:RESET_B *2084:RESET_B 16.4075 
13 *2027:RESET_B *2006:RESET_B 11.2472 
14 *2001:RESET_B *1110:129 7.1625 
15 *1110:129 *2028:RESET_B 4.5 
16 *1110:129 *1110:136 10.9675 
17 *1110:136 *2003:RESET_B 13.6178 
18 *1110:136 *2002:RESET_B 5.2328 
19 *2084:RESET_B *2069:RESET_B 20.6937 
20 *2006:RESET_B *1110:178 9.23876 
21 *1110:178 *1110:180 6.81502 
22 *1110:180 *1985:RESET_B 6.74725 
23 *1110:180 *1990:RESET_B 7.91202 
24 *1110:178 *2032:RESET_B 5.6936 
25 *2028:RESET_B *1110:209 7.84885 
26 *1110:209 *2016:RESET_B 0.639 
27 *1110:209 *1110:219 11.7303 
28 *1110:219 *1994:RESET_B 4.5 
29 *1110:219 *1110:226 4.32351 
30 *1110:226 *2020:RESET_B 9.02122 
31 *1110:226 *1988:RESET_B 19.772 
32 *2003:RESET_B *1110:256 7.91202 
33 *1110:256 *2077:RESET_B 9.23876 
34 *1110:256 *2070:RESET_B 16.4269 
35 *2070:RESET_B *1110:277 5.50149 
36 *1110:277 *2029:RESET_B 17.919 
37 *1110:277 *1110:289 3.90826 
38 *1110:289 *2079:RESET_B 9.57583 
39 *1110:289 *2074:RESET_B 11.315 
40 *2069:RESET_B *2091:RESET_B 7.20985 
41 *1990:RESET_B *1984:RESET_B 23.3628 
42 *2016:RESET_B *1110:344 15.3436 
43 *1110:344 *1110:346 4.32351 
44 *1110:346 *1110:352 17.9969 
45 *1110:352 *2015:RESET_B 1.74821 
46 *1110:352 *1110:364 15.815 
47 *1110:364 *2012:RESET_B 3.96662 
48 *1110:364 *1986:RESET_B 2.85741 
49 *1986:RESET_B *1989:RESET_B 15.815 
50 *1110:346 *1993:RESET_B 4.5 
51 *1110:344 *2019:RESET_B 7.35741 
52 *2077:RESET_B *2081:RESET_B 17.8913 
53 *2029:RESET_B *2000:RESET_B 17.6476 
54 *2091:RESET_B *1110:436 15.9784 
55 *1110:436 *1110:438 8.89128 
56 *1110:438 *1110:440 5.15401 
57 *1110:440 *1110:442 2.24725 
58 *1110:442 *2054:RESET_B 10.8998 
59 *1110:442 *2065:RESET_B 4.5 
60 *1110:440 *2053:RESET_B 12.5418 
61 *1110:438 *1971:RESET_B 4.5 
62 *1110:436 *1940:RESET_B 5.6936 
63 *1984:RESET_B *1110:485 7.29424 
64 *1110:485 *2007:RESET_B 9.70556 
65 *1110:485 *1110:497 4.5 
66 *1110:497 *2008:RESET_B 13.3913 
67 *1110:497 *2033:RESET_B 12.2744 
68 *1984:RESET_B *1110:530 12.9802 
69 *1110:530 *2010:RESET_B 4.5 
70 *1110:530 *1110:539 3.3953 
71 *1110:539 *2062:RESET_B 9.23876 
72 *1110:539 *2011:RESET_B 6.80281 
73 *2081:RESET_B *2068:RESET_B 9.98286 
74 *2000:RESET_B *2026:RESET_B 18.8598 
75 *2065:RESET_B *2036:RESET_B 8.15026 
76 *2008:RESET_B *1110:613 17.9591 
77 *1110:613 *2060:RESET_B 11.315 
78 *1110:613 *1110:622 4.5 
79 *1110:622 *2035:RESET_B 5.63043 
80 *1110:622 *2009:RESET_B 1.1936 
81 *2062:RESET_B *1110:641 6.74725 
82 *1110:641 *2059:RESET_B 15.4675 
83 *1110:641 *2058:RESET_B 4.5 
84 *2068:RESET_B *2085:RESET_B 13.3235 
85 *2036:RESET_B *1918:RESET_B 13.3235 
86 *2035:RESET_B *2034:RESET_B 11.2472 
87 *2059:RESET_B *2063:RESET_B 22.4591 
88 *2085:RESET_B *2092:RESET_B 19.4284 
89 *1918:RESET_B *1110:727 6.74725 
90 *1110:727 *1110:729 4.73876 
91 *1110:729 *1110:731 8.47603 
92 *1110:731 *1110:733 5.15401 
93 *1110:733 *1110:735 8.89128 
94 *1110:735 *1110:739 10.8998 
95 *1110:739 *1919:RESET_B 12.8644 
96 *1110:739 *2052:RESET_B 6.37794 
97 *1110:735 *1914:RESET_B 5.139 
98 *1110:733 *1921:RESET_B 4.5 
99 *1110:731 *2051:RESET_B 15.8694 
100 *1110:729 *2049:RESET_B 4.5 
101 *1110:727 *1907:RESET_B 4.5 
102 *2052:RESET_B *2050:RESET_B 20.7599 
103 *1914:RESET_B *1915:RESET_B 13.9653 
104 *2050:RESET_B *2055:RESET_B 6.65524 
105 *1915:RESET_B *1920:RESET_B 8.70487 
106 *1920:RESET_B *1110:857 9.23876 
107 *1110:857 *2061:RESET_B 5.139 
108 *1110:857 *1110:867 6.39977 
109 *1110:867 *1909:RESET_B 5.2328 
110 *1110:867 *1110:876 2.24725 
111 *1110:876 *1916:RESET_B 9.21413 
112 *1110:876 *1110:890 6.81502 
113 *1110:890 *1917:RESET_B 11.4325 
114 *1110:890 *1110:904 11.798 
115 *1110:904 *1908:RESET_B 5.139 
116 *1110:904 *1110:914 2.24725 
117 *1110:914 *2064:RESET_B 9.57583 
118 *1110:914 *1110:924 4.73876 
119 *1110:924 *2005:RESET_B 6.24821 
120 *1110:924 *2073:RESET_B 6.74725 
*END

*D_NET *1113 0.0781395
*CONN
*I *1938:RESET_B I *D sky130_fd_sc_hd__dfrtp_1
*I *1942:RESET_B I *D sky130_fd_sc_hd__dfrtp_1
*I *1945:RESET_B I *D sky130_fd_sc_hd__dfrtp_1
*I *1974:RESET_B I *D sky130_fd_sc_hd__dfrtp_1
*I *2056:RESET_B I *D sky130_fd_sc_hd__dfrtp_1
*I *1910:RESET_B I *D sky130_fd_sc_hd__dfrtp_1
*I *1913:RESET_B I *D sky130_fd_sc_hd__dfrtp_1
*I *1911:RESET_B I *D sky130_fd_sc_hd__dfrtp_1
*I *1912:RESET_B I *D sky130_fd_sc_hd__dfrtp_1
*I *1952:RESET_B I *D sky130_fd_sc_hd__dfrtp_1
*I *1943:RESET_B I *D sky130_fd_sc_hd__dfrtp_1
*I *1978:RESET_B I *D sky130_fd_sc_hd__dfrtp_1
*I *1947:RESET_B I *D sky130_fd_sc_hd__dfrtp_1
*I *1944:RESET_B I *D sky130_fd_sc_hd__dfrtp_1
*I *1949:RESET_B I *D sky130_fd_sc_hd__dfrtp_1
*I *1946:RESET_B I *D sky130_fd_sc_hd__dfrtp_1
*I *1968:RESET_B I *D sky130_fd_sc_hd__dfrtp_1
*I *1959:RESET_B I *D sky130_fd_sc_hd__dfrtp_1
*I *1948:RESET_B I *D sky130_fd_sc_hd__dfrtp_1
*I *1950:RESET_B I *D sky130_fd_sc_hd__dfrtp_1
*I *1977:RESET_B I *D sky130_fd_sc_hd__dfrtp_1
*I *1929:RESET_B I *D sky130_fd_sc_hd__dfrtp_1
*I *1960:RESET_B I *D sky130_fd_sc_hd__dfrtp_1
*I *1964:RESET_B I *D sky130_fd_sc_hd__dfrtp_1
*I *1951:RESET_B I *D sky130_fd_sc_hd__dfrtp_1
*I *1976:RESET_B I *D sky130_fd_sc_hd__dfrtp_1
*I *1933:RESET_B I *D sky130_fd_sc_hd__dfrtp_1
*I *1973:RESET_B I *D sky130_fd_sc_hd__dfrtp_1
*I *1982:RESET_B I *D sky130_fd_sc_hd__dfrtp_1
*I *1979:RESET_B I *D sky130_fd_sc_hd__dfrtp_1
*I *1957:RESET_B I *D sky130_fd_sc_hd__dfrtp_1
*I *1975:RESET_B I *D sky130_fd_sc_hd__dfrtp_1
*I *1983:RESET_B I *D sky130_fd_sc_hd__dfrtp_1
*I *1981:RESET_B I *D sky130_fd_sc_hd__dfrtp_1
*I *1965:RESET_B I *D sky130_fd_sc_hd__dfrtp_1
*I *1926:RESET_B I *D sky130_fd_sc_hd__dfrtp_1
*I *1980:RESET_B I *D sky130_fd_sc_hd__dfrtp_1
*I *1963:RESET_B I *D sky130_fd_sc_hd__dfrtp_1
*I *1932:RESET_B I *D sky130_fd_sc_hd__dfrtp_1
*I *1972:RESET_B I *D sky130_fd_sc_hd__dfrtp_1
*I *1934:RESET_B I *D sky130_fd_sc_hd__dfrtp_1
*I *1969:RESET_B I *D sky130_fd_sc_hd__dfrtp_1
*I *1927:RESET_B I *D sky130_fd_sc_hd__dfrtp_1
*I *1958:RESET_B I *D sky130_fd_sc_hd__dfrtp_1
*I *1935:RESET_B I *D sky130_fd_sc_hd__dfrtp_1
*I *1941:RESET_B I *D sky130_fd_sc_hd__dfrtp_1
*I *2492:A I *D sky130_fd_sc_hd__buf_4
*I *1970:RESET_B I *D sky130_fd_sc_hd__dfrtp_1
*I *1939:RESET_B I *D sky130_fd_sc_hd__dfrtp_1
*I *1931:RESET_B I *D sky130_fd_sc_hd__dfrtp_1
*I *1962:RESET_B I *D sky130_fd_sc_hd__dfrtp_1
*I *1961:RESET_B I *D sky130_fd_sc_hd__dfrtp_1
*I *1966:RESET_B I *D sky130_fd_sc_hd__dfrtp_1
*I *1923:RESET_B I *D sky130_fd_sc_hd__dfrtp_1
*I *1936:RESET_B I *D sky130_fd_sc_hd__dfrtp_1
*I *1967:RESET_B I *D sky130_fd_sc_hd__dfrtp_1
*I *1924:RESET_B I *D sky130_fd_sc_hd__dfrtp_1
*I *1954:RESET_B I *D sky130_fd_sc_hd__dfrtp_1
*I *1937:RESET_B I *D sky130_fd_sc_hd__dfrtp_1
*I *1956:RESET_B I *D sky130_fd_sc_hd__dfrtp_1
*I *1928:RESET_B I *D sky130_fd_sc_hd__dfrtp_1
*I *1955:RESET_B I *D sky130_fd_sc_hd__dfrtp_1
*I *1925:RESET_B I *D sky130_fd_sc_hd__dfrtp_1
*I *1922:RESET_B I *D sky130_fd_sc_hd__dfrtp_1
*I *2066:RESET_B I *D sky130_fd_sc_hd__dfrtp_1
*I *2082:RESET_B I *D sky130_fd_sc_hd__dfrtp_1
*I *1930:RESET_B I *D sky130_fd_sc_hd__dfrtp_1
*I *1953:RESET_B I *D sky130_fd_sc_hd__dfrtp_1
*I *2090:RESET_B I *D sky130_fd_sc_hd__dfrtp_1
*I *2089:RESET_B I *D sky130_fd_sc_hd__dfrtp_1
*I *2083:RESET_B I *D sky130_fd_sc_hd__dfrtp_1
*I *2067:RESET_B I *D sky130_fd_sc_hd__dfrtp_1
*I *2075:RESET_B I *D sky130_fd_sc_hd__dfrtp_1
*I *2071:RESET_B I *D sky130_fd_sc_hd__dfrtp_1
*I *2078:RESET_B I *D sky130_fd_sc_hd__dfrtp_1
*I *2495:X O *D sky130_fd_sc_hd__buf_4
*CAP
1 *1938:RESET_B 0.000385442
2 *1942:RESET_B 0
3 *1945:RESET_B 0.000309287
4 *1974:RESET_B 0.00084011
5 *2056:RESET_B 0.000344167
6 *1910:RESET_B 0
7 *1913:RESET_B 0.000298501
8 *1911:RESET_B 9.20757e-05
9 *1912:RESET_B 0.000245827
10 *1952:RESET_B 0.000551542
11 *1943:RESET_B 0.000739467
12 *1978:RESET_B 0.000114064
13 *1947:RESET_B 0.000124655
14 *1944:RESET_B 0.00055467
15 *1949:RESET_B 0
16 *1946:RESET_B 9.2302e-05
17 *1968:RESET_B 0
18 *1959:RESET_B 0.000173581
19 *1948:RESET_B 0
20 *1950:RESET_B 0.00043654
21 *1977:RESET_B 0.000796516
22 *1929:RESET_B 0.000549424
23 *1960:RESET_B 0.00029557
24 *1964:RESET_B 0.000434212
25 *1951:RESET_B 0.000602039
26 *1976:RESET_B 0.00097562
27 *1933:RESET_B 0.0004282
28 *1973:RESET_B 0
29 *1982:RESET_B 0.000413974
30 *1979:RESET_B 0.00032782
31 *1957:RESET_B 0.000228746
32 *1975:RESET_B 0.000119573
33 *1983:RESET_B 0.000826009
34 *1981:RESET_B 0.000237573
35 *1965:RESET_B 0.000100555
36 *1926:RESET_B 0.000487275
37 *1980:RESET_B 0.000569959
38 *1963:RESET_B 0.000901698
39 *1932:RESET_B 0
40 *1972:RESET_B 0.00029039
41 *1934:RESET_B 0.000691264
42 *1969:RESET_B 0
43 *1927:RESET_B 0.000365023
44 *1958:RESET_B 0.000287033
45 *1935:RESET_B 0.000829714
46 *1941:RESET_B 0.000396645
47 *2492:A 0.00192617
48 *1970:RESET_B 0.000303665
49 *1939:RESET_B 0.00100788
50 *1931:RESET_B 2.60524e-05
51 *1962:RESET_B 0
52 *1961:RESET_B 0.000413615
53 *1966:RESET_B 0.000519299
54 *1923:RESET_B 0.00088268
55 *1936:RESET_B 0.00037024
56 *1967:RESET_B 0.000130527
57 *1924:RESET_B 0.00217573
58 *1954:RESET_B 0.00050434
59 *1937:RESET_B 0.000728169
60 *1956:RESET_B 0
61 *1928:RESET_B 0.000981894
62 *1955:RESET_B 0.000295027
63 *1925:RESET_B 0
64 *1922:RESET_B 0.000347179
65 *2066:RESET_B 0.000193561
66 *2082:RESET_B 0
67 *1930:RESET_B 0.000327669
68 *1953:RESET_B 0.000630921
69 *2090:RESET_B 0.00048201
70 *2089:RESET_B 0
71 *2083:RESET_B 4.8567e-05
72 *2067:RESET_B 0.000595061
73 *2075:RESET_B 0.000583577
74 *2071:RESET_B 0.0001647
75 *2078:RESET_B 0.000687839
76 *2495:X 0.000253172
77 *1113:959 0.000608903
78 *1113:906 0.000596201
79 *1113:904 0.000920355
80 *1113:894 0.000615028
81 *1113:880 0.000683595
82 *1113:840 0.000558783
83 *1113:820 0.000679325
84 *1113:818 0.00040129
85 *1113:807 0.000442953
86 *1113:797 0.000578851
87 *1113:773 0.000464659
88 *1113:749 0.000431301
89 *1113:689 0.000438705
90 *1113:617 0.000781841
91 *1113:615 0.000691593
92 *1113:559 0.000835991
93 *1113:525 0.000866097
94 *1113:487 0.00057299
95 *1113:478 0.000592841
96 *1113:441 0.000940739
97 *1113:333 0.00080963
98 *1113:323 0.000566713
99 *1113:316 0.000510576
100 *1113:302 0.000711329
101 *1113:292 0.000628688
102 *1113:255 0.000321336
103 *1113:174 0.00100054
104 *1113:170 0.000553374
105 *1113:161 0.00062832
106 *1113:159 0.00101639
107 *1113:109 0.00135027
108 *1113:86 0.000239544
109 *1113:82 0.00183244
110 *1113:68 0.00153766
111 *1113:66 0.000840812
112 *1113:64 0.000539437
113 *1113:20 0.000622931
114 *1922:RESET_B *1922:CLK 2.30636e-05
115 *1922:RESET_B *2090:CLK 7.27004e-05
116 *1923:RESET_B *1129:61 5.14448e-05
117 *1926:RESET_B *1934:CLK 0
118 *1927:RESET_B *1969:CLK 0
119 *1927:RESET_B *1127:35 4.70567e-05
120 *1929:RESET_B *1976:CLK 8.91291e-05
121 *1933:RESET_B *1983:CLK 0.000146565
122 *1934:RESET_B *1939:CLK 0
123 *1934:RESET_B *1126:38 0
124 *1935:RESET_B *1129:53 0.00014924
125 *1935:RESET_B *1129:61 6.02583e-05
126 *1937:RESET_B *1937:CLK 0.000296526
127 *1937:RESET_B *1954:CLK 6.08467e-05
128 *1937:RESET_B *1130:94 7.53339e-05
129 *1937:RESET_B *1143:10 9.81149e-05
130 *1938:RESET_B *1974:CLK 0.000122441
131 *1954:RESET_B *1954:CLK 0.000111722
132 *1959:RESET_B *1132:37 7.444e-06
133 *1959:RESET_B *1132:39 1.59362e-06
134 *1960:RESET_B *1129:14 0
135 *1974:RESET_B *1943:CLK 3.75603e-05
136 *1977:RESET_B *1128:16 2.39228e-05
137 *1977:RESET_B *1128:20 5.0539e-05
138 *1980:RESET_B *1980:CLK 0.00014924
139 *2056:RESET_B *2056:CLK 3.89391e-05
140 *2067:RESET_B *2067:CLK 0
141 *2067:RESET_B *1122:32 0.000127207
142 *2067:RESET_B *1122:38 7.25324e-06
143 *2071:RESET_B *2071:CLK 0
144 *2075:RESET_B *1122:38 0.000110099
145 *2090:RESET_B *2090:CLK 6.62428e-05
146 *1113:161 *1968:CLK 2.95656e-05
147 *1113:161 *1130:10 3.45797e-05
148 *1113:161 *1130:94 2.15656e-05
149 *1113:170 *1968:CLK 0.000237336
150 *1113:292 *1923:CLK 6.50586e-05
151 *1113:292 *1958:CLK 4.68256e-05
152 *1113:292 *1129:61 1.91114e-05
153 *1113:292 *1129:74 0.00030572
154 *1113:302 *1958:CLK 0.000119367
155 *1113:316 *1958:CLK 3.20407e-05
156 *1113:323 *1931:CLK 0
157 *1113:559 *1132:27 0
158 *1113:615 *1942:CLK 0.000109421
159 *1113:615 *1132:27 0.00010545
160 *1113:773 *1964:CLK 1.77537e-06
161 *1113:773 *1132:37 0
162 axi_lite_o[18] *1113:615 0.000106063
163 axi_lite_o[23] *1945:RESET_B 0
164 axi_lite_o[25] *1113:818 2.37478e-05
165 axi_lite_o[3] *1977:RESET_B 1.20669e-05
166 cio_gpio_o[1] *1113:82 0
167 *1183:A1 *1943:RESET_B 5.23577e-05
168 *1184:A *1944:RESET_B 3.314e-05
169 *1190:B *1972:RESET_B 0
170 *1191:A *1945:RESET_B 0
171 *1212:A *1113:959 0.00017422
172 *1217:B1 *1946:RESET_B 0.000107496
173 *1218:A *1950:RESET_B 6.08736e-05
174 *1219:B *1979:RESET_B 2.21564e-05
175 *1221:A *1113:840 0
176 *1222:B *1978:RESET_B 0.000205687
177 *1223:A1 *1943:RESET_B 3.20407e-05
178 *1223:A1 *1113:840 0.000166735
179 *1224:A *1950:RESET_B 0.00029447
180 *1226:A1 *1113:894 2.16355e-05
181 *1226:A2 *1113:880 7.0954e-05
182 *1229:A1 *1952:RESET_B 5.01107e-05
183 *1229:A1 *1113:959 1.16297e-05
184 *1232:A1 *1113:797 0.000106637
185 *1232:A1 *1113:807 0.000161727
186 *1298:A1 *2083:RESET_B 0.000107852
187 *1326:A2 *2075:RESET_B 1.77566e-05
188 *1326:A2 *1113:20 0
189 *1338:A *2071:RESET_B 0.000167404
190 *1338:A *1113:20 0
191 *1351:A0 *2067:RESET_B 8.62625e-06
192 *1352:A *2078:RESET_B 6.21456e-05
193 *1352:A *1113:20 0.000356327
194 *1353:A *2078:RESET_B 0
195 *1355:A1 *2066:RESET_B 0.000146519
196 *1492:B *1113:487 0
197 *1495:B *1975:RESET_B 5.69771e-05
198 *1495:B *1980:RESET_B 0.000107852
199 *1498:B *1978:RESET_B 5.42751e-05
200 *1518:B *1939:RESET_B 5.14106e-06
201 *1521:B *1113:441 3.27425e-05
202 *1522:A1 *1113:441 0.000288962
203 *1522:A2 *1113:441 3.96696e-05
204 *1529:A1 *1113:316 0
205 *1529:A1 *1113:323 0
206 *1530:B *1958:RESET_B 3.30132e-05
207 *1534:B1 *1926:RESET_B 5.41227e-05
208 *1535:B1 *1937:RESET_B 8.62625e-06
209 *1535:B1 *1113:161 0.000118485
210 *1537:A1 *1113:773 2.09447e-05
211 *1537:A2 *1113:773 0
212 *1537:B1 *1113:773 0
213 *1540:A2 *1959:RESET_B 6.49659e-05
214 *1554:A2 *1928:RESET_B 0.000123626
215 *1555:B2 *2066:RESET_B 0.000284026
216 *1578:A1 *1922:RESET_B 0.000156314
217 *1578:C1 *1953:RESET_B 0
218 *1580:A1 *1113:292 0
219 *1580:B1 *1113:292 2.398e-06
220 *1583:B *1113:86 6.88784e-05
221 *1587:A *2056:RESET_B 0.000150455
222 *1597:A1 *1944:RESET_B 1.43983e-05
223 *1597:A2 *1944:RESET_B 0.000171273
224 *1597:A2 *1947:RESET_B 0
225 *1597:B1 *1944:RESET_B 6.44964e-06
226 *1598:B1 *1943:RESET_B 0.000186765
227 *1598:B1 *1113:840 7.40306e-05
228 *1600:A *1951:RESET_B 7.28567e-06
229 *1603:B1 *1972:RESET_B 0
230 *1607:A1 *1113:323 2.02035e-05
231 *1607:A1 *1113:333 0.000312156
232 *1607:A2 *1939:RESET_B 5.04829e-06
233 *1607:A2 *1113:333 9.085e-06
234 *1607:B1 *1939:RESET_B 6.71544e-05
235 *1607:B1 *1113:441 0.000114606
236 *1613:B1 *1113:255 0.000122858
237 *1617:B1 *1926:RESET_B 0
238 *1618:B *1933:RESET_B 2.57276e-05
239 *1621:A2 *1963:RESET_B 0
240 *1623:B1 *1931:RESET_B 0.000106842
241 *1625:A1 *1953:RESET_B 0
242 *1628:A *1928:RESET_B 3.7351e-05
243 *1628:B *1928:RESET_B 0.000143032
244 *1628:B *1113:255 6.52573e-05
245 *1629:B1 *1928:RESET_B 0.000163418
246 *1632:B *1957:RESET_B 1.6989e-05
247 *1635:B1 *1113:170 1.76624e-05
248 *1640:B *1953:RESET_B 2.57071e-05
249 *1674:A1 *2083:RESET_B 1.16404e-05
250 *1675:B *1113:68 0
251 *1680:A *1113:559 7.08062e-05
252 *1680:B *1963:RESET_B 0
253 *1680:B *1113:559 6.27782e-05
254 *1682:A *1113:559 1.44764e-05
255 *1682:B *1113:559 0.000277588
256 *1697:A *1953:RESET_B 0
257 *1702:B *1113:255 1.97642e-05
258 *1743:B *1941:RESET_B 0.000153395
259 *1747:B *1958:RESET_B 4.4855e-05
260 *1846:A *1913:RESET_B 8.14957e-05
261 *1846:A *1113:906 6.28598e-05
262 *1850:A *2056:RESET_B 0.000110306
263 *1850:B *2056:RESET_B 0.000181629
264 *1850:B *1113:904 4.7798e-05
265 *1851:B *1912:RESET_B 1.34231e-05
266 *1906:A1 *1113:904 9.5485e-05
267 *1906:A1 *1113:906 6.32823e-05
268 *1906:A2 *1113:906 0.000127179
269 *1906:B1 *1113:906 3.89332e-06
270 *1910:D *1113:906 0
271 *1911:D *2056:RESET_B 3.64637e-05
272 *1922:D *1922:RESET_B 6.3657e-05
273 *1922:D *1953:RESET_B 0
274 *1923:D *1923:RESET_B 0
275 *1927:D *1927:RESET_B 3.28433e-06
276 *1928:D *1928:RESET_B 0.00011777
277 *1932:D *1963:RESET_B 8.20064e-05
278 *1939:D *1939:RESET_B 0.000263107
279 *1942:D *1945:RESET_B 2.02742e-05
280 *1943:D *1974:RESET_B 2.58616e-05
281 *1944:D *1944:RESET_B 4.8054e-05
282 *1945:D *1952:RESET_B 6.23423e-05
283 *1945:D *1113:959 0
284 *1946:D *1113:797 0.000127179
285 *1947:D *1113:818 3.31733e-05
286 *1947:D *1113:840 6.28484e-05
287 *1953:D *1953:RESET_B 0
288 *1957:D *1957:RESET_B 3.00174e-06
289 *1965:D *1926:RESET_B 0
290 *1966:D *1966:RESET_B 2.57847e-05
291 *1976:D *1929:RESET_B 1.03594e-05
292 *1976:D *1983:RESET_B 0.000101133
293 *1981:D *1113:559 1.75816e-05
294 *2037:RESET_B *1965:RESET_B 0
295 *2041:D *1113:68 0.000102525
296 *2042:RESET_B *1113:68 0
297 *2046:D *2078:RESET_B 0
298 *2067:D *2067:RESET_B 0.000135389
299 *2075:D *1113:20 3.04651e-05
300 *2089:D *1113:66 0
301 *2125:RESET_B *2066:RESET_B 0
302 *2125:RESET_B *1113:66 0
303 *2142:A *1928:RESET_B 1.65872e-05
304 *2145:A *1937:RESET_B 0.000114341
305 *2152:A *1113:959 0
306 *2154:A *1950:RESET_B 1.46079e-05
307 *2160:A *1952:RESET_B 0
308 *2163:A *1945:RESET_B 2.34465e-05
309 *2163:A *1113:959 7.00421e-05
310 *2167:A *1978:RESET_B 0.000450708
311 *2170:A *1113:807 0.000273616
312 *2170:A *1113:818 8.74597e-05
313 *2173:A *1113:559 6.87575e-06
314 *2489:A *2492:A 3.5534e-06
315 *117:14 *1113:441 0
316 *183:52 *1113:880 1.8906e-05
317 *183:67 *1113:880 3.1218e-05
318 *183:95 *1951:RESET_B 2.23373e-05
319 *183:138 *1113:797 0.000118604
320 *184:27 *2056:RESET_B 2.41827e-05
321 *184:40 *1113:880 0
322 *184:51 *1113:880 0
323 *184:68 *1113:749 0
324 *184:96 *1945:RESET_B 0
325 *184:96 *1113:959 0
326 *184:107 *1952:RESET_B 8.75441e-06
327 *184:113 *1952:RESET_B 7.30901e-05
328 *184:113 *1113:797 0.000432181
329 *184:119 *1113:797 4.09322e-05
330 *184:119 *1113:807 2.87279e-05
331 *184:130 *1113:818 0.000178474
332 *184:147 *1113:818 7.27172e-05
333 *184:147 *1113:840 3.17266e-05
334 *185:12 *1963:RESET_B 0
335 *185:12 *1113:487 0
336 *185:65 *1113:255 0.000159977
337 *185:128 *1928:RESET_B 0.000105191
338 *185:128 *1955:RESET_B 9.53368e-05
339 *185:128 *1113:170 0
340 *185:128 *1113:174 0
341 *185:316 *1931:RESET_B 1.72432e-05
342 *185:316 *1113:323 9.13221e-05
343 *185:329 *1927:RESET_B 0
344 *185:474 *1928:RESET_B 1.13979e-05
345 *224:12 *2492:A 0
346 *224:79 *2083:RESET_B 2.01653e-05
347 *224:79 *1113:68 0.000218372
348 *386:6 *1944:RESET_B 7.32024e-06
349 *388:10 *1113:441 1.34424e-05
350 *388:81 *1929:RESET_B 0
351 *388:83 *1929:RESET_B 0
352 *388:83 *1983:RESET_B 0
353 *388:113 *1964:RESET_B 0.000106833
354 *388:165 *1967:RESET_B 0.000154404
355 *458:126 *1113:170 0
356 *458:195 *2090:RESET_B 0.000103412
357 *458:195 *1113:86 0.000248141
358 *597:75 *1113:559 5.7545e-05
359 *597:86 *1983:RESET_B 0.000101355
360 *597:86 *1113:559 4.90082e-05
361 *597:99 *1929:RESET_B 0.000210172
362 *597:99 *1976:RESET_B 6.38014e-05
363 *597:99 *1983:RESET_B 5.72478e-05
364 *597:112 *1975:RESET_B 0
365 *598:86 *1959:RESET_B 6.36611e-05
366 *598:86 *1113:773 4.27741e-06
367 *598:115 *1937:RESET_B 0
368 *598:115 *1953:RESET_B 0
369 *598:115 *1113:161 0
370 *598:191 *1922:RESET_B 2.65732e-05
371 *598:266 *1926:RESET_B 0
372 *598:266 *1957:RESET_B 4.25153e-05
373 *598:360 *1113:170 1.67913e-05
374 *598:370 *1924:RESET_B 0
375 *598:370 *1113:174 0
376 *598:376 *1924:RESET_B 0
377 *598:376 *2492:A 0.000175676
378 *598:535 *1951:RESET_B 2.52414e-06
379 *598:535 *1979:RESET_B 9.49895e-06
380 *598:535 *1113:617 4.3317e-05
381 *598:548 *1113:615 3.80222e-05
382 *598:548 *1113:617 0.00029359
383 *598:561 *1977:RESET_B 3.00174e-06
384 *598:578 *1977:RESET_B 4.05431e-05
385 *598:686 *1911:RESET_B 0.000114313
386 *598:686 *1113:894 0.000253459
387 *611:136 *1113:161 0
388 *618:10 *1957:RESET_B 1.72432e-05
389 *624:12 *1966:RESET_B 3.34925e-05
390 *626:14 *1926:RESET_B 5.36834e-05
391 *626:14 *1957:RESET_B 0
392 *630:10 *1959:RESET_B 0.000104815
393 *725:18 *1113:615 6.93171e-05
394 *727:20 *1975:RESET_B 0
395 *732:12 *1938:RESET_B 0
396 *734:16 *1979:RESET_B 0
397 *773:38 *1113:82 8.41885e-06
398 *778:18 *1928:RESET_B 0.000164815
399 *778:18 *1113:170 0
400 *788:14 *1926:RESET_B 0
401 *789:26 *2492:A 2.40917e-06
402 *790:12 *2090:RESET_B 2.56391e-05
403 *790:12 *1113:86 5.53186e-05
404 *837:12 *2066:RESET_B 0
405 *837:12 *2067:RESET_B 0
406 *837:12 *1113:64 8.13812e-06
407 *837:12 *1113:66 0
408 *838:21 *2071:RESET_B 4.88955e-05
409 *838:58 *1934:RESET_B 0.000125199
410 *838:58 *1970:RESET_B 0
411 *838:58 *1113:333 0
412 *840:18 *2492:A 0.00053456
413 *849:16 *2067:RESET_B 7.1912e-06
414 *853:28 *1113:66 0
415 *960:10 *1963:RESET_B 0
416 *962:14 *1934:RESET_B 7.64959e-06
417 *963:10 *1980:RESET_B 0.000160561
418 *966:18 *1938:RESET_B 0.000200251
419 *967:8 *1113:441 6.50586e-05
420 *985:12 *1937:RESET_B 3.50159e-05
421 *985:12 *1113:159 2.63639e-05
422 *987:12 *1924:RESET_B 5.39608e-05
423 *987:12 *1955:RESET_B 0.00011818
424 *992:16 *1959:RESET_B 5.04829e-06
425 *994:12 *1961:RESET_B 5.6526e-05
426 *996:14 *1113:559 5.03545e-06
427 *1000:12 *1967:RESET_B 3.18748e-06
428 *1008:12 *1974:RESET_B 6.50727e-05
429 *1016:8 *1979:RESET_B 3.54565e-05
430 *1016:8 *1113:615 0
431 *1016:8 *1113:617 0
432 *1017:12 *1951:RESET_B 4.89392e-05
433 *1019:12 *1911:RESET_B 6.27782e-05
434 *1019:12 *1113:904 2.15745e-05
435 *1022:12 *1929:RESET_B 0.000167404
436 *1106:235 *1113:255 7.5094e-05
437 *1107:280 *1113:20 0
438 *1107:416 *2492:A 6.77963e-05
439 *1111:23 *1924:RESET_B 0.000213661
440 *1111:23 *2492:A 7.39969e-05
441 *1111:46 *1924:RESET_B 0
442 *1111:46 *1113:170 4.53411e-05
443 *1111:46 *1113:174 0.000111915
444 *1111:65 *1967:RESET_B 2.85997e-05
445 *1111:209 *1938:RESET_B 0
446 *1111:230 *1113:323 0
447 *1111:273 *1975:RESET_B 1.16297e-05
448 *1111:349 *1945:RESET_B 4.98091e-05
449 *1111:392 *1113:880 0.00014663
450 *1111:400 *1113:880 0.000149643
451 *1111:402 *1912:RESET_B 9.76854e-05
452 *1111:402 *1113:880 4.58648e-05
453 *1111:414 *1912:RESET_B 3.20407e-05
454 *1111:657 *1943:RESET_B 4.90533e-05
*RES
1 *2495:X *2078:RESET_B 24.2337 
2 *2078:RESET_B *1113:20 15.8828 
3 *1113:20 *2071:RESET_B 9.05006 
4 *1113:20 *2075:RESET_B 5.6936 
5 *2075:RESET_B *2067:RESET_B 19.5248 
6 *2067:RESET_B *1113:64 5.61141 
7 *1113:64 *1113:66 7.02265 
8 *1113:66 *1113:68 13.2514 
9 *1113:68 *2083:RESET_B 6.07222 
10 *1113:68 *1113:82 5.48391 
11 *1113:82 *1113:86 7.89992 
12 *1113:86 *2089:RESET_B 4.5 
13 *1113:86 *2090:RESET_B 8.65892 
14 *1113:82 *1113:109 5.48007 
15 *1113:109 *1953:RESET_B 17.9591 
16 *1113:109 *1930:RESET_B 4.5 
17 *1113:66 *2082:RESET_B 4.5 
18 *1113:64 *2066:RESET_B 11.1074 
19 *2090:RESET_B *1922:RESET_B 8.15026 
20 *1953:RESET_B *1113:159 5.6936 
21 *1113:159 *1113:161 6.39977 
22 *1113:161 *1925:RESET_B 4.5 
23 *1113:161 *1113:170 10.0393 
24 *1113:170 *1113:174 9.23876 
25 *1113:174 *1955:RESET_B 2.30281 
26 *1113:174 *1928:RESET_B 25.2141 
27 *1113:170 *1956:RESET_B 4.5 
28 *1113:159 *1937:RESET_B 27.8014 
29 *1930:RESET_B *1954:RESET_B 6.65524 
30 *1955:RESET_B *1924:RESET_B 16.2303 
31 *1928:RESET_B *1113:255 11.7198 
32 *1113:255 *1967:RESET_B 8.49545 
33 *1113:255 *1936:RESET_B 4.5 
34 *1954:RESET_B *1923:RESET_B 13.3235 
35 *1923:RESET_B *1113:292 13.3955 
36 *1113:292 *1966:RESET_B 9.57583 
37 *1113:292 *1113:302 2.24725 
38 *1113:302 *1961:RESET_B 12.9035 
39 *1113:302 *1113:316 5.64254 
40 *1113:316 *1962:RESET_B 4.5 
41 *1113:316 *1113:323 6.81502 
42 *1113:323 *1931:RESET_B 5.6936 
43 *1113:323 *1113:333 7.23027 
44 *1113:333 *1939:RESET_B 11.9871 
45 *1113:333 *1970:RESET_B 7.06479 
46 *1924:RESET_B *2492:A 36.1203 
47 *1936:RESET_B *1941:RESET_B 8.15026 
48 *1923:RESET_B *1935:RESET_B 8.15026 
49 *1966:RESET_B *1958:RESET_B 15.7685 
50 *1939:RESET_B *1113:441 18.805 
51 *1113:441 *1927:RESET_B 12.5086 
52 *1113:441 *1969:RESET_B 4.5 
53 *1970:RESET_B *1934:RESET_B 14.3778 
54 *1941:RESET_B *1113:478 5.2328 
55 *1113:478 *1972:RESET_B 10.8998 
56 *1113:478 *1113:487 6.81502 
57 *1113:487 *1932:RESET_B 4.5 
58 *1113:487 *1963:RESET_B 11.315 
59 *1935:RESET_B *1980:RESET_B 10.3687 
60 *1934:RESET_B *1113:525 14.5673 
61 *1113:525 *1926:RESET_B 11.315 
62 *1113:525 *1965:RESET_B 6.74725 
63 *1963:RESET_B *1113:559 27.1427 
64 *1113:559 *1981:RESET_B 4.5 
65 *1113:559 *1983:RESET_B 11.315 
66 *1980:RESET_B *1975:RESET_B 11.8862 
67 *1926:RESET_B *1957:RESET_B 14.9324 
68 *1981:RESET_B *1113:615 11.0461 
69 *1113:615 *1113:617 13.4591 
70 *1113:617 *1979:RESET_B 12.4631 
71 *1113:617 *1982:RESET_B 4.5 
72 *1113:615 *1973:RESET_B 4.5 
73 *1983:RESET_B *1933:RESET_B 9.25947 
74 *1983:RESET_B *1976:RESET_B 13.3235 
75 *1982:RESET_B *1951:RESET_B 8.15026 
76 *1933:RESET_B *1113:689 4.5 
77 *1113:689 *1964:RESET_B 7.94085 
78 *1113:689 *1960:RESET_B 11.315 
79 *1976:RESET_B *1929:RESET_B 24.1607 
80 *1976:RESET_B *1977:RESET_B 15.2983 
81 *1951:RESET_B *1113:749 9.23876 
82 *1113:749 *1950:RESET_B 11.7022 
83 *1113:749 *1948:RESET_B 4.5 
84 *1964:RESET_B *1113:773 11.315 
85 *1113:773 *1959:RESET_B 10.0171 
86 *1113:773 *1968:RESET_B 4.5 
87 *1977:RESET_B *1113:797 16.6156 
88 *1113:797 *1946:RESET_B 6.80281 
89 *1113:797 *1113:807 6.81502 
90 *1113:807 *1949:RESET_B 4.5 
91 *1113:807 *1113:818 8.13406 
92 *1113:818 *1113:820 4.5 
93 *1113:820 *1944:RESET_B 9.15096 
94 *1113:820 *1947:RESET_B 2.88153 
95 *1113:818 *1113:840 5.56926 
96 *1113:840 *1978:RESET_B 10.1545 
97 *1113:840 *1943:RESET_B 13.0493 
98 *1977:RESET_B *1952:RESET_B 15.815 
99 *1950:RESET_B *1113:880 11.315 
100 *1113:880 *1912:RESET_B 10.1593 
101 *1113:880 *1113:894 10.2148 
102 *1113:894 *1911:RESET_B 2.85741 
103 *1113:894 *1113:904 11.315 
104 *1113:904 *1113:906 8.89128 
105 *1113:906 *1913:RESET_B 12.0962 
106 *1113:906 *1910:RESET_B 4.5 
107 *1113:904 *2056:RESET_B 14.5673 
108 *1943:RESET_B *1974:RESET_B 19.344 
109 *1952:RESET_B *1113:959 12.5086 
110 *1113:959 *1945:RESET_B 11.315 
111 *1113:959 *1942:RESET_B 4.5 
112 *1974:RESET_B *1938:RESET_B 18.8681 
*END

*D_NET *1112 0.0387843
*CONN
*I *1893:A I *D sky130_fd_sc_hd__nand2_1
*I *1305:A I *D sky130_fd_sc_hd__nand2_1
*I *1885:A I *D sky130_fd_sc_hd__nand2_1
*I *1309:A I *D sky130_fd_sc_hd__nand2_1
*I *1251:A I *D sky130_fd_sc_hd__inv_6
*I *1353:A I *D sky130_fd_sc_hd__nand2_1
*I *1354:A1 I *D sky130_fd_sc_hd__o21ai_0
*I *1313:A I *D sky130_fd_sc_hd__nand2_1
*I *1350:A1 I *D sky130_fd_sc_hd__o21ai_0
*I *1349:A I *D sky130_fd_sc_hd__nand2_1
*I *1336:A I *D sky130_fd_sc_hd__nand2_1
*I *1340:A I *D sky130_fd_sc_hd__nand2_1
*I *1302:A1 I *D sky130_fd_sc_hd__o21ai_0
*I *1301:A I *D sky130_fd_sc_hd__nand2_1
*I *1295:A I *D sky130_fd_sc_hd__nand2_1
*I *1296:A1 I *D sky130_fd_sc_hd__o21ai_0
*I *1833:A I *D sky130_fd_sc_hd__nand2_1
*I *1834:A1 I *D sky130_fd_sc_hd__o21ai_0
*I *1829:A I *D sky130_fd_sc_hd__nand2_1
*I *1830:A1 I *D sky130_fd_sc_hd__o21ai_0
*I *1332:A I *D sky130_fd_sc_hd__nand2_1
*I *1865:A I *D sky130_fd_sc_hd__xor2_1
*I *1256:B I *D sky130_fd_sc_hd__nand2_1
*I *1257:A1 I *D sky130_fd_sc_hd__o21ai_1
*I *1346:A1 I *D sky130_fd_sc_hd__o21ai_0
*I *1345:A I *D sky130_fd_sc_hd__nand2_1
*I *1289:A I *D sky130_fd_sc_hd__nand2_1
*I *1290:A1 I *D sky130_fd_sc_hd__o21ai_0
*I *1277:A1 I *D sky130_fd_sc_hd__a21oi_1
*I *1276:A I *D sky130_fd_sc_hd__nor2_1
*I *1248:B1 I *D sky130_fd_sc_hd__a21oi_1
*I *2494:X O *D sky130_fd_sc_hd__buf_4
*CAP
1 *1893:A 0.000392281
2 *1305:A 2.76768e-05
3 *1885:A 0
4 *1309:A 0
5 *1251:A 0
6 *1353:A 0.000231935
7 *1354:A1 0
8 *1313:A 6.12143e-05
9 *1350:A1 0
10 *1349:A 0.000103763
11 *1336:A 1.59894e-05
12 *1340:A 0.000341185
13 *1302:A1 0
14 *1301:A 1.36395e-05
15 *1295:A 0
16 *1296:A1 0.000121983
17 *1833:A 5.54297e-05
18 *1834:A1 4.65695e-05
19 *1829:A 0
20 *1830:A1 0.000121074
21 *1332:A 0
22 *1865:A 0
23 *1256:B 5.91956e-05
24 *1257:A1 0
25 *1346:A1 1.23957e-05
26 *1345:A 0
27 *1289:A 2.6916e-05
28 *1290:A1 2.62617e-05
29 *1277:A1 8.90872e-05
30 *1276:A 3.65161e-05
31 *1248:B1 0
32 *2494:X 6.81322e-05
33 *1112:393 0.000830326
34 *1112:380 0.000410368
35 *1112:348 0.000288898
36 *1112:335 0.000322111
37 *1112:313 0.000800881
38 *1112:299 0.00151746
39 *1112:286 0.000765732
40 *1112:282 0.000525705
41 *1112:274 0.000764219
42 *1112:243 0.000550068
43 *1112:222 0.000675913
44 *1112:220 0.00048067
45 *1112:218 0.000553278
46 *1112:203 0.000689534
47 *1112:190 0.000580833
48 *1112:179 0.000488861
49 *1112:161 0.00013716
50 *1112:157 0.000986266
51 *1112:153 0.00159343
52 *1112:132 0.00123048
53 *1112:103 0.000195657
54 *1112:85 0.00030631
55 *1112:68 0.000499384
56 *1112:55 0.000767173
57 *1112:44 0.000651445
58 *1112:35 0.000330237
59 *1112:31 0.000735693
60 *1112:18 0.000574055
61 *1112:10 0.000417625
62 *1112:6 0.000521437
63 *1301:A *2014:CLK 1.88563e-05
64 *1349:A *1119:12 0.000216088
65 *1353:A *2078:RESET_B 0
66 *1833:A *2002:CLK 2.58757e-05
67 *1893:A *1115:16 0.000252223
68 *1893:A *1115:100 8.42648e-05
69 *1112:6 *1137:32 0.000151342
70 *1112:10 *1137:32 2.16355e-05
71 *1112:18 *2005:CLK 3.44412e-06
72 *1112:55 *1990:CLK 0
73 *1112:68 *1990:CLK 8.36429e-06
74 *1112:68 *1114:10 0
75 *1112:85 *1114:10 0
76 *1112:132 *1908:CLK 5.37077e-05
77 *1112:132 *2073:CLK 0.00035481
78 *1112:153 *1115:30 5.66878e-05
79 *1112:179 *1117:12 0
80 *1112:179 *1117:16 0
81 *1112:190 *1117:12 0
82 *1112:203 *1117:10 0
83 *1112:203 *1117:72 0
84 *1112:218 *1117:72 0
85 *1112:243 *2014:CLK 0.000114271
86 *1112:274 *2079:CLK 0.00020053
87 *1112:274 *1117:72 0
88 *1112:282 *2000:CLK 0
89 *1112:393 *2080:CLK 0.000134976
90 *1112:393 *1115:16 0.000187005
91 *1112:393 *1115:24 9.3044e-05
92 *1247:A *1112:18 3.37311e-05
93 *1247:A *1112:31 7.62471e-05
94 *1248:A2 *1112:31 3.92912e-05
95 *1256:A *1112:103 0
96 *1257:A2 *1256:B 1.97273e-05
97 *1257:A2 *1112:103 0
98 *1257:B1 *1256:B 8.18932e-05
99 *1257:B1 *1112:103 0.000118166
100 *1283:A3 *1277:A1 7.09666e-06
101 *1290:B1 *1112:68 0.000113295
102 *1300:A *1112:243 0.000345027
103 *1302:A2 *1112:243 0.00011911
104 *1302:B1 *1301:A 6.27782e-05
105 *1302:B1 *1112:243 7.04924e-05
106 *1308:A3 *1893:A 7.09666e-06
107 *1308:A3 *1112:393 0.000107052
108 *1309:B *1112:274 1.63255e-05
109 *1312:A2 *1112:274 5.03013e-06
110 *1326:A2 *1336:A 1.43848e-05
111 *1336:B *1112:286 3.67528e-06
112 *1336:B *1112:299 3.57155e-05
113 *1339:A2 *1336:A 6.50586e-05
114 *1341:A *1340:A 0
115 *1343:A2 *1340:A 1.61631e-05
116 *1343:A3 *1340:A 0
117 *1350:A2 *1112:313 6.08467e-05
118 *1350:B1 *1112:313 6.50586e-05
119 *1354:B1 *1353:A 0.000108707
120 *1382:A0 *1112:157 3.00174e-06
121 *1385:A0 *1340:A 0.000481861
122 *1385:A1 *1340:A 4.33819e-05
123 *1385:A1 *1112:218 0
124 *1385:S *1340:A 6.20449e-05
125 *1385:S *1112:222 0.000212208
126 *1385:S *1112:243 2.39581e-05
127 *1389:A0 *1112:313 0.000196517
128 *1398:A0 *1112:157 0
129 *1400:A0 *1112:243 0.000574566
130 *1419:A *1112:157 0
131 *1419:B *1112:157 0.000113941
132 *1422:A *1112:132 8.64054e-06
133 *1423:B *1112:132 0
134 *1425:B *1112:286 1.03986e-05
135 *1425:B *1112:299 1.77537e-06
136 *1429:B *1112:218 0
137 *1432:B *1112:179 0
138 *1433:B *1112:190 2.43971e-05
139 *1433:B *1112:203 3.15977e-05
140 *1437:A *1112:274 2.51852e-05
141 *1437:B *1112:282 0.000116652
142 *1439:A *1112:274 3.25052e-05
143 *1454:A1 *1112:190 5.17747e-05
144 *1454:A1 *1112:203 2.81104e-05
145 *1456:A1 *1346:A1 0.00011818
146 *1458:A2 *1349:A 1.77537e-06
147 *1459:A *1353:A 0
148 *1460:A1 *1353:A 2.99287e-05
149 *1460:A1 *1112:335 5.4109e-05
150 *1460:A1 *1112:348 7.28922e-05
151 *1460:B1 *1353:A 0
152 *1474:A1 *1112:31 0.000503083
153 *1476:A1 *1112:31 4.99402e-05
154 *1487:A *1830:A1 9.81288e-06
155 *1487:A *1112:161 6.27718e-05
156 *1829:B *1830:A1 6.27332e-05
157 *1830:B1 *1830:A1 0.000114271
158 *1834:A2 *1834:A1 6.92705e-05
159 *1834:B1 *1112:190 0.0001261
160 *1860:A *1112:132 0.000114847
161 *1865:B *1112:10 4.2372e-05
162 *1888:A1 *1112:153 7.87187e-05
163 *1888:A1 *1112:393 0.00021217
164 *1888:A2 *1112:393 3.54227e-05
165 *1888:B1 *1112:393 1.65872e-05
166 *1984:RESET_B *1112:31 0.000144525
167 *1984:RESET_B *1112:103 0.000177437
168 *1989:RESET_B *1112:55 0
169 *1991:D *1313:A 0.000130777
170 *1999:RESET_B *1112:299 0
171 *2000:RESET_B *1112:274 8.44703e-05
172 *2001:RESET_B *1893:A 0.000253753
173 *2004:RESET_B *1112:299 0
174 *2006:RESET_B *1112:157 0.00011946
175 *2014:D *1112:243 0.000122378
176 *2017:D *1112:299 0
177 *2017:D *1112:313 2.8718e-05
178 *2017:RESET_B *1112:335 4.70402e-05
179 *2027:D *1112:157 2.7961e-05
180 *2027:RESET_B *1305:A 0.000161234
181 *2027:RESET_B *1893:A 0.000308804
182 *2028:D *1112:179 0.000130777
183 *2029:D *1340:A 0.000171288
184 *2029:D *1112:222 2.15184e-05
185 *2029:D *1112:274 9.40857e-05
186 *2057:RESET_B *1112:153 5.78454e-05
187 *2073:D *1112:132 8.51202e-05
188 *2073:D *1112:153 0.000133813
189 *340:10 *1830:A1 0.000213449
190 *340:10 *1112:161 1.00766e-05
191 *374:16 *1833:A 3.56745e-05
192 *436:8 *1112:282 7.88559e-05
193 *436:94 *1893:A 0.000161044
194 *436:94 *1112:393 2.49123e-05
195 *436:196 *1833:A 0.000160047
196 *436:249 *1112:286 0
197 *461:10 *1276:A 2.58616e-05
198 *461:10 *1277:A1 8.74843e-05
199 *462:28 *1112:10 0.000111627
200 *462:28 *1112:18 0.000250054
201 *468:30 *1112:6 0.000341287
202 *468:30 *1112:10 0.000606118
203 *468:30 *1112:18 0.000247242
204 *475:8 *1112:393 0.000810212
205 *480:8 *1296:A1 0.000483474
206 *483:6 *1112:243 0.000197841
207 *517:12 *1112:85 1.05272e-06
208 *519:10 *1112:85 0
209 *523:6 *1353:A 1.88014e-05
210 *548:12 *1112:282 7.52101e-05
211 *548:12 *1112:286 0
212 *548:32 *1893:A 0.000579559
213 *548:52 *1112:157 0
214 *548:65 *1112:31 0
215 *548:65 *1112:55 9.27017e-05
216 *548:65 *1112:103 0
217 *672:24 *1112:243 0.000109348
218 *686:16 *1289:A 2.58757e-05
219 *688:22 *1112:157 0.000397656
220 *688:22 *1112:179 0.000356582
221 *691:16 *1256:B 0.000187946
222 *691:16 *1112:103 4.33655e-05
223 *691:22 *1112:153 0
224 *763:33 *1305:A 0.000161234
225 *850:16 *1353:A 6.3657e-05
226 *850:20 *1112:299 0
227 *1044:10 *1112:299 3.75329e-05
228 *1073:16 *1340:A 4.49957e-05
229 *1075:14 *1112:132 8.62625e-06
230 *1075:14 *1112:153 0.000114955
231 *1104:212 *1112:157 8.8463e-05
232 *1104:230 *1346:A1 0.00011818
233 *1104:365 *1112:313 0.000223975
234 *1104:389 *1112:313 0.000110583
235 *1108:47 *1276:A 4.89251e-05
236 *1108:47 *1277:A1 5.75197e-05
237 *1108:47 *1112:35 4.47179e-05
238 *1108:47 *1112:55 2.33416e-05
239 *1109:108 *1112:68 0
240 *1109:289 *1296:A1 0.000351385
241 *1109:295 *1112:190 0
242 *1109:295 *1112:203 0
243 *1109:376 *1349:A 5.77061e-05
244 *1109:422 *1313:A 0.000172696
245 *1109:422 *1353:A 0
246 *1109:422 *1112:299 0
247 *1109:479 *1112:31 0.00026225
248 *1110:219 *1112:179 0
249 *1110:352 *1112:85 0.000330195
*RES
1 *2494:X *1112:6 13.3002 
2 *1112:6 *1112:10 7.40275 
3 *1112:10 *1112:18 19.1777 
4 *1112:18 *1248:B1 9.24915 
5 *1112:18 *1112:31 15.6745 
6 *1112:31 *1112:35 11.324 
7 *1112:35 *1276:A 10.5271 
8 *1112:35 *1112:44 4.5 
9 *1112:44 *1277:A1 16.4116 
10 *1112:44 *1112:55 13.4591 
11 *1112:55 *1290:A1 14.4819 
12 *1112:55 *1112:68 4.64105 
13 *1112:68 *1289:A 14.4725 
14 *1112:68 *1112:85 12.7806 
15 *1112:85 *1345:A 9.24915 
16 *1112:85 *1346:A1 10.5271 
17 *1112:31 *1112:103 9.68626 
18 *1112:103 *1257:A1 9.24915 
19 *1112:103 *1256:B 13.1555 
20 *1112:10 *1865:A 9.24915 
21 *1112:6 *1112:132 15.4675 
22 *1112:132 *1332:A 13.7491 
23 *1112:132 *1112:153 28.2916 
24 *1112:153 *1112:157 18.4909 
25 *1112:157 *1112:161 5.2234 
26 *1112:161 *1830:A1 14.3129 
27 *1112:161 *1829:A 9.24915 
28 *1112:157 *1112:179 9.72179 
29 *1112:179 *1834:A1 15.0271 
30 *1112:179 *1112:190 4.32351 
31 *1112:190 *1833:A 16.1605 
32 *1112:190 *1112:203 9.30653 
33 *1112:203 *1296:A1 21.3207 
34 *1112:203 *1112:218 3.90826 
35 *1112:218 *1112:220 4.5 
36 *1112:220 *1112:222 5.16022 
37 *1112:222 *1295:A 9.24915 
38 *1112:222 *1112:243 28.1559 
39 *1112:243 *1301:A 9.97254 
40 *1112:243 *1302:A1 9.24915 
41 *1112:220 *1340:A 20.5582 
42 *1112:218 *1112:274 14.9696 
43 *1112:274 *1112:282 19.866 
44 *1112:282 *1112:286 7.57775 
45 *1112:286 *1336:A 14.4725 
46 *1112:286 *1112:299 18.3743 
47 *1112:299 *1112:313 21.5813 
48 *1112:313 *1349:A 22.1574 
49 *1112:313 *1350:A1 9.24915 
50 *1112:299 *1112:335 5.35313 
51 *1112:335 *1313:A 21.3269 
52 *1112:335 *1112:348 1.8326 
53 *1112:348 *1354:A1 9.24915 
54 *1112:348 *1353:A 24.1588 
55 *1112:282 *1251:A 9.24915 
56 *1112:274 *1309:A 9.24915 
57 *1112:153 *1112:380 4.5 
58 *1112:380 *1885:A 9.24915 
59 *1112:380 *1112:393 20.5156 
60 *1112:393 *1305:A 15.5817 
61 *1112:393 *1893:A 31.6689 
*END

*D_NET *1111 0.067604
*CONN
*I *1182:B I *D sky130_fd_sc_hd__nand2_1
*I *1222:A I *D sky130_fd_sc_hd__nand2_1
*I *1223:A1 I *D sky130_fd_sc_hd__o21ai_0
*I *1183:A1 I *D sky130_fd_sc_hd__o21ai_0
*I *1185:A I *D sky130_fd_sc_hd__nand2_1
*I *1232:A1 I *D sky130_fd_sc_hd__o21ai_0
*I *1217:A1 I *D sky130_fd_sc_hd__o21ai_0
*I *1186:A1 I *D sky130_fd_sc_hd__o21ai_0
*I *1204:A I *D sky130_fd_sc_hd__nand2_1
*I *1700:A I *D sky130_fd_sc_hd__nand2_1
*I *1229:A1 I *D sky130_fd_sc_hd__o21ai_0
*I *1228:A I *D sky130_fd_sc_hd__nand2_1
*I *1213:A I *D sky130_fd_sc_hd__nand2_1
*I *1214:A1 I *D sky130_fd_sc_hd__o21ai_0
*I *1192:A I *D sky130_fd_sc_hd__nand2_1
*I *1193:A1 I *D sky130_fd_sc_hd__o21ai_0
*I *1210:A I *D sky130_fd_sc_hd__nand2_1
*I *1225:A I *D sky130_fd_sc_hd__nand2_1
*I *1226:A1 I *D sky130_fd_sc_hd__o21ai_0
*I *1905:A I *D sky130_fd_sc_hd__nand2_1
*I *1906:A1 I *D sky130_fd_sc_hd__o21ai_0
*I *1735:A1 I *D sky130_fd_sc_hd__o21ai_0
*I *1734:A I *D sky130_fd_sc_hd__nand2_1
*I *1220:A1 I *D sky130_fd_sc_hd__o21ai_0
*I *1219:A I *D sky130_fd_sc_hd__nand2_1
*I *1211:A1 I *D sky130_fd_sc_hd__o21ai_0
*I *1678:A I *D sky130_fd_sc_hd__nand2_1
*I *1681:A I *D sky130_fd_sc_hd__nand2_1
*I *1231:A I *D sky130_fd_sc_hd__nand2_1
*I *1216:A I *D sky130_fd_sc_hd__nand2_1
*I *1195:A I *D sky130_fd_sc_hd__nand2_1
*I *1694:A I *D sky130_fd_sc_hd__nand2_1
*I *1713:A I *D sky130_fd_sc_hd__nand2_1
*I *1234:A I *D sky130_fd_sc_hd__nand2_1
*I *1187:A I *D sky130_fd_sc_hd__inv_6
*I *1706:A I *D sky130_fd_sc_hd__nand2_1
*I *1747:A I *D sky130_fd_sc_hd__nand2_1
*I *1728:A I *D sky130_fd_sc_hd__nand2_1
*I *1697:A I *D sky130_fd_sc_hd__nand2_1
*I *1731:A I *D sky130_fd_sc_hd__nand2_1
*I *1201:A I *D sky130_fd_sc_hd__nand2_1
*I *1703:A I *D sky130_fd_sc_hd__nand2_1
*I *1189:A I *D sky130_fd_sc_hd__nand2_1
*I *1744:A I *D sky130_fd_sc_hd__nand2_1
*I *1719:A I *D sky130_fd_sc_hd__nand2_1
*I *1722:A I *D sky130_fd_sc_hd__nand2_1
*I *1198:A I *D sky130_fd_sc_hd__nand2_1
*I *2493:X O *D sky130_fd_sc_hd__buf_4
*CAP
1 *1182:B 0
2 *1222:A 0
3 *1223:A1 0.000165479
4 *1183:A1 3.15046e-05
5 *1185:A 3.32677e-05
6 *1232:A1 0.000282908
7 *1217:A1 2.28361e-05
8 *1186:A1 4.06878e-05
9 *1204:A 3.48703e-05
10 *1700:A 0
11 *1229:A1 0.000375139
12 *1228:A 7.26247e-05
13 *1213:A 0
14 *1214:A1 0.000220662
15 *1192:A 2.65872e-05
16 *1193:A1 6.59744e-05
17 *1210:A 0
18 *1225:A 0
19 *1226:A1 5.9908e-05
20 *1905:A 0
21 *1906:A1 0.000267332
22 *1735:A1 0
23 *1734:A 9.89161e-06
24 *1220:A1 0
25 *1219:A 1.28106e-05
26 *1211:A1 0
27 *1678:A 0
28 *1681:A 0.000328748
29 *1231:A 0.000509025
30 *1216:A 4.62283e-05
31 *1195:A 2.7858e-05
32 *1694:A 0.000197553
33 *1713:A 0.000546889
34 *1234:A 0.000976042
35 *1187:A 0.000140113
36 *1706:A 0
37 *1747:A 0
38 *1728:A 0
39 *1697:A 0.000571561
40 *1731:A 0.000163908
41 *1201:A 9.09532e-05
42 *1703:A 0.000171329
43 *1189:A 0.000989681
44 *1744:A 5.08342e-05
45 *1719:A 0
46 *1722:A 1.47204e-05
47 *1198:A 0
48 *2493:X 0.000431397
49 *1111:657 0.000275815
50 *1111:644 0.0005176
51 *1111:603 0.000631457
52 *1111:595 0.000485328
53 *1111:582 0.000657291
54 *1111:580 0.000902653
55 *1111:578 0.000803854
56 *1111:561 0.000942198
57 *1111:519 0.000735941
58 *1111:493 0.000220662
59 *1111:434 0.000408265
60 *1111:414 0.000397657
61 *1111:402 0.000577667
62 *1111:400 0.000227214
63 *1111:392 0.000386165
64 *1111:379 0.000400201
65 *1111:366 0.000371228
66 *1111:360 0.000320765
67 *1111:349 0.000355904
68 *1111:343 0.000545636
69 *1111:339 0.00055136
70 *1111:333 0.000313803
71 *1111:331 0.00153271
72 *1111:305 0.000471609
73 *1111:303 0.00184588
74 *1111:299 0.00139131
75 *1111:273 0.00143835
76 *1111:230 0.00129329
77 *1111:211 0.00167662
78 *1111:209 0.000840169
79 *1111:196 0.00135267
80 *1111:185 0.000943698
81 *1111:181 0.00150558
82 *1111:172 0.000630375
83 *1111:164 0.00191961
84 *1111:151 0.000873288
85 *1111:123 0.00138881
86 *1111:117 0.00140788
87 *1111:100 0.00105404
88 *1111:65 0.00166701
89 *1111:61 0.00112492
90 *1111:55 0.000918427
91 *1111:46 0.00087858
92 *1111:23 0.00123107
93 *1111:10 0.00101343
94 *1183:A1 *1943:RESET_B 5.23577e-05
95 *1189:A *1972:CLK 0.000377273
96 *1219:A *1948:CLK 2.58616e-05
97 *1223:A1 *1943:RESET_B 3.20407e-05
98 *1223:A1 *1113:840 0.000166735
99 *1226:A1 *1113:894 2.16355e-05
100 *1229:A1 *1952:RESET_B 5.01107e-05
101 *1229:A1 *1113:959 1.16297e-05
102 *1231:A *1946:CLK 2.44829e-05
103 *1231:A *1128:67 6.31665e-05
104 *1232:A1 *1113:797 0.000106637
105 *1232:A1 *1113:807 0.000161727
106 *1234:A *1970:CLK 0.00021561
107 *1681:A *1132:37 0
108 *1697:A *1953:RESET_B 0
109 *1697:A *1954:CLK 0.000325832
110 *1713:A *1931:CLK 0.000111708
111 *1731:A *1954:CLK 0.000192837
112 *1906:A1 *1113:904 9.5485e-05
113 *1906:A1 *1113:906 6.32823e-05
114 *1111:23 *1924:RESET_B 0.000213661
115 *1111:23 *2492:A 7.39969e-05
116 *1111:46 *1924:RESET_B 0
117 *1111:46 *1113:170 4.53411e-05
118 *1111:46 *1113:174 0.000111915
119 *1111:61 *1959:CLK 0.000144044
120 *1111:61 *1131:6 0.000204664
121 *1111:61 *1131:8 2.65667e-05
122 *1111:61 *1143:16 0
123 *1111:65 *1967:RESET_B 2.85997e-05
124 *1111:100 *1959:CLK 8.36586e-06
125 *1111:117 *1143:10 0
126 *1111:123 *2525:A 6.55265e-05
127 *1111:123 *1141:51 2.16355e-06
128 *1111:123 *1143:10 8.6488e-06
129 *1111:172 *1129:8 6.52332e-05
130 *1111:172 *1129:53 5.01668e-05
131 *1111:209 *1938:RESET_B 0
132 *1111:230 *1113:323 0
133 *1111:230 *1143:185 0.000115826
134 *1111:273 *1975:RESET_B 1.16297e-05
135 *1111:273 *1980:CLK 6.73351e-05
136 *1111:299 *1929:CLK 1.78942e-05
137 *1111:349 *1945:RESET_B 4.98091e-05
138 *1111:366 *1948:CLK 0.000166219
139 *1111:366 *1132:88 0.000171274
140 *1111:392 *1113:880 0.00014663
141 *1111:400 *1912:CLK 0.000116439
142 *1111:400 *1113:880 0.000149643
143 *1111:402 *1912:RESET_B 9.76854e-05
144 *1111:402 *1912:CLK 0.000136788
145 *1111:402 *1113:880 4.58648e-05
146 *1111:414 *1912:RESET_B 3.20407e-05
147 *1111:414 *1912:CLK 5.57012e-05
148 *1111:561 *1127:27 0
149 *1111:657 *1943:RESET_B 4.90533e-05
150 axi_lite_o[10] *1111:331 0
151 axi_lite_o[14] *1111:339 0
152 axi_lite_o[3] *1228:A 3.20407e-05
153 axi_lite_o[6] *1111:100 6.67641e-06
154 axi_lite_o[6] *1111:331 0
155 *1182:A *1111:578 8.83997e-05
156 *1182:A *1111:644 2.84892e-05
157 *1183:B1 *1111:644 7.28567e-06
158 *1186:A2 *1111:582 7.26877e-05
159 *1186:A2 *1111:595 8.62625e-06
160 *1186:B1 *1185:A 7.01935e-06
161 *1186:B1 *1111:595 3.99713e-05
162 *1189:B *1189:A 4.42738e-05
163 *1190:B *1189:A 3.14978e-05
164 *1192:B *1192:A 0
165 *1192:B *1111:339 0.000211546
166 *1193:B1 *1192:A 6.27718e-05
167 *1194:A *1111:209 6.50727e-05
168 *1195:B *1234:A 6.08467e-05
169 *1195:B *1111:211 0.000377273
170 *1195:B *1111:230 2.95757e-05
171 *1196:A *1111:209 1.98996e-05
172 *1196:B *1195:A 5.98774e-05
173 *1196:B *1111:209 9.89555e-05
174 *1197:B *1111:23 4.23255e-05
175 *1202:A *1201:A 1.32609e-05
176 *1202:B *1201:A 6.08467e-05
177 *1205:B *1111:578 3.43721e-06
178 *1210:B *1111:360 1.64789e-05
179 *1211:B1 *1111:360 0.000274929
180 *1211:B1 *1111:366 1.00981e-05
181 *1213:B *1214:A1 4.31603e-06
182 *1214:B1 *1214:A1 7.71476e-05
183 *1216:B *1216:A 1.59756e-05
184 *1216:B *1111:273 9.44106e-05
185 *1217:A2 *1217:A1 9.0818e-06
186 *1217:B1 *1231:A 2.27448e-05
187 *1217:B1 *1232:A1 0.000140777
188 *1220:B1 *1219:A 3.00829e-05
189 *1220:B1 *1111:379 2.51424e-05
190 *1220:B1 *1111:392 1.22892e-05
191 *1223:B1 *1223:A1 0
192 *1225:B *1111:400 5.04829e-06
193 *1226:B1 *1111:400 6.50727e-05
194 *1235:B *1234:A 2.93844e-05
195 *1494:A *1231:A 2.84661e-05
196 *1494:A *1111:273 1.9503e-05
197 *1495:B *1111:273 0.000139547
198 *1498:A *1111:578 2.67514e-05
199 *1498:A *1111:580 3.00174e-06
200 *1498:B *1111:578 2.05513e-06
201 *1498:B *1111:582 6.93171e-05
202 *1499:B *1111:578 9.25052e-05
203 *1503:B *1214:A1 6.08467e-05
204 *1503:B *1111:333 1.91246e-05
205 *1503:B *1111:339 5.13937e-05
206 *1503:B *1111:519 0.000229639
207 *1508:A *1681:A 1.88422e-05
208 *1508:B *1681:A 3.26478e-05
209 *1512:B *1189:A 0.000259321
210 *1517:A1 *1713:A 0.000130052
211 *1518:B *1111:230 0.000184332
212 *1524:B *1201:A 4.25952e-05
213 *1529:A1 *1713:A 2.69795e-05
214 *1529:A2 *1697:A 0.000117723
215 *1529:B1 *1713:A 0.000160493
216 *1533:B *1234:A 1.64789e-05
217 *1539:B *1681:A 0.000259225
218 *1545:B *1697:A 7.17435e-06
219 *1553:B *1703:A 6.92163e-05
220 *1554:B1 *1111:65 2.7961e-05
221 *1566:B *1111:46 0.000238819
222 *1573:B *1722:A 4.80635e-06
223 *1573:B *1111:23 6.55265e-05
224 *1579:B *1111:164 2.41274e-06
225 *1589:A1 *1214:A1 0.000147781
226 *1590:A1 *1111:360 8.60009e-05
227 *1591:B1 *1111:392 7.13655e-06
228 *1592:A1 *1217:A1 2.07893e-05
229 *1592:A1 *1232:A1 1.65872e-05
230 *1592:A1 *1111:603 2.4029e-05
231 *1592:A2 *1111:603 2.16355e-05
232 *1592:B1 *1111:603 6.27718e-05
233 *1593:A2 *1111:400 3.03798e-05
234 *1594:A1 *1223:A1 7.97944e-05
235 *1598:A1 *1111:644 0.000401098
236 *1598:A2 *1111:582 0
237 *1599:A1 *1192:A 0
238 *1599:A1 *1193:A1 1.19705e-05
239 *1599:A1 *1111:343 5.51483e-06
240 *1599:A2 *1192:A 2.44243e-05
241 *1599:A2 *1193:A1 0
242 *1599:A2 *1111:343 7.75118e-05
243 *1599:B1 *1193:A1 5.04829e-06
244 *1599:B1 *1111:343 2.16355e-05
245 *1604:A *1111:23 0
246 *1613:B1 *1111:65 2.98969e-05
247 *1614:B *1111:181 1.44764e-05
248 *1623:A1 *1713:A 6.27718e-05
249 *1623:A2 *1713:A 1.65872e-05
250 *1636:B *1111:23 5.12484e-05
251 *1640:B *1697:A 0
252 *1677:B *1111:303 4.27119e-05
253 *1677:B *1111:305 7.86825e-06
254 *1679:A *1681:A 3.44412e-06
255 *1679:A *1111:305 3.84056e-05
256 *1680:A *1681:A 0
257 *1680:A *1111:305 0
258 *1694:B *1694:A 4.31703e-05
259 *1695:B *1694:A 6.92705e-05
260 *1698:B *1697:A 2.0567e-05
261 *1702:A *1111:65 0
262 *1702:B *1111:65 0.000196193
263 *1704:B *1111:65 0
264 *1721:B *1722:A 0
265 *1721:B *1111:46 1.02267e-05
266 *1723:A *1111:46 5.04829e-06
267 *1723:B *1722:A 1.09551e-05
268 *1723:B *1111:23 3.00829e-05
269 *1723:B *1111:46 3.00829e-05
270 *1728:B *1111:151 5.22654e-06
271 *1728:B *1111:164 0.000113792
272 *1731:B *1731:A 6.27718e-05
273 *1732:B *1731:A 3.48445e-05
274 *1735:B1 *1734:A 6.27718e-05
275 *1735:B1 *1111:414 1.88422e-05
276 *1743:B *1111:65 5.13058e-05
277 *1745:A *1744:A 1.79672e-05
278 *1745:A *1111:65 1.71317e-05
279 *1746:A *1111:181 0.000160588
280 *1746:A *1111:273 3.21102e-05
281 *1746:B *1111:172 1.65581e-05
282 *1746:B *1111:181 0.0001276
283 *1748:A *1111:172 7.62098e-06
284 *1748:A *1111:181 1.28242e-05
285 *1748:B *1111:172 1.03594e-05
286 *1848:A1 *1734:A 6.46815e-05
287 *1848:A2 *1111:414 3.56119e-05
288 *1849:A *1906:A1 6.27782e-05
289 *1849:A *1111:434 5.88519e-05
290 *1851:A *1111:434 6.08467e-05
291 *1851:B *1906:A1 1.16107e-05
292 *1851:B *1111:414 1.53822e-05
293 *1851:B *1111:434 1.44764e-05
294 *1852:B *1906:A1 1.88563e-05
295 *1852:B *1111:434 0.00016195
296 *1853:A *1111:10 0.000193358
297 *1853:A *1111:23 0.000390573
298 *1905:B *1111:434 1.63255e-05
299 *1906:B1 *1906:A1 0.000308994
300 *1912:D *1111:414 4.78554e-05
301 *1931:D *1713:A 5.04829e-06
302 *1949:D *1111:603 0.000109421
303 *1951:D *1111:366 4.08704e-05
304 *1959:D *1111:65 0
305 *1972:D *1189:A 2.29419e-05
306 *1978:D *1111:578 1.4091e-06
307 *1980:D *1111:273 0
308 *2053:RESET_B *1111:10 2.33374e-05
309 *2139:A *1186:A1 2.41274e-06
310 *2139:A *1111:595 0.000107643
311 *2139:A *1111:603 0.000176652
312 *2170:A *1111:603 4.58959e-05
313 *2493:A *1111:10 6.46815e-05
314 *183:52 *1111:400 1.12605e-05
315 *183:52 *1111:414 1.94615e-05
316 *183:67 *1111:379 3.44412e-06
317 *183:67 *1111:392 0
318 *183:78 *1111:366 2.44579e-05
319 *183:78 *1111:379 4.50318e-05
320 *183:95 *1111:366 3.99993e-05
321 *183:121 *1111:339 0
322 *183:125 *1228:A 9.54356e-05
323 *183:138 *1228:A 5.23577e-05
324 *183:138 *1231:A 1.2693e-05
325 *183:142 *1231:A 0.000122083
326 *183:155 *1111:582 0
327 *183:168 *1111:582 0
328 *184:27 *1111:414 0.000112361
329 *184:40 *1111:414 0.00018579
330 *184:51 *1111:392 9.93931e-05
331 *184:68 *1111:349 1.07248e-05
332 *184:68 *1111:392 2.25583e-07
333 *184:77 *1111:349 0.000500467
334 *184:107 *1228:A 4.217e-05
335 *184:113 *1232:A1 8.62625e-06
336 *185:228 *1697:A 0.000204623
337 *185:237 *1697:A 0.000317087
338 *185:337 *1111:172 0
339 *388:75 *1111:196 0
340 *388:79 *1111:196 0
341 *388:79 *1111:273 9.91833e-05
342 *388:81 *1111:273 7.14428e-05
343 *388:83 *1111:299 5.18011e-05
344 *388:83 *1111:303 0
345 *388:125 *1201:A 0.000266832
346 *391:8 *1193:A1 3.5063e-05
347 *407:6 *1232:A1 2.16355e-05
348 *413:10 *1111:400 1.64789e-05
349 *458:126 *1111:46 0.00011711
350 *458:262 *1713:A 0.000109421
351 *597:146 *1111:582 0
352 *597:146 *1111:595 0
353 *598:77 *1111:65 0
354 *598:96 *1111:100 4.7798e-05
355 *598:145 *1731:A 0.00016448
356 *598:167 *1111:164 0.000311249
357 *598:376 *1111:23 0.000142614
358 *598:548 *1111:339 0.000370031
359 *598:561 *1111:333 1.00004e-05
360 *598:561 *1111:339 3.04443e-05
361 *598:561 *1111:519 0.000225191
362 *598:614 *1111:595 7.28994e-06
363 *598:629 *1111:185 1.59362e-06
364 *598:629 *1111:196 0.000261742
365 *598:629 *1111:209 3.20069e-06
366 *598:651 *1111:561 0.000164815
367 *611:146 *1111:46 0.000256656
368 *611:212 *1713:A 6.08467e-05
369 *630:10 *1111:46 6.8293e-05
370 *630:10 *1111:55 0.000711255
371 *725:18 *1681:A 1.95129e-05
372 *726:14 *1234:A 3.28416e-06
373 *727:20 *1111:172 2.17582e-05
374 *727:20 *1111:299 4.62713e-05
375 *728:20 *1189:A 1.42087e-05
376 *732:12 *1111:209 0.000149377
377 *777:14 *1111:23 0.000107432
378 *784:14 *1703:A 3.59437e-05
379 *784:14 *1111:61 1.00846e-05
380 *838:39 *1713:A 1.65872e-05
381 *839:38 *1111:10 0.000196836
382 *839:38 *1111:23 0.000381698
383 *963:10 *1111:172 2.91831e-05
384 *966:18 *1204:A 8.58349e-05
385 *966:18 *1111:196 0
386 *966:18 *1111:209 0
387 *966:18 *1111:561 0.000138166
388 *980:12 *1111:151 9.04726e-06
389 *980:12 *1111:164 3.1218e-05
390 *984:10 *1111:414 3.44412e-06
391 *987:12 *1111:46 0
392 *992:16 *1703:A 6.92705e-05
393 *996:14 *1681:A 4.85806e-05
394 *997:12 *1681:A 5.03545e-06
395 *997:12 *1111:305 5.28849e-05
396 *1000:12 *1744:A 3.84001e-05
397 *1000:12 *1111:65 2.39566e-05
398 *1001:16 *1201:A 5.03013e-06
399 *1004:8 *1234:A 6.08467e-05
400 *1007:6 *1111:339 5.31465e-05
401 *1022:12 *1111:299 0.000120544
402 *1106:235 *1201:A 5.34989e-05
403 *1106:235 *1111:65 0
404 *1106:235 *1111:100 0
405 *1106:235 *1111:117 0
406 *1106:235 *1111:230 0
*RES
1 *2493:X *1111:10 25.73 
2 *1111:10 *1198:A 13.7491 
3 *1111:10 *1111:23 27.1297 
4 *1111:23 *1722:A 9.82786 
5 *1111:23 *1111:46 25.787 
6 *1111:46 *1719:A 9.24915 
7 *1111:46 *1111:55 12.4332 
8 *1111:55 *1111:61 13.4319 
9 *1111:61 *1111:65 20.8658 
10 *1111:65 *1744:A 15.1659 
11 *1111:65 *1189:A 31.7376 
12 *1111:61 *1703:A 13.8789 
13 *1111:55 *1111:100 7.64553 
14 *1111:100 *1201:A 26.6924 
15 *1111:100 *1111:117 13.4591 
16 *1111:117 *1111:123 22.4793 
17 *1111:123 *1731:A 19.6535 
18 *1111:123 *1697:A 31.5511 
19 *1111:117 *1111:151 3.07775 
20 *1111:151 *1728:A 13.7491 
21 *1111:151 *1111:164 16.8989 
22 *1111:164 *1111:172 16.8693 
23 *1111:172 *1747:A 9.24915 
24 *1111:172 *1111:181 9.97081 
25 *1111:181 *1111:185 10.4845 
26 *1111:185 *1706:A 13.7491 
27 *1111:185 *1111:196 17.9291 
28 *1111:196 *1187:A 13.7491 
29 *1111:196 *1111:209 21.1964 
30 *1111:209 *1111:211 4.60562 
31 *1111:211 *1234:A 25.5738 
32 *1111:211 *1111:230 21.2133 
33 *1111:230 *1713:A 32.202 
34 *1111:230 *1694:A 14.2888 
35 *1111:209 *1195:A 10.497 
36 *1111:181 *1111:273 26.1383 
37 *1111:273 *1216:A 10.6477 
38 *1111:273 *1231:A 27.7357 
39 *1111:164 *1111:299 20.6362 
40 *1111:299 *1111:303 10.8088 
41 *1111:303 *1111:305 4.11588 
42 *1111:305 *1681:A 21.8719 
43 *1111:305 *1678:A 13.7491 
44 *1111:303 *1111:331 9.15865 
45 *1111:331 *1111:333 0.378612 
46 *1111:333 *1111:339 14.6721 
47 *1111:339 *1111:343 3.93045 
48 *1111:343 *1111:349 17.8913 
49 *1111:349 *1211:A1 9.24915 
50 *1111:349 *1111:360 4.50917 
51 *1111:360 *1111:366 12.0384 
52 *1111:366 *1219:A 14.4725 
53 *1111:366 *1111:379 3.81055 
54 *1111:379 *1220:A1 13.7491 
55 *1111:379 *1111:392 12.0478 
56 *1111:392 *1111:400 9.42914 
57 *1111:400 *1111:402 2.6625 
58 *1111:402 *1111:414 21.9062 
59 *1111:414 *1734:A 9.97254 
60 *1111:414 *1735:A1 9.24915 
61 *1111:402 *1111:434 9.15385 
62 *1111:434 *1906:A1 27.0656 
63 *1111:434 *1905:A 9.24915 
64 *1111:400 *1226:A1 15.0271 
65 *1111:392 *1225:A 9.24915 
66 *1111:360 *1210:A 9.24915 
67 *1111:343 *1193:A1 10.9612 
68 *1111:339 *1192:A 10.5513 
69 *1111:333 *1111:493 4.5 
70 *1111:493 *1214:A1 15.7597 
71 *1111:493 *1213:A 9.24915 
72 *1111:331 *1111:519 11.5577 
73 *1111:519 *1228:A 20.9116 
74 *1111:519 *1229:A1 24.5474 
75 *1111:299 *1700:A 13.7491 
76 *1187:A *1111:561 18.2442 
77 *1111:561 *1204:A 15.1659 
78 *1111:561 *1111:578 21.123 
79 *1111:578 *1111:580 1.00149 
80 *1111:580 *1111:582 12.2133 
81 *1111:582 *1186:A1 14.4725 
82 *1111:582 *1111:595 4.2258 
83 *1111:595 *1111:603 13.7929 
84 *1111:603 *1217:A1 10.075 
85 *1111:603 *1232:A1 27.3243 
86 *1111:595 *1185:A 14.4725 
87 *1111:580 *1111:644 15.2694 
88 *1111:644 *1183:A1 14.7506 
89 *1111:644 *1111:657 2.98005 
90 *1111:657 *1223:A1 19.0748 
91 *1111:657 *1222:A 13.7491 
92 *1111:578 *1182:B 13.7491 
*END

*D_NET *1144 0.000842678
*CONN
*I *2178:A I *D sky130_fd_sc_hd__clkdlybuf4s50_1
*I *2529:X O *D sky130_fd_sc_hd__dlygate4sd3_1
*CAP
1 *2178:A 0.000421339
2 *2529:X 0.000421339
*RES
1 *2529:X *2178:A 34.3512 
*END

*D_NET *1145 0.0009951
*CONN
*I *2182:A I *D sky130_fd_sc_hd__clkdlybuf4s50_1
*I *2530:X O *D sky130_fd_sc_hd__dlygate4sd3_1
*CAP
1 *2182:A 0.000391777
2 *2530:X 0.000391777
3 *2530:A *2182:A 0.000211546
*RES
1 *2530:X *2182:A 27.5649 
*END

*D_NET *1146 0.00113688
*CONN
*I *2181:A I *D sky130_fd_sc_hd__clkdlybuf4s50_1
*I *2531:X O *D sky130_fd_sc_hd__dlygate4sd3_1
*CAP
1 *2181:A 0.000455248
2 *2531:X 0.000455248
3 cio_gpio_o[0] *2181:A 0.000133981
4 intr_gpio_o[0] *2181:A 7.30461e-06
5 *788:14 *2181:A 2.58757e-05
6 *863:14 *2181:A 5.92192e-05
*RES
1 *2531:X *2181:A 36.9792 
*END

*D_NET *1147 0.000592865
*CONN
*I *2180:A I *D sky130_fd_sc_hd__clkdlybuf4s50_1
*I *2532:X O *D sky130_fd_sc_hd__dlygate4sd3_1
*CAP
1 *2180:A 0.000243701
2 *2532:X 0.000243701
3 axi_lite_o[35] *2180:A 2.6777e-05
4 intr_gpio_o[2] *2180:A 7.86847e-05
5 *2105:D *2180:A 0
*RES
1 *2532:X *2180:A 32.548 
*END

*D_NET *1148 0.00106121
*CONN
*I *2179:A I *D sky130_fd_sc_hd__clkdlybuf4s50_1
*I *2533:X O *D sky130_fd_sc_hd__dlygate4sd3_1
*CAP
1 *2179:A 0.000441101
2 *2533:X 0.000441101
3 axi_lite_o[21] *2179:A 0
4 *2533:A *2179:A 0.000179009
*RES
1 *2533:X *2179:A 35.321 
*END

*D_NET *1149 0.000322471
*CONN
*I *2190:A I *D sky130_fd_sc_hd__clkdlybuf4s50_1
*I *2534:X O *D sky130_fd_sc_hd__dlygate4sd3_1
*CAP
1 *2190:A 0.000142753
2 *2534:X 0.000142753
3 *2190:A *2194:A 8.36586e-06
4 *2190:A *2212:A 2.85997e-05
*RES
1 *2534:X *2190:A 30.4689 
*END

*D_NET *1150 0.00130056
*CONN
*I *2216:A I *D sky130_fd_sc_hd__clkdlybuf4s50_1
*I *2535:X O *D sky130_fd_sc_hd__dlygate4sd3_1
*CAP
1 *2216:A 0.000327687
2 *2535:X 0.000327687
3 *2216:A *2217:A 0.000320923
4 *2535:A *2216:A 0.000324267
*RES
1 *2535:X *2216:A 36.564 
*END

*D_NET *1151 0.00111579
*CONN
*I *2095:RESET_B I *D sky130_fd_sc_hd__dfrtp_1
*I *2093:RESET_B I *D sky130_fd_sc_hd__dfrtp_1
*I *2536:X O *D sky130_fd_sc_hd__dlygate4sd3_1
*CAP
1 *2095:RESET_B 0
2 *2093:RESET_B 0.000293975
3 *2536:X 0.000263919
4 *1151:10 0.000557895
5 *2046:CLK *2093:RESET_B 0
6 *1121:10 *1151:10 0
7 *1121:18 *1151:10 0
*RES
1 *2536:X *1151:10 18.6595 
2 *1151:10 *2093:RESET_B 11.315 
3 *1151:10 *2095:RESET_B 4.5 
*END

*D_NET *1152 0.00105989
*CONN
*I *2185:A I *D sky130_fd_sc_hd__clkdlybuf4s50_1
*I *2537:X O *D sky130_fd_sc_hd__dlygate4sd3_1
*CAP
1 *2185:A 0.000485256
2 *2537:X 0.000485256
3 *1665:B *2185:A 1.38204e-05
4 *2052:CLK *2185:A 0
5 *715:8 *2185:A 7.55575e-05
*RES
1 *2537:X *2185:A 37.1186 
*END

*D_NET *1153 0.000643055
*CONN
*I *2187:A I *D sky130_fd_sc_hd__clkdlybuf4s50_1
*I *2538:X O *D sky130_fd_sc_hd__dlygate4sd3_1
*CAP
1 *2187:A 0.000235042
2 *2538:X 0.000235042
3 *1919:CLK *2187:A 0.000159805
4 *2538:A *2187:A 1.31657e-05
5 *714:12 *2187:A 0
*RES
1 *2538:X *2187:A 34.2062 
*END

*D_NET *1154 0.00439781
*CONN
*I *2188:A I *D sky130_fd_sc_hd__clkdlybuf4s50_1
*I *2539:X O *D sky130_fd_sc_hd__dlygate4sd3_1
*CAP
1 *2188:A 3.30578e-05
2 *2539:X 0.0010731
3 *1154:10 0.00110616
4 *1245:A1 *1154:10 0.000296228
5 *1874:A *1154:10 0.000109615
6 *1916:D *1154:10 0.000120584
7 *1919:D *1154:10 7.86847e-05
8 *1919:CLK *1154:10 0.000227878
9 *2538:A *1154:10 4.15008e-05
10 *793:11 *1154:10 0
11 *953:10 *1154:10 9.20398e-05
12 *1091:8 *1154:10 0.000272175
13 *1110:857 *1154:10 0.00026882
14 *1110:867 *1154:10 0.000362071
15 *1110:876 *1154:10 0.000122068
16 *1110:890 *1154:10 0.000193835
*RES
1 *2539:X *1154:10 48.7026 
2 *1154:10 *2188:A 14.4725 
*END

*D_NET *1155 0.00072697
*CONN
*I *2204:A I *D sky130_fd_sc_hd__clkdlybuf4s50_1
*I *2540:X O *D sky130_fd_sc_hd__dlygate4sd3_1
*CAP
1 *2204:A 0.000341358
2 *2540:X 0.000341358
3 *2540:A *2204:A 1.91391e-05
4 *2547:A *2204:A 2.51147e-05
*RES
1 *2540:X *2204:A 33.242 
*END

*D_NET *1156 0.00071369
*CONN
*I *2205:A I *D sky130_fd_sc_hd__clkdlybuf4s50_1
*I *2541:X O *D sky130_fd_sc_hd__dlygate4sd3_1
*CAP
1 *2205:A 0.000341804
2 *2541:X 0.000341804
3 *2205:A *2200:A 0
4 *1393:A1 *2205:A 0
5 *2021:D *2205:A 0
6 *2541:A *2205:A 0
7 *2542:A *2205:A 0
8 *685:14 *2205:A 3.00829e-05
*RES
1 *2541:X *2205:A 35.87 
*END

*D_NET *1157 0.000574233
*CONN
*I *2200:A I *D sky130_fd_sc_hd__clkdlybuf4s50_1
*I *2542:X O *D sky130_fd_sc_hd__dlygate4sd3_1
*CAP
1 *2200:A 0.000272034
2 *2542:X 0.000272034
3 *2205:A *2200:A 0
4 *2542:A *2200:A 3.01656e-05
*RES
1 *2542:X *2200:A 32.548 
*END

*D_NET *1158 0.00038332
*CONN
*I *2207:A I *D sky130_fd_sc_hd__clkdlybuf4s50_1
*I *2543:X O *D sky130_fd_sc_hd__dlygate4sd3_1
*CAP
1 *2207:A 0.00019166
2 *2543:X 0.00019166
3 *2543:A *2207:A 0
4 *1114:48 *2207:A 0
*RES
1 *2543:X *2207:A 31.0235 
*END

*D_NET *1159 0.00191041
*CONN
*I *2217:A I *D sky130_fd_sc_hd__clkdlybuf4s50_1
*I *2544:X O *D sky130_fd_sc_hd__dlygate4sd3_1
*CAP
1 *2217:A 0.000729479
2 *2544:X 0.000729479
3 *2217:A *2191:A 0
4 *2217:A *2215:A 0
5 *2034:D *2217:A 0
6 *2216:A *2217:A 0.000320923
7 *2535:A *2217:A 3.85975e-05
8 *2544:A *2217:A 9.19345e-05
*RES
1 *2544:X *2217:A 45.9754 
*END

*D_NET *1160 0.000491117
*CONN
*I *2196:A I *D sky130_fd_sc_hd__clkdlybuf4s50_1
*I *2545:X O *D sky130_fd_sc_hd__dlygate4sd3_1
*CAP
1 *2196:A 0.000193952
2 *2545:X 0.000193952
3 *2196:A *2197:A 9.18559e-06
4 *1468:A *2196:A 6.50727e-05
5 *1469:A2 *2196:A 2.89547e-05
*RES
1 *2545:X *2196:A 23.128 
*END

*D_NET *1161 0.000717788
*CONN
*I *2215:A I *D sky130_fd_sc_hd__clkdlybuf4s50_1
*I *2546:X O *D sky130_fd_sc_hd__dlygate4sd3_1
*CAP
1 *2215:A 0.000358894
2 *2546:X 0.000358894
3 *1378:B *2215:A 0
4 *2034:D *2215:A 0
5 *2217:A *2215:A 0
6 *667:14 *2215:A 0
*RES
1 *2546:X *2215:A 36.0094 
*END

*D_NET *1162 0.000786994
*CONN
*I *2201:A I *D sky130_fd_sc_hd__clkdlybuf4s50_1
*I *2547:X O *D sky130_fd_sc_hd__dlygate4sd3_1
*CAP
1 *2201:A 0.000344969
2 *2547:X 0.000344969
3 *2018:RESET_B *2201:A 0
4 *2022:D *2201:A 4.77834e-05
5 *2547:A *2201:A 0
6 *681:14 *2201:A 4.92721e-05
*RES
1 *2547:X *2201:A 36.3896 
*END

*D_NET *1163 0.00064279
*CONN
*I *2214:A I *D sky130_fd_sc_hd__clkdlybuf4s50_1
*I *2548:X O *D sky130_fd_sc_hd__dlygate4sd3_1
*CAP
1 *2214:A 0.000317827
2 *2548:X 0.000317827
3 *2548:A *2214:A 7.13655e-06
*RES
1 *2548:X *2214:A 33.1026 
*END

*D_NET *1164 0.000983521
*CONN
*I *2197:A I *D sky130_fd_sc_hd__clkdlybuf4s50_1
*I *2549:X O *D sky130_fd_sc_hd__dlygate4sd3_1
*CAP
1 *2197:A 0.000451512
2 *2549:X 0.000451512
3 *2196:A *2197:A 9.18559e-06
4 *2545:A *2197:A 2.65667e-05
5 *1104:296 *2197:A 4.47442e-05
6 *1109:192 *2197:A 0
*RES
1 *2549:X *2197:A 35.321 
*END

*D_NET *1165 0.000821208
*CONN
*I *2208:A I *D sky130_fd_sc_hd__clkdlybuf4s50_1
*I *2550:X O *D sky130_fd_sc_hd__dlygate4sd3_1
*CAP
1 *2208:A 0.000410604
2 *2550:X 0.000410604
3 *677:12 *2208:A 0
*RES
1 *2550:X *2208:A 35.87 
*END

*D_NET *1166 0.000880998
*CONN
*I *2186:A I *D sky130_fd_sc_hd__clkdlybuf4s50_1
*I *2551:X O *D sky130_fd_sc_hd__dlygate4sd3_1
*CAP
1 *2186:A 0.000440499
2 *2551:X 0.000440499
3 *2052:CLK *2186:A 0
4 *717:10 *2186:A 0
*RES
1 *2551:X *2186:A 34.7664 
*END

*D_NET *1167 0.000858389
*CONN
*I *2194:A I *D sky130_fd_sc_hd__clkdlybuf4s50_1
*I *2552:X O *D sky130_fd_sc_hd__dlygate4sd3_1
*CAP
1 *2194:A 0.000421502
2 *2552:X 0.000421502
3 *2194:A *2199:A 0
4 *2190:A *2194:A 8.36586e-06
5 *2552:A *2194:A 0
6 *2558:A *2194:A 0
7 *692:18 *2194:A 7.01935e-06
*RES
1 *2552:X *2194:A 37.5338 
*END

*D_NET *1168 0.000637833
*CONN
*I *2203:A I *D sky130_fd_sc_hd__clkdlybuf4s50_1
*I *2553:X O *D sky130_fd_sc_hd__dlygate4sd3_1
*CAP
1 *2203:A 0.000315348
2 *2553:X 0.000315348
3 *1998:CLK *2203:A 0
4 *2553:A *2203:A 7.13655e-06
*RES
1 *2553:X *2203:A 33.1026 
*END

*D_NET *1169 0.000320131
*CONN
*I *2195:A I *D sky130_fd_sc_hd__clkdlybuf4s50_1
*I *2554:X O *D sky130_fd_sc_hd__dlygate4sd3_1
*CAP
1 *2195:A 0.000132376
2 *2554:X 0.000132376
3 *2012:CLK *2195:A 5.53789e-05
4 *2554:A *2195:A 0
*RES
1 *2554:X *2195:A 30.4689 
*END

*D_NET *1170 0.00111126
*CONN
*I *2199:A I *D sky130_fd_sc_hd__clkdlybuf4s50_1
*I *2555:X O *D sky130_fd_sc_hd__dlygate4sd3_1
*CAP
1 *2199:A 0.000505058
2 *2555:X 0.000505058
3 *2015:D *2199:A 0.000101148
4 *2194:A *2199:A 0
5 *1114:48 *2199:A 0
*RES
1 *2555:X *2199:A 38.6374 
*END

*D_NET *1171 0.00221234
*CONN
*I *2202:A I *D sky130_fd_sc_hd__clkdlybuf4s50_1
*I *2556:X O *D sky130_fd_sc_hd__dlygate4sd3_1
*CAP
1 *2202:A 0.00107181
2 *2556:X 0.00107181
3 *1445:A1 *2202:A 2.94253e-05
4 *1109:192 *2202:A 0
5 *1118:14 *2202:A 3.93047e-05
*RES
1 *2556:X *2202:A 43.6401 
*END

*D_NET *1172 0.000889142
*CONN
*I *2189:A I *D sky130_fd_sc_hd__clkdlybuf4s50_1
*I *2557:X O *D sky130_fd_sc_hd__dlygate4sd3_1
*CAP
1 *2189:A 0.000374894
2 *2557:X 0.000374894
3 *2149:A *2189:A 0.000106165
4 *2557:A *2189:A 3.31882e-05
*RES
1 *2557:X *2189:A 36.7356 
*END

*D_NET *1173 0.00188771
*CONN
*I *2212:A I *D sky130_fd_sc_hd__clkdlybuf4s50_1
*I *2558:X O *D sky130_fd_sc_hd__dlygate4sd3_1
*CAP
1 *2212:A 0.000671316
2 *2558:X 0.000671316
3 *2012:D *2212:A 5.71059e-05
4 *2012:CLK *2212:A 0.000377965
5 *2190:A *2212:A 2.85997e-05
6 *691:16 *2212:A 6.50586e-05
7 *692:18 *2212:A 1.6352e-05
8 *713:10 *2212:A 0
9 *1104:59 *2212:A 0
*RES
1 *2558:X *2212:A 45.0406 
*END

*D_NET *1174 0.00465164
*CONN
*I *2198:A I *D sky130_fd_sc_hd__clkdlybuf4s50_1
*I *2559:X O *D sky130_fd_sc_hd__dlygate4sd3_1
*CAP
1 *2198:A 2.31362e-05
2 *2559:X 0.00156454
3 *1174:16 0.00158767
4 *1319:A2 *1174:16 0.000110426
5 *1399:S *2198:A 6.64392e-05
6 *1399:S *1174:16 0.000114495
7 *1443:A *1174:16 0
8 *1446:B *1174:16 0.000212189
9 *1993:D *1174:16 9.76832e-05
10 *1997:D *1174:16 9.60366e-05
11 *763:33 *2198:A 0.000118796
12 *1066:10 *1174:16 0.000114714
13 *1104:249 *1174:16 0.000263677
14 *1109:119 *1174:16 9.14201e-05
15 *1109:147 *1174:16 3.97119e-05
16 *1109:159 *1174:16 4.80635e-06
17 *1109:161 *1174:16 1.61631e-05
18 *1109:174 *1174:16 6.69883e-05
19 *1118:14 *1174:16 4.4477e-05
20 *1118:20 *1174:16 1.82679e-05
*RES
1 *2559:X *1174:16 48.9364 
2 *1174:16 *2198:A 15.0271 
*END

*D_NET *1175 0.000924858
*CONN
*I *2192:A I *D sky130_fd_sc_hd__clkdlybuf4s50_1
*I *2560:X O *D sky130_fd_sc_hd__dlygate4sd3_1
*CAP
1 *2192:A 0.000462429
2 *2560:X 0.000462429
*RES
1 *2560:X *2192:A 27.1549 
*END

*D_NET *1176 0.000764437
*CONN
*I *2210:A I *D sky130_fd_sc_hd__clkdlybuf4s50_1
*I *2561:X O *D sky130_fd_sc_hd__dlygate4sd3_1
*CAP
1 *2210:A 0.000381012
2 *2561:X 0.000381012
3 *2561:A *2210:A 2.41274e-06
*RES
1 *2561:X *2210:A 33.7966 
*END

*D_NET *1177 0.00119821
*CONN
*I *2191:A I *D sky130_fd_sc_hd__clkdlybuf4s50_1
*I *2562:X O *D sky130_fd_sc_hd__dlygate4sd3_1
*CAP
1 *2191:A 0.000477555
2 *2562:X 0.000477555
3 *2007:CLK *2191:A 9.40106e-05
4 *2012:CLK *2191:A 3.74593e-05
5 *2217:A *2191:A 0
6 *2560:A *2191:A 0
7 *667:14 *2191:A 0
8 *711:16 *2191:A 2.29386e-05
9 *1108:53 *2191:A 8.86892e-05
*RES
1 *2562:X *2191:A 40.435 
*END

*D_NET *1178 0.000619732
*CONN
*I *2213:A I *D sky130_fd_sc_hd__clkdlybuf4s50_1
*I *2563:X O *D sky130_fd_sc_hd__dlygate4sd3_1
*CAP
1 *2213:A 0.000282879
2 *2563:X 0.000282879
3 *2013:CLK *2213:A 5.04829e-06
4 *2545:A *2213:A 0
5 *671:10 *2213:A 4.89251e-05
6 *1104:296 *2213:A 0
*RES
1 *2563:X *2213:A 34.3456 
*END

*D_NET *1179 0.000759875
*CONN
*I *2206:A I *D sky130_fd_sc_hd__clkdlybuf4s50_1
*I *2564:X O *D sky130_fd_sc_hd__dlygate4sd3_1
*CAP
1 *2206:A 0.000379937
2 *2564:X 0.000379937
*RES
1 *2564:X *2206:A 33.7966 
*END

*D_NET *1180 0.000809223
*CONN
*I *2211:A I *D sky130_fd_sc_hd__clkdlybuf4s50_1
*I *2565:X O *D sky130_fd_sc_hd__dlygate4sd3_1
*CAP
1 *2211:A 0.000404612
2 *2565:X 0.000404612
*RES
1 *2565:X *2211:A 34.2118 
*END

*D_NET *792 0.000162736
*CONN
*I *2087:D I *D sky130_fd_sc_hd__dfrtp_1
*I *2183:HI O *D sky130_fd_sc_hd__conb_1
*CAP
1 *2087:D 6.74296e-05
2 *2183:HI 6.74296e-05
3 *2087:D *1120:65 2.78772e-05
*RES
1 *2183:HI *2087:D 29.3303 
*END

*D_NET *803 0.000350709
*CONN
*I *2093:D I *D sky130_fd_sc_hd__dfrtp_1
*I *2088:HI O *D sky130_fd_sc_hd__conb_1
*CAP
1 *2093:D 0.000175355
2 *2088:HI 0.000175355
*RES
1 *2088:HI *2093:D 21.9947 
*END

*D_NET *814 0.000898359
*CONN
*I *2095:D I *D sky130_fd_sc_hd__dfrtp_1
*I *2094:HI O *D sky130_fd_sc_hd__conb_1
*CAP
1 *2095:D 0.000444996
2 *2094:HI 0.000444996
3 *2095:D *850:12 8.36586e-06
*RES
1 *2094:HI *2095:D 36.2853 
*END

*D_NET *824 0.000236971
*CONN
*I *2130:D I *D sky130_fd_sc_hd__dfrtp_1
*I *2096:HI O *D sky130_fd_sc_hd__conb_1
*CAP
1 *2130:D 0.000118485
2 *2096:HI 0.000118485
3 *2130:D *2130:CLK 0
4 *675:10 *2130:D 0
*RES
1 *2096:HI *2130:D 30.0537 
*END

*D_NET *665 0.00211866
*CONN
*I *1855:A I *D sky130_fd_sc_hd__nor2_1
*I *1477:B I *D sky130_fd_sc_hd__nand2_1
*I *1857:A2 I *D sky130_fd_sc_hd__a31oi_1
*I *2219:X O *D sky130_fd_sc_hd__clkdlybuf4s50_1
*CAP
1 *1855:A 0.000144184
2 *1477:B 0
3 *1857:A2 0.000100097
4 *2219:X 0.000509372
5 *665:23 0.000144184
6 *665:10 0.000609469
7 *1855:A *1477:A 7.69969e-05
8 *1857:A2 *2106:CLK 0
9 *665:10 *2106:CLK 0
10 *665:10 *2219:A 4.58003e-05
11 *665:10 *2517:A 2.02035e-05
12 *665:10 *720:14 0.000280986
13 *665:10 *733:12 0
14 *1208:A *1857:A2 0.000125695
15 *1208:B *1855:A 4.04393e-05
16 *1856:A *665:10 0
17 *402:10 *665:10 0
18 *590:8 *1857:A2 2.12377e-05
*RES
1 *2219:X *665:10 27.6557 
2 *665:10 *1857:A2 16.7292 
3 *665:10 *665:23 4.5 
4 *665:23 *1477:B 9.24915 
5 *665:23 *1855:A 13.3484 
*END

*D_NET *666 0.000288893
*CONN
*I *1366:B I *D sky130_fd_sc_hd__nand2_1
*I *2218:X O *D sky130_fd_sc_hd__clkdlybuf4s50_1
*CAP
1 *1366:B 0.000144446
2 *2218:X 0.000144446
*RES
1 *2218:X *1366:B 21.9947 
*END

*D_NET *667 0.00323203
*CONN
*I *1380:B I *D sky130_fd_sc_hd__nand2_1
*I *1417:B I *D sky130_fd_sc_hd__nand2_1
*I *2217:X O *D sky130_fd_sc_hd__clkdlybuf4s50_1
*CAP
1 *1380:B 9.33858e-05
2 *1417:B 0
3 *2217:X 0.000690351
4 *667:14 0.000783736
5 *1380:B *1104:55 0.000166572
6 *667:14 *1376:B 0.000176652
7 *667:14 *1377:A2 6.27718e-05
8 *667:14 *1378:B 4.31984e-05
9 *667:14 *1415:A 0
10 *667:14 *2191:A 0
11 *667:14 *2215:A 0
12 *667:14 *1104:44 0.000159942
13 *667:14 *1104:55 0.000581669
14 *1377:A1 *667:14 1.00901e-05
15 *1377:B1 *667:14 0.000138334
16 *1379:B1 *667:14 0.000137936
17 *2007:D *1380:B 1.28301e-05
18 *2007:D *667:14 8.05143e-05
19 *2034:D *667:14 9.40492e-05
*RES
1 *2217:X *667:14 38.1131 
2 *667:14 *1417:B 13.7491 
3 *667:14 *1380:B 16.8269 
*END

*D_NET *668 0.00127851
*CONN
*I *1415:B I *D sky130_fd_sc_hd__nand2_1
*I *1378:B I *D sky130_fd_sc_hd__nand2_1
*I *2216:X O *D sky130_fd_sc_hd__clkdlybuf4s50_1
*CAP
1 *1415:B 0.00014329
2 *1378:B 0.000124016
3 *2216:X 0.000123326
4 *668:6 0.000390632
5 *1378:B *1412:B 6.27718e-05
6 *1378:B *2215:A 0
7 *1378:B *669:6 1.50924e-05
8 *1415:B *1379:A2 4.97617e-05
9 *668:6 *1379:A2 2.65667e-05
10 *1379:A1 *1415:B 1.19856e-05
11 *1379:A1 *668:6 1.41291e-05
12 *1379:B1 *1378:B 0.000146581
13 *2034:D *1378:B 0.000127164
14 *667:14 *1378:B 4.31984e-05
*RES
1 *2216:X *668:6 12.191 
2 *668:6 *1378:B 22.8808 
3 *668:6 *1415:B 12.625 
*END

*D_NET *669 0.00174887
*CONN
*I *1412:B I *D sky130_fd_sc_hd__nand2_1
*I *1376:B I *D sky130_fd_sc_hd__nand2_1
*I *2215:X O *D sky130_fd_sc_hd__clkdlybuf4s50_1
*CAP
1 *1412:B 0.000185044
2 *1376:B 7.06854e-05
3 *2215:X 0.000108867
4 *669:6 0.000364596
5 *1412:B *1412:A 1.64026e-05
6 *1412:B *1415:A 0.000255277
7 *1412:B *1104:40 0.000304859
8 *1378:B *1412:B 6.27718e-05
9 *1378:B *669:6 1.50924e-05
10 *1379:B1 *1412:B 1.19705e-05
11 *2034:D *1376:B 0.000176652
12 *667:14 *1376:B 0.000176652
*RES
1 *2215:X *669:6 11.6364 
2 *669:6 *1376:B 21.9056 
3 *669:6 *1412:B 16.0973 
*END

*D_NET *671 0.00160309
*CONN
*I *1401:A1 I *D sky130_fd_sc_hd__mux2_1
*I *1468:B I *D sky130_fd_sc_hd__nand2_1
*I *2214:X O *D sky130_fd_sc_hd__clkdlybuf4s50_1
*CAP
1 *1401:A1 0
2 *1468:B 8.60612e-05
3 *2214:X 0.000466425
4 *671:10 0.000552486
5 *1468:B *1104:296 0
6 *1468:B *1109:192 1.07248e-05
7 *1468:B *1109:212 0.000130611
8 *671:10 *1401:A0 6.27718e-05
9 *671:10 *2013:CLK 4.46813e-05
10 *671:10 *2213:A 4.89251e-05
11 *671:10 *672:24 0.000200408
*RES
1 *2214:X *671:10 17.9299 
2 *671:10 *1468:B 20.9116 
3 *671:10 *1401:A1 9.24915 
*END

*D_NET *672 0.00387625
*CONN
*I *1400:A1 I *D sky130_fd_sc_hd__mux2_1
*I *1466:B I *D sky130_fd_sc_hd__nand2_1
*I *2213:X O *D sky130_fd_sc_hd__clkdlybuf4s50_1
*CAP
1 *1400:A1 0
2 *1466:B 0.000112576
3 *2213:X 0.000682057
4 *672:24 0.000794633
5 *1466:B *2014:RESET_B 8.01741e-05
6 *1466:B *1104:284 8.62625e-06
7 *1466:B *1109:272 3.67528e-06
8 *1466:B *1109:283 1.78514e-05
9 *1466:B *1109:322 3.0079e-05
10 *672:24 *1300:A 0.000345027
11 *672:24 *1301:B 0.000256643
12 *672:24 *1400:A0 6.50586e-05
13 *672:24 *1401:A0 0.000302687
14 *672:24 *1987:RESET_B 0
15 *672:24 *2013:CLK 0.00011813
16 *672:24 *2014:CLK 7.28567e-06
17 *672:24 *690:14 7.04109e-05
18 *672:24 *1104:278 0.000260388
19 *672:24 *1112:243 0.000109348
20 *672:24 *1118:62 0.000152859
21 *1302:A2 *672:24 7.40084e-05
22 *1302:B1 *672:24 0.000109421
23 *1469:A1 *672:24 6.50727e-05
24 *483:6 *672:24 9.82896e-06
25 *671:10 *672:24 0.000200408
*RES
1 *2213:X *672:24 43.2887 
2 *672:24 *1466:B 21.7421 
3 *672:24 *1400:A1 9.24915 
*END

*D_NET *673 0.00258972
*CONN
*I *1399:A1 I *D sky130_fd_sc_hd__mux2_1
*I *1464:B I *D sky130_fd_sc_hd__nand2_1
*I *2212:X O *D sky130_fd_sc_hd__clkdlybuf4s50_1
*CAP
1 *1399:A1 0.000144241
2 *1464:B 0.000216591
3 *2212:X 0.000433418
4 *673:8 0.00079425
5 *1399:A1 *1399:A0 6.92705e-05
6 *1399:A1 *2135:A 0.000171288
7 *1399:A1 *1110:364 0
8 *1399:A1 *1114:48 7.25326e-05
9 *1464:B *2015:RESET_B 6.81838e-05
10 *1464:B *686:16 0.000311261
11 *1464:B *1110:352 1.65872e-05
12 *673:8 *1986:CLK 0.00010542
13 *673:8 *713:10 0
14 *673:8 *1104:59 0
15 *673:8 *1109:78 3.1218e-05
16 *673:8 *1109:97 9.1013e-05
17 *673:8 *1114:37 6.14436e-05
18 *673:8 *1114:48 3.00174e-06
*RES
1 *2212:X *673:8 25.9624 
2 *673:8 *1464:B 20.5973 
3 *673:8 *1399:A1 18.6595 
*END

*D_NET *674 0.00430574
*CONN
*I *1462:B I *D sky130_fd_sc_hd__nand2_1
*I *1398:A1 I *D sky130_fd_sc_hd__mux2_1
*I *2211:X O *D sky130_fd_sc_hd__clkdlybuf4s50_1
*CAP
1 *1462:B 0
2 *1398:A1 0.000138584
3 *2211:X 0.0013644
4 *674:18 0.00150299
5 *1398:A1 *1398:A0 3.14978e-05
6 *1398:A1 *1461:A 0
7 *674:18 *1344:A 4.87161e-05
8 *674:18 *1487:A 0.000283738
9 *674:18 *2019:RESET_B 5.06863e-05
10 *674:18 *1062:10 6.27782e-05
11 cio_gpio_o[3] *674:18 0.000608259
12 *1990:D *1398:A1 7.73661e-05
13 *517:12 *674:18 0.000136722
*RES
1 *2211:X *674:18 45.1117 
2 *674:18 *1398:A1 16.7198 
3 *674:18 *1462:B 13.7491 
*END

*D_NET *675 0.00236756
*CONN
*I *1459:B I *D sky130_fd_sc_hd__nand2_1
*I *1397:A1 I *D sky130_fd_sc_hd__mux2_1
*I *2210:X O *D sky130_fd_sc_hd__clkdlybuf4s50_1
*CAP
1 *1459:B 8.07981e-05
2 *1397:A1 0
3 *2210:X 0.000792323
4 *675:10 0.000873121
5 *1459:B *1397:S 6.92705e-05
6 *1459:B *2025:RESET_B 0.000383717
7 *675:10 *2086:D 0.000168334
8 *675:10 *2129:CLK 0
9 *675:10 *2130:D 0
10 *675:10 *2130:CLK 0
11 *675:10 *1120:10 0
12 *675:10 *1120:56 0
13 *675:10 *1120:65 0
*RES
1 *2210:X *675:10 37.1065 
2 *675:10 *1397:A1 9.24915 
3 *675:10 *1459:B 13.3002 
*END

*D_NET *676 0.00119058
*CONN
*I *1648:A I *D sky130_fd_sc_hd__inv_1
*I *1647:B I *D sky130_fd_sc_hd__nand2_4
*I *2209:X O *D sky130_fd_sc_hd__clkdlybuf4s50_1
*CAP
1 *1648:A 0
2 *1647:B 0.000203325
3 *2209:X 0.000259298
4 *676:14 0.000462622
5 *1647:B *1647:A 3.42601e-05
6 *676:14 axi_lite_o[35] 0
7 *676:14 *1647:A 2.6874e-05
8 *676:14 *789:26 0.000172706
9 *1844:A *1647:B 3.14978e-05
10 *186:10 *676:14 0
*RES
1 *2209:X *676:14 24.8613 
2 *676:14 *1647:B 14.3069 
3 *676:14 *1648:A 9.24915 
*END

*D_NET *677 0.00158447
*CONN
*I *1457:B I *D sky130_fd_sc_hd__nand2_1
*I *1396:A1 I *D sky130_fd_sc_hd__mux2_1
*I *2208:X O *D sky130_fd_sc_hd__clkdlybuf4s50_1
*CAP
1 *1457:B 0.000108539
2 *1396:A1 0
3 *2208:X 0.000471062
4 *677:12 0.000579601
5 *1457:B *1349:B 0.000180511
6 *1457:B *1396:A0 0.000175485
7 *677:12 *1396:A0 6.92705e-05
8 *677:12 *2018:RESET_B 0
9 *677:12 *2208:A 0
10 *2018:D *677:12 0
*RES
1 *2208:X *677:12 29.118 
2 *677:12 *1396:A1 9.24915 
3 *677:12 *1457:B 14.0477 
*END

*D_NET *678 0.00100893
*CONN
*I *1395:A1 I *D sky130_fd_sc_hd__mux2_1
*I *1455:B I *D sky130_fd_sc_hd__nand2_1
*I *2207:X O *D sky130_fd_sc_hd__clkdlybuf4s50_1
*CAP
1 *1395:A1 0.000122943
2 *1455:B 0.000192147
3 *2207:X 0.000315089
4 *1395:A1 *1395:A0 6.46815e-05
5 *1395:A1 *1993:CLK 0.000211546
6 *1395:A1 *1104:249 0
7 *1395:A1 *1114:48 0.000102525
*RES
1 *2207:X *1455:B 23.1039 
2 *2207:X *1395:A1 31.7175 
*END

*D_NET *679 0.00436548
*CONN
*I *1394:A1 I *D sky130_fd_sc_hd__mux2_1
*I *1453:B I *D sky130_fd_sc_hd__nand2_1
*I *2206:X O *D sky130_fd_sc_hd__clkdlybuf4s50_1
*CAP
1 *1394:A1 9.777e-06
2 *1453:B 0.000279324
3 *2206:X 0.00121118
4 *679:10 0.00150028
5 *1394:A1 *1394:A0 4.85806e-05
6 *1394:A1 *1104:270 6.27782e-05
7 *1453:B *1317:A 8.62625e-06
8 *1453:B *1997:RESET_B 0
9 *1453:B *1109:151 5.22654e-06
10 *1453:B *1109:250 0.000145755
11 *679:10 *1390:A0 3.86207e-06
12 *679:10 *1390:A1 4.6507e-05
13 *679:10 *1394:A0 1.41976e-05
14 *679:10 *1444:A 1.4106e-05
15 *679:10 *683:22 0.000262001
16 *679:10 *1104:270 0.000405053
17 *1445:A1 *679:10 0.000337744
18 *1445:B1 *679:10 1.04731e-05
19 *436:216 *1453:B 0
*RES
1 *2206:X *679:10 32.6148 
2 *679:10 *1453:B 25.0642 
3 *679:10 *1394:A1 9.97254 
*END

*D_NET *680 0.000542455
*CONN
*I *1393:A1 I *D sky130_fd_sc_hd__mux2_1
*I *1450:B I *D sky130_fd_sc_hd__nand2_1
*I *2205:X O *D sky130_fd_sc_hd__clkdlybuf4s50_1
*CAP
1 *1393:A1 0.000152182
2 *1450:B 2.70095e-05
3 *2205:X 0.000179192
4 *1393:A1 *1393:S 3.58321e-05
5 *1393:A1 *2205:A 0
6 *1393:A1 *685:14 0.000122378
7 *1450:B *685:14 2.58616e-05
*RES
1 *2205:X *1450:B 19.2217 
2 *2205:X *1393:A1 31.0235 
*END

*D_NET *681 0.00123609
*CONN
*I *1448:B I *D sky130_fd_sc_hd__nand2_1
*I *1392:A1 I *D sky130_fd_sc_hd__mux2_1
*I *2204:X O *D sky130_fd_sc_hd__clkdlybuf4s50_1
*CAP
1 *1448:B 6.87871e-05
2 *1392:A1 0
3 *2204:X 0.00026101
4 *681:14 0.000329798
5 *1448:B *1392:A0 0.000184509
6 *1448:B *1392:S 0.000312627
7 *681:14 *1392:A0 3.00829e-05
8 *681:14 *2201:A 4.92721e-05
*RES
1 *2204:X *681:14 24.1616 
2 *681:14 *1392:A1 9.24915 
3 *681:14 *1448:B 13.8548 
*END

*D_NET *682 0.00336655
*CONN
*I *1391:A1 I *D sky130_fd_sc_hd__mux2_1
*I *1446:B I *D sky130_fd_sc_hd__nand2_1
*I *2203:X O *D sky130_fd_sc_hd__clkdlybuf4s50_1
*CAP
1 *1391:A1 0
2 *1446:B 0.00025652
3 *2203:X 0.000437253
4 *682:12 0.000693772
5 *1446:B *1390:A0 0.000304859
6 *1446:B *1391:A0 6.24474e-06
7 *1446:B *1391:S 3.32903e-05
8 *1446:B *1443:A 9.05509e-05
9 *1446:B *1890:A2 6.08467e-05
10 *1446:B *683:22 5.82003e-05
11 *1446:B *1067:12 0.000141968
12 *1446:B *1109:174 0.000219479
13 *1446:B *1174:16 0.000212189
14 *682:12 *1390:A0 1.88563e-05
15 *682:12 *1391:S 0.000111352
16 *682:12 *1998:RESET_B 0
17 *682:12 *1998:CLK 0.000156823
18 *682:12 *2564:A 0
19 *682:12 *1118:20 0.000200221
20 *2023:D *682:12 2.58757e-05
21 *2024:D *682:12 0.000338249
*RES
1 *2203:X *682:12 32.8553 
2 *682:12 *1446:B 29.0766 
3 *682:12 *1391:A1 9.24915 
*END

*D_NET *683 0.00241664
*CONN
*I *1444:B I *D sky130_fd_sc_hd__nand2_1
*I *1390:A1 I *D sky130_fd_sc_hd__mux2_1
*I *2202:X O *D sky130_fd_sc_hd__clkdlybuf4s50_1
*CAP
1 *1444:B 0
2 *1390:A1 7.6299e-05
3 *2202:X 0.000572454
4 *683:22 0.000648753
5 *1390:A1 *1390:A0 6.55124e-05
6 *683:22 *1390:A0 9.29777e-05
7 *683:22 *1391:A0 0.000304887
8 *683:22 *1391:S 7.90806e-05
9 *683:22 *1109:174 3.79563e-05
10 *1445:A1 *683:22 0.000136381
11 *1446:B *683:22 5.82003e-05
12 *1998:D *683:22 3.56264e-05
13 *679:10 *1390:A1 4.6507e-05
14 *679:10 *683:22 0.000262001
*RES
1 *2202:X *683:22 43.2121 
2 *683:22 *1390:A1 11.6364 
3 *683:22 *1444:B 9.24915 
*END

*D_NET *684 0.00491288
*CONN
*I *1441:B I *D sky130_fd_sc_hd__nand2_1
*I *1389:A1 I *D sky130_fd_sc_hd__mux2_1
*I *2201:X O *D sky130_fd_sc_hd__clkdlybuf4s50_1
*CAP
1 *1441:B 4.90842e-05
2 *1389:A1 0.000258746
3 *2201:X 0.000565608
4 *684:20 0.000351921
5 *684:16 0.000609699
6 *1389:A1 *1397:S 5.22654e-06
7 *1389:A1 *1104:361 0.000114536
8 *1389:A1 *1109:346 2.86829e-05
9 *1389:A1 *1120:10 0
10 *1389:A1 *1120:14 0
11 *1441:B *1109:348 6.08467e-05
12 *1441:B *1109:403 0.000251866
13 *684:16 *1329:A2 0.000146136
14 *684:16 *1384:A0 4.61908e-05
15 *684:16 *1393:A0 0.000112773
16 *684:16 *1426:B 6.92705e-05
17 *684:16 *2021:RESET_B 2.28919e-05
18 *684:16 *2021:CLK 0.000374243
19 *684:16 *690:14 0.000238083
20 *684:16 *1104:350 8.62625e-06
21 *684:16 *1104:361 0.000335772
22 *684:20 *1109:348 0.000206696
23 *502:14 *684:16 0.000835893
24 *548:6 *1441:B 0.000131494
25 *548:6 *684:20 8.859e-05
*RES
1 *2201:X *684:16 49.3123 
2 *684:16 *684:20 6.88721 
3 *684:20 *1389:A1 25.4794 
4 *684:20 *1441:B 12.7456 
*END

*D_NET *685 0.00361414
*CONN
*I *1438:B I *D sky130_fd_sc_hd__nand2_1
*I *1388:A1 I *D sky130_fd_sc_hd__mux2_1
*I *2200:X O *D sky130_fd_sc_hd__clkdlybuf4s50_1
*CAP
1 *1438:B 9.48897e-05
2 *1388:A1 0
3 *2200:X 0.000980874
4 *685:14 0.00107576
5 *1438:B *1438:A 6.27718e-05
6 *1438:B *1104:344 4.76794e-05
7 *1438:B *1104:350 6.46815e-05
8 *685:14 *2205:A 3.00829e-05
9 *685:14 *1104:350 2.30636e-05
10 *1328:A *685:14 9.97445e-05
11 *1328:B *685:14 0.000174592
12 *1329:B1 *685:14 2.53985e-05
13 *1393:A1 *685:14 0.000122378
14 *1450:B *685:14 2.58616e-05
15 *1451:A1 *685:14 0.000369644
16 *1451:B1 *685:14 0.000321905
17 *506:16 *1438:B 1.3808e-05
18 *506:16 *685:14 8.10032e-05
*RES
1 *2200:X *685:14 35.4361 
2 *685:14 *1388:A1 9.24915 
3 *685:14 *1438:B 12.2151 
*END

*D_NET *686 0.00538639
*CONN
*I *1435:B I *D sky130_fd_sc_hd__nand2_1
*I *1387:A1 I *D sky130_fd_sc_hd__mux2_1
*I *2199:X O *D sky130_fd_sc_hd__clkdlybuf4s50_1
*CAP
1 *1435:B 0.000118989
2 *1387:A1 0
3 *2199:X 0.000929954
4 *686:22 0.000745599
5 *686:16 0.00155656
6 *1435:B *1386:S 8.35747e-05
7 *1435:B *1419:B 6.18026e-05
8 *1435:B *688:22 5.04324e-05
9 *686:16 *1289:A 2.58757e-05
10 *686:16 *1289:B 2.09463e-05
11 *686:16 *1464:A 2.58757e-05
12 *686:16 *2006:CLK 0.000511565
13 *686:16 *1057:10 6.08467e-05
14 *686:16 *1110:352 7.60449e-05
15 *686:16 *1114:24 0.000215683
16 *686:22 *1386:S 5.22654e-06
17 *686:22 *1419:B 0.000442818
18 *1290:B1 *686:16 6.08467e-05
19 *1464:B *686:16 0.000311261
20 *1465:B1 *686:16 6.08467e-05
21 *2006:D *686:22 2.16355e-05
22 *548:40 *686:22 0
*RES
1 *2199:X *686:16 42.0724 
2 *686:16 *686:22 19.8029 
3 *686:22 *1387:A1 13.7491 
4 *686:22 *1435:B 17.9749 
*END

*D_NET *688 0.00547254
*CONN
*I *1386:A1 I *D sky130_fd_sc_hd__mux2_1
*I *1432:B I *D sky130_fd_sc_hd__nand2_1
*I *2198:X O *D sky130_fd_sc_hd__clkdlybuf4s50_1
*CAP
1 *1386:A1 0
2 *1432:B 0.000121022
3 *2198:X 0.000552254
4 *688:22 0.000543254
5 *688:16 0.000974486
6 *1432:B *1386:S 8.62625e-06
7 *1432:B *1435:A 8.04608e-05
8 *1432:B *1112:179 0
9 *688:16 *1419:B 5.82426e-05
10 *688:16 *1461:A 5.33266e-05
11 *688:16 *2027:CLK 0.000175884
12 *688:16 *763:33 0.000277171
13 *688:16 *1104:442 0.000423936
14 *688:22 *1386:A0 6.50586e-05
15 *688:22 *1386:S 0
16 *688:22 *1419:B 7.39195e-05
17 *688:22 *772:31 3.56264e-05
18 *688:22 *1112:157 0.000397656
19 *688:22 *1112:179 0.000356582
20 *1419:A *688:16 9.27177e-05
21 *1435:B *688:22 5.04324e-05
22 *2001:D *688:22 3.91554e-05
23 *519:12 *688:16 0.00109272
*RES
1 *2198:X *688:16 46.2696 
2 *688:16 *688:22 19.7917 
3 *688:22 *1432:B 21.7421 
4 *688:22 *1386:A1 9.24915 
*END

*D_NET *689 0.00567427
*CONN
*I *1385:A1 I *D sky130_fd_sc_hd__mux2_1
*I *1429:B I *D sky130_fd_sc_hd__nand2_1
*I *2197:X O *D sky130_fd_sc_hd__clkdlybuf4s50_1
*CAP
1 *1385:A1 0.000121816
2 *1429:B 7.63596e-05
3 *2197:X 0.00182695
4 *689:8 0.00202513
5 *1385:A1 *1340:A 4.33819e-05
6 *1385:A1 *1385:A0 6.92705e-05
7 *1385:A1 *1385:S 0.000171288
8 *1385:A1 *1112:218 0
9 *1429:B *1428:B 0
10 *1429:B *1109:295 1.07248e-05
11 *1429:B *1112:218 0
12 *689:8 *1466:A 1.19721e-05
13 *689:8 *1987:RESET_B 3.48926e-05
14 *689:8 *1987:CLK 1.87146e-05
15 *689:8 *2014:RESET_B 6.25632e-05
16 *689:8 *1109:289 0.00120121
*RES
1 *2197:X *689:8 42.7573 
2 *689:8 *1429:B 15.1659 
3 *689:8 *1385:A1 17.829 
*END

*D_NET *690 0.00315343
*CONN
*I *1426:B I *D sky130_fd_sc_hd__nand2_1
*I *1384:A1 I *D sky130_fd_sc_hd__mux2_1
*I *2196:X O *D sky130_fd_sc_hd__clkdlybuf4s50_1
*CAP
1 *1426:B 8.99698e-05
2 *1384:A1 0
3 *2196:X 0.000863188
4 *690:14 0.000953158
5 *690:14 *1327:A 5.44485e-05
6 *690:14 *1329:A2 0.000313495
7 *690:14 *1469:A2 1.00981e-05
8 *690:14 *1987:RESET_B 8.72699e-05
9 *690:14 *2026:CLK 0.000228159
10 *1302:A2 *690:14 1.45799e-05
11 *1469:A1 *690:14 9.63981e-05
12 *502:14 *1426:B 6.49003e-05
13 *672:24 *690:14 7.04109e-05
14 *684:16 *1426:B 6.92705e-05
15 *684:16 *690:14 0.000238083
*RES
1 *2196:X *690:14 42.5805 
2 *690:14 *1384:A1 9.24915 
3 *690:14 *1426:B 12.2151 
*END

*D_NET *691 0.00651014
*CONN
*I *1383:A1 I *D sky130_fd_sc_hd__mux2_1
*I *1423:B I *D sky130_fd_sc_hd__nand2_1
*I *2195:X O *D sky130_fd_sc_hd__clkdlybuf4s50_1
*CAP
1 *1383:A1 7.99483e-05
2 *1423:B 0.000239112
3 *2195:X 0.00160068
4 *691:22 0.000890168
5 *691:16 0.00217179
6 *1383:A1 *1383:A0 2.99287e-05
7 *1383:A1 *1383:S 9.95542e-06
8 *1423:B *1075:14 0
9 *1423:B *1109:497 1.8733e-05
10 *1423:B *1112:132 0
11 *691:16 *1256:B 0.000187946
12 *691:16 *1420:A 3.54718e-05
13 *691:16 *1984:RESET_B 9.37259e-05
14 *691:16 *2212:A 6.50586e-05
15 *691:16 *1050:8 0
16 *691:16 *1112:103 4.33655e-05
17 *691:22 *1461:A 6.92705e-05
18 *691:22 *1990:RESET_B 0.000143633
19 *691:22 *2031:CLK 4.31539e-05
20 *691:22 *2057:RESET_B 0
21 *691:22 *1075:14 0
22 *691:22 *1112:153 0
23 *1257:B1 *691:16 1.19856e-05
24 *1424:B *1423:B 0.000165459
25 *2057:D *1423:B 0.0002212
26 *2057:D *691:22 0.0001425
27 *442:16 *691:16 3.83072e-06
28 *548:52 *691:22 0.000243224
*RES
1 *2195:X *691:16 45.6759 
2 *691:16 *691:22 21.751 
3 *691:22 *1423:B 21.0333 
4 *691:22 *1383:A1 15.0271 
*END

*D_NET *692 0.00547054
*CONN
*I *1420:B I *D sky130_fd_sc_hd__nand2_1
*I *1382:A1 I *D sky130_fd_sc_hd__mux2_1
*I *2194:X O *D sky130_fd_sc_hd__clkdlybuf4s50_1
*CAP
1 *1420:B 0
2 *1382:A1 0.000298639
3 *2194:X 0.00197987
4 *692:18 0.00227851
5 *1382:A1 *1382:A0 1.03403e-05
6 *1382:A1 *1420:A 0.000114584
7 *692:18 *1986:RESET_B 0.000252126
8 *692:18 *1986:CLK 5.94066e-05
9 *692:18 *2012:RESET_B 0.000355099
10 *692:18 *2194:A 7.01935e-06
11 *692:18 *2212:A 1.6352e-05
12 *1421:B *1382:A1 4.37727e-05
13 *2032:D *1382:A1 4.78323e-05
14 *2032:D *692:18 6.98337e-06
*RES
1 *2194:X *692:18 48.8911 
2 *692:18 *1382:A1 17.2065 
3 *692:18 *1420:B 9.24915 
*END

*D_NET *706 0.000331241
*CONN
*I *1366:A I *D sky130_fd_sc_hd__nand2_1
*I *2193:X O *D sky130_fd_sc_hd__clkdlybuf4s50_1
*CAP
1 *1366:A 0.000165621
2 *2193:X 0.000165621
3 *1366:A *2218:A 0
4 *533:14 *1366:A 0
*RES
1 *2193:X *1366:A 30.8842 
*END

*D_NET *711 0.00397303
*CONN
*I *1475:B I *D sky130_fd_sc_hd__nand2_1
*I *1406:B I *D sky130_fd_sc_hd__nand2_1
*I *2192:X O *D sky130_fd_sc_hd__clkdlybuf4s50_1
*CAP
1 *1475:B 0
2 *1406:B 0.000275382
3 *2192:X 0.0015947
4 *711:16 0.00187009
5 *1406:B *1406:A 1.3023e-05
6 *1406:B *1984:RESET_B 0
7 *1406:B *1104:123 2.37478e-05
8 *1406:B *1109:42 0.000152945
9 *711:16 *2007:CLK 2.02035e-05
10 *711:16 *2191:A 2.29386e-05
11 *1282:B *711:16 0
*RES
1 *2192:X *711:16 24.5829 
2 *711:16 *1406:B 20.5642 
3 *711:16 *1475:B 13.7491 
*END

*D_NET *712 0.00548568
*CONN
*I *1473:B I *D sky130_fd_sc_hd__nand2_1
*I *1404:B I *D sky130_fd_sc_hd__nand2_1
*I *2191:X O *D sky130_fd_sc_hd__clkdlybuf4s50_1
*CAP
1 *1473:B 0.000238606
2 *1404:B 0
3 *2191:X 0.00166313
4 *712:22 0.000439691
5 *712:16 0.00186421
6 *1473:B *1104:172 5.03545e-06
7 *1473:B *1104:189 3.78664e-05
8 *1473:B *1109:479 9.75548e-05
9 *1473:B *1109:486 2.16355e-05
10 *712:16 *1108:32 7.04109e-05
11 *712:16 *1110:485 0.000489818
12 *712:22 *1104:172 0.000101553
13 *712:22 *1109:479 8.03393e-06
14 *1282:A *712:16 6.9404e-05
15 *1282:D *712:16 0.000224395
16 *1283:A3 *712:16 5.57582e-05
17 *1283:B1 *712:16 5.92241e-05
18 *1474:A1 *1473:B 1.84381e-05
19 *462:16 *712:16 2.09154e-05
*RES
1 *2191:X *712:16 49.4606 
2 *712:16 *712:22 5.64254 
3 *712:22 *1404:B 13.7491 
4 *712:22 *1473:B 18.8176 
*END

*D_NET *713 0.00117645
*CONN
*I *1471:B I *D sky130_fd_sc_hd__nand2_1
*I *1402:B I *D sky130_fd_sc_hd__nand2_1
*I *2190:X O *D sky130_fd_sc_hd__clkdlybuf4s50_1
*CAP
1 *1471:B 0.000107507
2 *1402:B 0
3 *2190:X 0.000416318
4 *713:10 0.000523825
5 *713:10 *1986:CLK 6.00698e-05
6 *713:10 *2212:A 0
7 *713:10 *1104:59 3.67528e-06
8 *1403:A1 *1471:B 6.50586e-05
9 *2012:D *713:10 0
10 *673:8 *713:10 0
*RES
1 *2190:X *713:10 22.1209 
2 *713:10 *1402:B 13.7491 
3 *713:10 *1471:B 16.329 
*END

*D_NET *714 0.00546338
*CONN
*I *1861:B I *D sky130_fd_sc_hd__nand2_1
*I *1863:B I *D sky130_fd_sc_hd__nand2_1
*I *2189:X O *D sky130_fd_sc_hd__clkdlybuf4s50_1
*CAP
1 *1861:B 0.000300596
2 *1863:B 8.55488e-05
3 *2189:X 0.000923593
4 *714:14 0.00044118
5 *714:12 0.000978628
6 *1861:B *1863:A 0.000105589
7 *1861:B *1104:145 4.40654e-05
8 *1863:B *1863:A 0.000161399
9 *1863:B *1105:43 2.29454e-05
10 *714:12 *1919:CLK 0
11 *714:12 *2187:A 0
12 *714:12 *1051:12 0.000518167
13 *714:12 *1110:867 0
14 *714:12 *1110:876 0
15 *714:14 *1105:43 0.000127307
16 *1862:B *1861:B 0.000208048
17 *1864:B1 *1861:B 6.65668e-05
18 *1909:D *714:12 0.00018851
19 *1920:D *714:12 0.000139202
20 *2061:D *714:12 0.000533669
21 *427:8 *1863:B 0.000308435
22 *427:8 *714:14 0.000309936
*RES
1 *2189:X *714:12 46.553 
2 *714:12 *714:14 3.49641 
3 *714:14 *1863:B 13.3243 
4 *714:14 *1861:B 24.8368 
*END

*D_NET *715 0.00142004
*CONN
*I *1665:B I *D sky130_fd_sc_hd__nand2_1
*I *1655:A1 I *D sky130_fd_sc_hd__mux2_1
*I *2188:X O *D sky130_fd_sc_hd__clkdlybuf4s50_1
*CAP
1 *1665:B 0.000146499
2 *1655:A1 9.51314e-05
3 *2188:X 0.000133051
4 *715:8 0.000374682
5 *1665:B *2185:A 1.38204e-05
6 *1665:B *793:11 0.000256766
7 *715:8 *2185:A 7.55575e-05
8 *715:8 *793:11 0.000116806
9 *1654:S *1665:B 0.000205317
10 *215:20 *1655:A1 2.41274e-06
*RES
1 *2188:X *715:8 18.4879 
2 *715:8 *1655:A1 15.0271 
3 *715:8 *1665:B 20.1151 
*END

*D_NET *716 0.00149779
*CONN
*I *1654:A1 I *D sky130_fd_sc_hd__mux2_1
*I *1662:B I *D sky130_fd_sc_hd__nand2_1
*I *2187:X O *D sky130_fd_sc_hd__clkdlybuf4s50_1
*CAP
1 *1654:A1 8.79274e-05
2 *1662:B 4.17153e-05
3 *2187:X 9.62558e-05
4 *716:8 0.000225899
5 *1654:A1 *1245:A1 0.00019849
6 *1654:A1 *793:11 0.000160135
7 *1654:A1 *1091:8 1.22289e-05
8 *716:8 *1245:A1 0.000339318
9 *716:8 *793:11 0.000335827
*RES
1 *2187:X *716:8 19.7337 
2 *716:8 *1662:B 14.4725 
3 *716:8 *1654:A1 17.5503 
*END

*D_NET *717 0.00190974
*CONN
*I *1653:A1 I *D sky130_fd_sc_hd__mux2_1
*I *1659:B I *D sky130_fd_sc_hd__nand2_1
*I *2186:X O *D sky130_fd_sc_hd__clkdlybuf4s50_1
*CAP
1 *1653:A1 0.000176796
2 *1659:B 0
3 *2186:X 0.000361576
4 *717:10 0.000538373
5 *1653:A1 *1653:A0 1.03403e-05
6 *1653:A1 *1110:735 0.000193478
7 *717:10 *1259:A 5.9708e-05
8 *717:10 *1915:RESET_B 0
9 *717:10 *2052:CLK 6.50727e-05
10 *717:10 *2186:A 0
11 *717:10 *751:12 0
12 *717:10 *1110:735 0.000131434
13 *717:10 *1110:739 0.000367283
14 *2052:D *717:10 5.68225e-06
15 *216:55 *717:10 0
*RES
1 *2186:X *717:10 25.0248 
2 *717:10 *1659:B 13.7491 
3 *717:10 *1653:A1 18.5201 
*END

*D_NET *718 0.000892419
*CONN
*I *1837:B I *D sky130_fd_sc_hd__nand2_1
*I *1839:B I *D sky130_fd_sc_hd__nand2_1
*I *2185:X O *D sky130_fd_sc_hd__clkdlybuf4s50_1
*CAP
1 *1837:B 0.000303772
2 *1839:B 1.95913e-05
3 *2185:X 0.000323364
4 *1837:B *2052:CLK 6.65668e-05
5 *1837:A *1837:B 4.65954e-06
6 *1838:B *1837:B 4.66568e-05
7 *215:20 *1837:B 5.28741e-05
8 *215:20 *1839:B 6.64392e-05
9 *216:22 *1837:B 8.49565e-06
*RES
1 *2185:X *1839:B 19.2217 
2 *2185:X *1837:B 33.4242 
*END

*D_NET *719 0.00192529
*CONN
*I *1358:B I *D sky130_fd_sc_hd__nand2_1
*I *1876:A I *D sky130_fd_sc_hd__nor2_1
*I *1879:A2 I *D sky130_fd_sc_hd__a32oi_1
*I *1878:A1 I *D sky130_fd_sc_hd__o21ai_0
*I *2184:X O *D sky130_fd_sc_hd__clkdlybuf4s50_1
*CAP
1 *1358:B 8.57191e-05
2 *1876:A 0
3 *1879:A2 0
4 *1878:A1 0.000224416
5 *2184:X 5.62464e-05
6 *719:28 0.000170396
7 *719:19 0.000184646
8 *719:6 0.000380631
9 *1358:B *2149:A 8.2492e-05
10 *1878:A1 *2184:A 7.48633e-05
11 *719:19 *1878:B1 0
12 *719:19 *2149:A 5.3697e-05
13 *719:19 *2184:A 2.36813e-05
14 *719:28 *2149:A 8.43674e-05
15 *1877:A *1358:B 0.000124086
16 *1878:A2 *1878:A1 6.92705e-05
17 *1879:A1 *1358:B 1.87125e-05
18 *1879:A1 *719:19 1.07248e-05
19 *1879:A1 *719:28 0.000271246
20 *1879:B2 *1878:A1 1.00937e-05
21 *1879:B2 *719:19 0
*RES
1 *2184:X *719:6 10.5271 
2 *719:6 *1878:A1 14.9881 
3 *719:6 *719:19 7.57775 
4 *719:19 *1879:A2 13.7491 
5 *719:19 *719:28 4.73876 
6 *719:28 *1876:A 13.7491 
7 *719:28 *1358:B 17.5597 
*END

*D_NET *765 0.000540445
*CONN
*I *2119:D I *D sky130_fd_sc_hd__dfrtp_1
*I *2182:X O *D sky130_fd_sc_hd__clkdlybuf4s50_1
*CAP
1 *2119:D 0.000248925
2 *2182:X 0.000248925
3 *2119:D *2530:A 4.25952e-05
4 *2119:D *1121:8 0
5 *2119:D *1121:10 0
*RES
1 *2182:X *2119:D 32.4086 
*END

*D_NET *766 0.000243925
*CONN
*I *2112:D I *D sky130_fd_sc_hd__dfrtp_1
*I *2181:X O *D sky130_fd_sc_hd__clkdlybuf4s50_1
*CAP
1 *2112:D 8.20655e-05
2 *2181:X 8.20655e-05
3 *2112:D *2112:CLK 7.97944e-05
*RES
1 *2181:X *2112:D 20.8855 
*END

*D_NET *767 0.0013329
*CONN
*I *2105:D I *D sky130_fd_sc_hd__dfrtp_1
*I *2180:X O *D sky130_fd_sc_hd__clkdlybuf4s50_1
*CAP
1 *2105:D 0.000426266
2 *2180:X 0.000426266
3 *2105:D axi_lite_o[35] 0
4 *2105:D *2050:RESET_B 0.000122098
5 *2105:D *2105:CLK 5.04829e-06
6 *2105:D *2180:A 0
7 *2105:D *1026:20 0.000339046
8 *2105:D *1028:10 1.41761e-05
9 *720:14 *2105:D 0
*RES
1 *2180:X *2105:D 39.7761 
*END

*D_NET *768 0.0018504
*CONN
*I *2098:D I *D sky130_fd_sc_hd__dfrtp_1
*I *2179:X O *D sky130_fd_sc_hd__clkdlybuf4s50_1
*CAP
1 *2098:D 0.000732709
2 *2179:X 0.000732709
3 *2098:D *2108:CLK 0
4 *2098:D *904:12 0.000216467
5 *2098:D *1106:373 0.00013702
6 *2098:D *1135:20 3.14978e-05
*RES
1 *2179:X *2098:D 47.0958 
*END

*D_NET *851 0.00240932
*CONN
*I *2087:RESET_B I *D sky130_fd_sc_hd__dfrtp_1
*I *2130:RESET_B I *D sky130_fd_sc_hd__dfrtp_1
*I *2129:RESET_B I *D sky130_fd_sc_hd__dfrtp_1
*I *2086:RESET_B I *D sky130_fd_sc_hd__dfrtp_4
*I *2178:X O *D sky130_fd_sc_hd__clkdlybuf4s50_1
*CAP
1 *2087:RESET_B 0.000249143
2 *2130:RESET_B 0.000144818
3 *2129:RESET_B 0.000106433
4 *2086:RESET_B 0.000511354
5 *2178:X 0.000132631
6 *851:10 0.00044438
7 *851:8 0.000353184
8 *2086:RESET_B *2129:D 1.79196e-05
9 *2086:RESET_B *2129:CLK 0
10 *2086:RESET_B *1121:62 0.000154404
11 *2087:RESET_B *2086:D 9.78191e-05
12 *2087:RESET_B *2086:CLK 0.000107412
13 *2130:RESET_B *2129:D 6.50586e-05
14 *851:10 *2129:D 2.47663e-05
*RES
1 *2178:X *851:8 16.8269 
2 *851:8 *851:10 1.832 
3 *851:10 *2086:RESET_B 10.987 
4 *851:10 *2129:RESET_B 6.82692 
5 *851:8 *2130:RESET_B 7.91202 
6 *2086:RESET_B *2087:RESET_B 14.9915 
*END

*D_NET *720 0.00263703
*CONN
*I *1477:A I *D sky130_fd_sc_hd__nand2_1
*I *2177:A I *D sky130_fd_sc_hd__clkdlybuf4s50_1
*I *1208:Y O *D sky130_fd_sc_hd__nand2_1
*CAP
1 *1477:A 0.000117107
2 *2177:A 0
3 *1208:Y 0.000994823
4 *720:14 0.000877716
5 *720:14 *1237:A1 0
6 *720:14 *2105:D 0
7 *720:14 *2219:A 0.000266465
8 *720:14 *2517:A 2.29386e-05
9 *720:14 *733:12 0
10 *1855:A *1477:A 7.69969e-05
11 *402:10 *720:14 0
12 *665:10 *720:14 0.000280986
*RES
1 *1208:Y *720:14 42.8451 
2 *720:14 *2177:A 9.24915 
3 *1208:Y *1477:A 22.0188 
*END

*D_NET *721 0.00066173
*CONN
*I *2176:A I *D sky130_fd_sc_hd__clkdlybuf4s50_1
*I *1701:Y O *D sky130_fd_sc_hd__nand2_1
*CAP
1 *2176:A 0.000330865
2 *1701:Y 0.000330865
*RES
1 *1701:Y *2176:A 25.901 
*END

*D_NET *722 0.00574252
*CONN
*I *2175:A I *D sky130_fd_sc_hd__clkdlybuf4s50_1
*I *1698:Y O *D sky130_fd_sc_hd__nand2_1
*CAP
1 *2175:A 0.000929445
2 *1698:Y 0.000597218
3 *722:12 0.00152666
4 *2175:A axi_lite_o[15] 2.58757e-05
5 *2175:A *1684:B 0.00025431
6 *2175:A *1782:B 0
7 *2175:A *758:8 0.0005523
8 *2175:A *838:58 0.000260937
9 *2175:A *879:10 0
10 *2175:A *879:16 0
11 *2175:A *881:8 9.63354e-05
12 *722:12 *1529:A2 1.76639e-05
13 *722:12 *838:39 9.73912e-05
14 *722:12 *838:58 9.34985e-06
15 *1233:A *722:12 8.01638e-06
16 *1517:B1 *722:12 0.000100705
17 *1519:A2 *2175:A 0.0001195
18 *1529:B1 *722:12 0.000703185
19 *1543:A2 *722:12 0.000301374
20 *1714:B *722:12 4.62129e-05
21 *1970:D *2175:A 9.60366e-05
22 *598:217 *722:12 0
*RES
1 *1698:Y *722:12 31.9181 
2 *722:12 *2175:A 44.3341 
*END

*D_NET *723 0.00274774
*CONN
*I *2174:A I *D sky130_fd_sc_hd__clkdlybuf4s50_1
*I *1695:Y O *D sky130_fd_sc_hd__nand2_1
*CAP
1 *2174:A 0.000751942
2 *1695:Y 0.000751942
3 *2174:A *1194:B 0
4 *2174:A *1606:B 0
5 *2174:A *1938:CLK 8.16827e-05
6 *2174:A *2117:RESET_B 0.000111677
7 *2174:A *1106:173 0.000395651
8 *2174:A *1106:233 0
9 *2174:A *1106:235 0
10 *2174:A *1126:8 0.000174166
11 *2174:A *1126:10 6.17846e-05
12 *2174:A *1126:79 0.000233436
13 *1194:A *2174:A 0
14 *305:15 *2174:A 6.08467e-05
15 *307:10 *2174:A 0
16 *309:10 *2174:A 1.03403e-05
17 *618:10 *2174:A 0.000114271
*RES
1 *1695:Y *2174:A 49.2608 
*END

*D_NET *724 0.00231995
*CONN
*I *2173:A I *D sky130_fd_sc_hd__clkdlybuf4s50_1
*I *1682:Y O *D sky130_fd_sc_hd__nand2_1
*CAP
1 *2173:A 0.00098282
2 *1682:Y 0.00098282
3 *2173:A axi_lite_o[5] 0.000110583
4 *2173:A *1945:CLK 0.000122518
5 *2173:A *1113:559 6.87575e-06
6 *2173:A *1132:86 6.50586e-05
7 *1682:A *2173:A 1.41976e-05
8 *598:548 *2173:A 3.50791e-05
*RES
1 *1682:Y *2173:A 44.5028 
*END

*D_NET *725 0.00281286
*CONN
*I *2172:A I *D sky130_fd_sc_hd__clkdlybuf4s50_1
*I *1679:Y O *D sky130_fd_sc_hd__nand2_1
*CAP
1 *2172:A 0
2 *1679:Y 0.000958578
3 *725:18 0.000958578
4 *725:18 *1508:B 1.39852e-05
5 *725:18 *1681:A 1.95129e-05
6 *725:18 *1942:CLK 3.20407e-05
7 *725:18 *1973:CLK 7.8672e-05
8 *725:18 *1016:8 1.63652e-05
9 *725:18 *1113:615 6.93171e-05
10 *1508:A *725:18 0.000359298
11 *1509:B *725:18 1.00766e-05
12 *1680:A *725:18 2.83365e-05
13 *1973:D *725:18 0.000257202
14 *598:548 *725:18 1.09013e-05
*RES
1 *1679:Y *725:18 44.3924 
2 *725:18 *2172:A 9.24915 
*END

*D_NET *726 0.00229091
*CONN
*I *2171:A I *D sky130_fd_sc_hd__clkdlybuf4s50_1
*I *1235:Y O *D sky130_fd_sc_hd__nand2_1
*CAP
1 *2171:A 0
2 *1235:Y 0.00102154
3 *726:14 0.00102154
4 *726:14 *1234:A 3.28416e-06
5 *726:14 *2038:RESET_B 8.70866e-05
6 *726:14 *758:8 0
7 *726:14 *962:14 1.79807e-05
8 *726:14 *998:12 0
9 *726:14 *1106:91 2.61857e-05
10 *1685:A2 *726:14 0.000113295
11 *1934:D *726:14 0
*RES
1 *1235:Y *726:14 42.2905 
2 *726:14 *2171:A 9.24915 
*END

*D_NET *727 0.00657689
*CONN
*I *2170:A I *D sky130_fd_sc_hd__clkdlybuf4s50_1
*I *1748:Y O *D sky130_fd_sc_hd__nand2_1
*CAP
1 *2170:A 0.00141232
2 *1748:Y 0.00108049
3 *727:20 0.00249282
4 *2170:A *1009:12 8.96314e-06
5 *2170:A *1111:603 4.58959e-05
6 *2170:A *1113:807 0.000273616
7 *2170:A *1113:818 8.74597e-05
8 *727:20 *1746:B 8.36586e-06
9 *727:20 *1929:CLK 2.99287e-05
10 *727:20 *1975:RESET_B 0
11 *727:20 *1975:CLK 0
12 *727:20 *1980:CLK 0.000146825
13 *727:20 *963:10 7.04109e-05
14 *727:20 *1022:12 8.32952e-06
15 *727:20 *1111:172 2.17582e-05
16 *727:20 *1111:299 4.62713e-05
17 *727:20 *1129:8 1.07248e-05
18 *727:20 *1129:53 0.000127179
19 *1495:A *2170:A 3.18904e-05
20 *1592:A1 *2170:A 0.00025233
21 *184:119 *2170:A 7.40248e-05
22 *184:130 *2170:A 0.000303483
23 *388:81 *727:20 4.37999e-05
24 *597:112 *727:20 0
*RES
1 *1748:Y *727:20 48.1657 
2 *727:20 *2170:A 45.6327 
*END

*D_NET *728 0.00559143
*CONN
*I *2169:A I *D sky130_fd_sc_hd__clkdlybuf4s50_1
*I *1745:Y O *D sky130_fd_sc_hd__nand2_1
*CAP
1 *2169:A 0.000565917
2 *1745:Y 0.00167088
3 *728:20 0.0022368
4 *2169:A *1224:A 2.6874e-05
5 *2169:A *1225:B 4.0752e-05
6 *2169:A *1912:CLK 6.14949e-06
7 *728:20 *1189:A 1.42087e-05
8 *728:20 *1512:B 5.10171e-05
9 *728:20 *1912:CLK 1.31657e-05
10 *728:20 *1972:CLK 4.34469e-05
11 *728:20 *2515:A 0.00011818
12 *728:20 *1133:8 0.00012838
13 *1593:A2 *2169:A 0.000310264
14 *1593:B1 *2169:A 2.65831e-05
15 *1972:D *728:20 0.000162663
16 *413:10 *2169:A 3.48551e-05
17 *458:142 *728:20 0.000125129
18 *598:21 *728:20 1.61631e-05
*RES
1 *1745:Y *728:20 48.5053 
2 *728:20 *2169:A 20.727 
*END

*D_NET *729 0.00138454
*CONN
*I *2168:A I *D sky130_fd_sc_hd__clkdlybuf4s50_1
*I *1202:Y O *D sky130_fd_sc_hd__nand2_1
*CAP
1 *2168:A 0.000330618
2 *1202:Y 0.000330618
3 *2168:A *1536:B 0.000109779
4 *1537:A1 *2168:A 0.000208599
5 *1537:B1 *2168:A 0.00040493
*RES
1 *1202:Y *2168:A 28.6982 
*END

*D_NET *730 0.00263588
*CONN
*I *2167:A I *D sky130_fd_sc_hd__clkdlybuf4s50_1
*I *1205:Y O *D sky130_fd_sc_hd__nand2_1
*CAP
1 *2167:A 0.000997659
2 *1205:Y 0.000997659
3 *2167:A *1498:B 1.57486e-05
4 *2167:A *1978:RESET_B 0.000450708
5 *1205:A *2167:A 6.46815e-05
6 *1223:B1 *2167:A 0.000109427
*RES
1 *1205:Y *2167:A 37.0413 
*END

*D_NET *732 0.00322435
*CONN
*I *2166:A I *D sky130_fd_sc_hd__clkdlybuf4s50_1
*I *1196:Y O *D sky130_fd_sc_hd__nand2_1
*CAP
1 *2166:A 0
2 *1196:Y 0.00146421
3 *732:12 0.00146421
4 *732:12 *1938:RESET_B 0
5 *732:12 *2509:A 1.21976e-05
6 *732:12 *1111:209 0.000149377
7 *1194:A *732:12 1.19856e-05
8 *1196:A *732:12 0.000122378
*RES
1 *1196:Y *732:12 48.3673 
2 *732:12 *2166:A 9.24915 
*END

*D_NET *733 0.00545493
*CONN
*I *2165:A I *D sky130_fd_sc_hd__clkdlybuf4s50_1
*I *1199:Y O *D sky130_fd_sc_hd__nand2_1
*CAP
1 *2165:A 0
2 *1199:Y 7.68978e-05
3 *733:12 0.00133117
4 *733:8 0.00140806
5 *733:8 *2040:CLK 4.89251e-05
6 *733:12 *1724:A 0
7 *733:12 *2055:CLK 2.22198e-05
8 *733:12 *2106:CLK 0.000585987
9 *733:12 *2219:A 0
10 *733:12 *777:8 0.000756712
11 *733:12 *839:38 0
12 *733:12 *1135:26 6.46135e-05
13 *1853:A *733:12 8.70701e-05
14 *1853:B *733:12 0
15 *2055:D *733:12 0.00107327
16 *261:10 *733:12 0
17 *665:10 *733:12 0
18 *720:14 *733:12 0
*RES
1 *1199:Y *733:8 15.0271 
2 *733:8 *733:12 49.9335 
3 *733:12 *2165:A 9.24915 
*END

*D_NET *734 0.00353394
*CONN
*I *2164:A I *D sky130_fd_sc_hd__clkdlybuf4s50_1
*I *1190:Y O *D sky130_fd_sc_hd__nand2_1
*CAP
1 *2164:A 0
2 *1190:Y 0.0016193
3 *734:16 0.0016193
4 *734:16 *1218:A 6.58125e-05
5 *734:16 *1979:RESET_B 0
6 *734:16 *1982:CLK 1.22226e-05
7 *734:16 *2154:A 1.4091e-06
8 *734:16 *1133:66 4.47179e-05
9 *1190:A *734:16 1.36606e-05
10 *1591:A1 *734:16 4.98715e-05
11 *409:14 *734:16 4.49798e-05
12 *598:514 *734:16 6.26724e-05
*RES
1 *1190:Y *734:16 43.4522 
2 *734:16 *2164:A 9.24915 
*END

*D_NET *735 0.000804226
*CONN
*I *2163:A I *D sky130_fd_sc_hd__clkdlybuf4s50_1
*I *1193:Y O *D sky130_fd_sc_hd__o21ai_0
*CAP
1 *2163:A 0.000299972
2 *1193:Y 0.000299972
3 *2163:A axi_lite_o[23] 0
4 *2163:A *1191:A 8.07875e-05
5 *2163:A *1227:A 0
6 *2163:A *1945:RESET_B 2.34465e-05
7 *2163:A *2152:A 0
8 *2163:A *1113:959 7.00421e-05
9 *1193:B1 *2163:A 1.50924e-05
10 *391:8 *2163:A 1.49129e-05
*RES
1 *1193:Y *2163:A 34.7608 
*END

*D_NET *830 0.000209132
*CONN
*I *1299:A I *D sky130_fd_sc_hd__inv_1
*I *2082:Q O *D sky130_fd_sc_hd__dfrtp_1
*CAP
1 *1299:A 6.16575e-05
2 *2082:Q 6.16575e-05
3 *1304:A1 *1299:A 8.58173e-05
*RES
1 *2082:Q *1299:A 20.4213 
*END

*D_NET *831 0.00831099
*CONN
*I *1538:A2 I *D sky130_fd_sc_hd__a21oi_1
*I *1769:A I *D sky130_fd_sc_hd__nor2_1
*I *1320:A I *D sky130_fd_sc_hd__nor2_1
*I *2076:Q O *D sky130_fd_sc_hd__dfrtp_1
*CAP
1 *1538:A2 0.000494885
2 *1769:A 0.000356331
3 *1320:A 0.000277491
4 *2076:Q 0
5 *831:19 0.00287914
6 *831:4 0.00230541
7 *1538:A2 *1565:A1 1.37939e-05
8 *1769:A *1565:A1 4.9e-05
9 *1769:A *1768:A 0
10 *1769:A *1955:CLK 0.000111625
11 *1769:A *855:8 0
12 *831:19 *1347:S 0.000164257
13 *831:19 *1565:A1 2.58757e-05
14 *1538:A1 *1538:A2 2.58616e-05
15 *1538:B1 *1538:A2 6.36477e-05
16 *1548:B *831:19 0.000546121
17 *1565:A3 *831:19 3.64168e-05
18 *1565:B1 *831:19 4.23858e-05
19 *2068:D *831:19 2.26713e-06
20 *224:46 *1320:A 3.6928e-05
21 *458:105 *1538:A2 1.5552e-05
22 *650:10 *1538:A2 0.000589588
23 *652:19 *1769:A 0.000274413
*RES
1 *2076:Q *831:4 9.24915 
2 *831:4 *1320:A 23.2989 
3 *831:4 *831:19 30.672 
4 *831:19 *1769:A 29.9495 
5 *831:19 *1538:A2 28.3225 
*END

*D_NET *832 0.00904904
*CONN
*I *1902:A I *D sky130_fd_sc_hd__nor2_1
*I *1535:A2 I *D sky130_fd_sc_hd__a21oi_1
*I *1891:A I *D sky130_fd_sc_hd__nor2_1
*I *2077:Q O *D sky130_fd_sc_hd__dfrtp_1
*CAP
1 *1902:A 4.92536e-05
2 *1535:A2 0
3 *1891:A 0.000231774
4 *2077:Q 0
5 *832:43 0.000596031
6 *832:27 0.00217118
7 *832:4 0.00175767
8 *1891:A *2077:RESET_B 0
9 *1891:A *1116:55 2.58709e-05
10 *832:27 cio_gpio_en_o[3] 6.27718e-05
11 *832:27 *2048:CLK 1.41307e-05
12 *832:27 *1116:55 2.36617e-05
13 *832:43 *1523:A2 0.000138825
14 *832:43 *1901:A 6.23875e-05
15 *832:43 *2512:A 0.000623449
16 *832:43 *836:31 0.000264586
17 *832:43 *1130:8 0.000171288
18 *832:43 *1130:94 3.08133e-05
19 *1535:A1 *832:43 7.50872e-05
20 *1535:B1 *832:43 3.07726e-05
21 *1611:A2 *832:43 0.000200236
22 *1673:B *1891:A 1.07248e-05
23 *1901:B *832:43 2.71542e-05
24 *1902:B *832:27 2.6046e-05
25 *1902:B *832:43 0.000104731
26 *1904:A2 *1902:A 6.08467e-05
27 *2134:A *832:27 3.00829e-05
28 *457:38 *832:43 2.82537e-05
29 *458:94 *832:27 0.000273515
30 *458:94 *832:43 0.00014174
31 *458:101 *832:43 0.000138242
32 *458:195 *832:27 0.000161452
33 *620:8 *832:43 0.000903252
34 *659:20 *832:27 0.000508156
35 *790:12 *832:27 0.000105064
*RES
1 *2077:Q *832:4 9.24915 
2 *832:4 *1891:A 22.7442 
3 *832:4 *832:27 37.8796 
4 *832:27 *832:43 41.368 
5 *832:43 *1535:A2 9.24915 
6 *832:27 *1902:A 15.0513 
*END

*D_NET *833 0.00602154
*CONN
*I *1532:A2 I *D sky130_fd_sc_hd__a21oi_1
*I *1741:B1 I *D sky130_fd_sc_hd__a211oi_1
*I *1315:A I *D sky130_fd_sc_hd__nor2_1
*I *2078:Q O *D sky130_fd_sc_hd__dfrtp_1
*CAP
1 *1532:A2 0.000375312
2 *1741:B1 0.000528353
3 *1315:A 3.54032e-05
4 *2078:Q 8.62901e-05
5 *833:23 0.00180824
6 *833:10 0.00102627
7 *1315:A *1315:B 2.07656e-06
8 *1532:A2 *844:8 4.23858e-05
9 *1741:B1 *1741:A1 0.000898749
10 *1741:B1 *2124:RESET_B 5.18861e-05
11 *1741:B1 *844:12 5.37077e-05
12 *1741:B1 *853:28 0.000305464
13 *833:23 *844:8 2.16355e-05
14 cio_gpio_en_o[1] *1741:B1 0.000256924
15 *1532:B1 *1532:A2 6.31993e-05
16 *1741:C1 *1741:B1 1.96456e-05
17 *1742:A1 *1532:A2 2.40615e-05
18 *1742:A2 *1532:A2 0.000114584
19 *1742:B1 *1532:A2 0.000108506
20 *611:91 *1532:A2 9.95542e-06
21 *626:14 *1532:A2 0.000158877
22 *787:14 *1532:A2 3.00082e-05
*RES
1 *2078:Q *833:10 20.0811 
2 *833:10 *1315:A 10.2378 
3 *833:10 *833:23 19.2182 
4 *833:23 *1741:B1 35.5021 
5 *833:23 *1532:A2 20.5341 
*END

*D_NET *834 0.00971667
*CONN
*I *1529:A2 I *D sky130_fd_sc_hd__a21oi_1
*I *1751:B1 I *D sky130_fd_sc_hd__a211oi_1
*I *1311:A I *D sky130_fd_sc_hd__nor2_1
*I *2079:Q O *D sky130_fd_sc_hd__dfrtp_1
*CAP
1 *1529:A2 0.00118951
2 *1751:B1 0.000162374
3 *1311:A 0.000277592
4 *2079:Q 0
5 *834:23 0.00289196
6 *834:4 0.00181767
7 *1311:A *2074:CLK 4.43331e-05
8 *1311:A *1107:238 0.000360313
9 *1311:A *1107:240 0.000114584
10 *1311:A *1107:352 0.000102987
11 *1311:A *1123:28 4.54899e-05
12 *1529:A2 *1545:B 7.61007e-05
13 *1529:A2 *1697:A 0.000117723
14 *834:23 *1544:A2 6.97064e-05
15 *834:23 *2079:RESET_B 8.08839e-05
16 *834:23 *1123:26 0.000112401
17 *1331:B1 *1311:A 3.00174e-06
18 *1544:B1 *834:23 1.00901e-05
19 *1546:A1 *1529:A2 0.000221415
20 *1546:A2 *1529:A2 4.85806e-05
21 *1581:A *834:23 5.49652e-05
22 *1698:B *1529:A2 9.33736e-06
23 *458:195 *1751:B1 3.46922e-05
24 *458:206 *1751:B1 0.00012367
25 *506:16 *1311:A 0.000289514
26 *611:53 *1751:B1 7.75163e-05
27 *611:64 *1751:B1 0.000302076
28 *624:12 *1529:A2 0.00016386
29 *634:6 *1529:A2 0.000647162
30 *634:6 *834:23 6.27718e-05
31 *663:10 *834:23 0.000186721
32 *722:12 *1529:A2 1.76639e-05
*RES
1 *2079:Q *834:4 9.24915 
2 *834:4 *1311:A 29.536 
3 *834:4 *834:23 33.0833 
4 *834:23 *1751:B1 25.0642 
5 *834:23 *1529:A2 31.6744 
*END

*D_NET *835 0.00838222
*CONN
*I *1770:B1 I *D sky130_fd_sc_hd__a211oi_1
*I *1526:A2 I *D sky130_fd_sc_hd__a21oi_1
*I *1307:A I *D sky130_fd_sc_hd__nor2_1
*I *2080:Q O *D sky130_fd_sc_hd__dfrtp_1
*CAP
1 *1770:B1 0
2 *1526:A2 0.000945758
3 *1307:A 0.000466873
4 *2080:Q 0
5 *835:31 0.00225849
6 *835:4 0.0017796
7 *1307:A *2076:RESET_B 0
8 *1307:A *2084:RESET_B 0.000164189
9 *1526:A2 *1636:B 8.23828e-05
10 *1526:A2 *1721:B 1.65872e-05
11 *835:31 *2043:RESET_B 0.000309626
12 *835:31 *2043:CLK 0.00017287
13 *835:31 *2084:RESET_B 9.55447e-05
14 *835:31 *2127:RESET_B 4.12705e-05
15 *835:31 *847:16 3.28976e-05
16 *835:31 *1137:12 0.0001098
17 *1292:A1 *835:31 1.25205e-05
18 *1526:A1 *1526:A2 0.000156076
19 *1572:B1 *1526:A2 0.000107496
20 *1572:C1 *1526:A2 0.000366027
21 *2047:D *1307:A 3.34802e-05
22 *2084:D *1307:A 0
23 *2091:D *835:31 0.000310724
24 *421:33 *1526:A2 2.71504e-05
25 *457:27 *1526:A2 4.0508e-05
26 *458:31 *835:31 1.58018e-05
27 *458:46 *835:31 0.000141724
28 *519:12 *1307:A 5.67722e-05
29 *622:6 *1526:A2 0.000159016
30 *656:8 *1526:A2 0.000100505
31 *763:12 *1307:A 0
32 *763:33 *1307:A 0.000224381
33 *771:10 *835:31 0.000154145
*RES
1 *2080:Q *835:4 9.24915 
2 *835:4 *1307:A 28.0438 
3 *835:4 *835:31 36.1509 
4 *835:31 *1526:A2 43.2057 
5 *835:31 *1770:B1 9.24915 
*END

*D_NET *836 0.00656755
*CONN
*I *1903:B1 I *D sky130_fd_sc_hd__a211oi_1
*I *1523:A2 I *D sky130_fd_sc_hd__a21oi_1
*I *1895:A I *D sky130_fd_sc_hd__nor2_1
*I *2081:Q O *D sky130_fd_sc_hd__dfrtp_1
*CAP
1 *1903:B1 0.000286059
2 *1523:A2 8.59504e-05
3 *1895:A 0.000220292
4 *2081:Q 0
5 *836:31 0.0018789
6 *836:4 0.00172719
7 *1895:A *2068:RESET_B 1.34905e-05
8 *1895:A *2068:CLK 1.33284e-05
9 *1895:A *2084:CLK 1.50633e-05
10 *1895:A *1116:14 4.70005e-05
11 *1903:B1 *1903:A1 0.000107496
12 *1903:B1 *1903:A2 2.77625e-06
13 *836:31 *1901:A 3.14544e-05
14 *836:31 *2068:RESET_B 5.48288e-05
15 *836:31 *2068:CLK 8.40961e-05
16 *836:31 *846:10 0.000459708
17 *1896:B1 *1895:A 3.34802e-05
18 *1903:C1 *1903:B1 2.16355e-05
19 *2044:D *1895:A 0
20 *450:78 *1903:B1 0.00029524
21 *450:78 *836:31 7.65861e-05
22 *457:38 *1903:B1 6.84784e-06
23 *458:94 *1523:A2 0.000200794
24 *458:101 *1523:A2 0.000152753
25 *611:6 *836:31 1.41181e-05
26 *611:49 *836:31 8.34649e-05
27 *611:53 *1903:B1 0.000251587
28 *772:10 *1895:A 0
29 *832:43 *1523:A2 0.000138825
30 *832:43 *836:31 0.000264586
*RES
1 *2081:Q *836:4 9.24915 
2 *836:4 *1895:A 22.7442 
3 *836:4 *836:31 33.0923 
4 *836:31 *1523:A2 17.8002 
5 *836:31 *1903:B1 21.7056 
*END

*D_NET *837 0.00822912
*CONN
*I *1342:A I *D sky130_fd_sc_hd__nor2_1
*I *1520:A2 I *D sky130_fd_sc_hd__a21oi_1
*I *1737:A I *D sky130_fd_sc_hd__nand2_1
*I *1738:A1 I *D sky130_fd_sc_hd__o21ai_1
*I *2070:Q O *D sky130_fd_sc_hd__dfrtp_1
*CAP
1 *1342:A 0.000378093
2 *1520:A2 0.000571026
3 *1737:A 0
4 *1738:A1 2.1308e-05
5 *2070:Q 0.00167692
6 *837:25 0.000739241
7 *837:14 0.000605395
8 *837:12 0.0017147
9 *1342:A *2070:RESET_B 0
10 *1342:A *1107:195 0.000175485
11 *1342:A *1110:277 2.24632e-05
12 *1342:A *1110:289 3.00174e-06
13 *1520:A2 *1957:CLK 6.08467e-05
14 *837:12 *1351:A0 3.45336e-05
15 *837:12 *2066:RESET_B 0
16 *837:12 *2067:RESET_B 0
17 *837:12 *2082:CLK 0
18 *837:12 *2124:D 0.000168664
19 *837:12 *2505:A 4.34034e-05
20 *837:12 *1113:64 8.13812e-06
21 *837:12 *1113:66 0
22 *837:12 *1123:20 7.92757e-06
23 *837:14 *853:28 0.000247443
24 *837:14 *1122:8 3.99086e-06
25 *837:25 *1737:B 0.000110297
26 cio_gpio_en_o[1] *837:14 2.15049e-05
27 *1297:B *1342:A 8.62625e-06
28 *1303:B *1342:A 6.64392e-05
29 *1355:A1 *837:12 0.000137827
30 *1558:B2 *837:14 5.8973e-05
31 *1558:B2 *837:25 2.99287e-05
32 *1673:A *1342:A 0
33 *1675:B *837:12 0.000338713
34 *1738:A2 *837:25 9.75148e-06
35 *1738:B1 *837:25 3.95326e-05
36 *1809:A1 *837:25 6.78364e-06
37 *1926:D *1520:A2 0.000183943
38 *1965:D *1520:A2 2.41274e-06
39 *2066:D *837:12 4.40158e-05
40 *2136:A *837:14 0.000213725
41 *224:117 *1342:A 0
42 *485:24 *1342:A 0.000100985
43 *525:8 *837:14 2.54062e-05
44 *626:14 *1520:A2 0
45 *786:8 *837:14 0.000110306
46 *786:8 *837:25 0.000149247
47 *788:14 *1520:A2 8.81107e-05
*RES
1 *2070:Q *837:12 49.4625 
2 *837:12 *837:14 10.7063 
3 *837:14 *1738:A1 9.82786 
4 *837:14 *837:25 5.18434 
5 *837:25 *1737:A 9.24915 
6 *837:25 *1520:A2 32.057 
7 *2070:Q *1342:A 37.9841 
*END

*D_NET *838 0.0129772
*CONN
*I *1685:A1 I *D sky130_fd_sc_hd__o21ai_1
*I *1684:A I *D sky130_fd_sc_hd__nand2_1
*I *1517:A2 I *D sky130_fd_sc_hd__a21oi_1
*I *1338:A I *D sky130_fd_sc_hd__nor2_1
*I *2071:Q O *D sky130_fd_sc_hd__dfrtp_1
*CAP
1 *1685:A1 0.000178126
2 *1684:A 0
3 *1517:A2 2.06983e-05
4 *1338:A 0.000284945
5 *2071:Q 0
6 *838:58 0.000764631
7 *838:39 0.00167917
8 *838:21 0.00316599
9 *838:4 0.00237897
10 *1338:A *2071:RESET_B 0.000167404
11 *1338:A *2071:CLK 8.9472e-05
12 *1338:A *1107:260 5.39608e-05
13 *1338:A *1107:280 5.22654e-06
14 *1338:A *1113:20 0
15 *1685:A1 *1684:B 2.31875e-05
16 *838:21 *2071:RESET_B 4.88955e-05
17 *838:21 *2125:CLK 7.11505e-05
18 *838:21 *848:12 2.84712e-06
19 *838:21 *910:63 5.37479e-05
20 *838:39 *1713:A 1.65872e-05
21 *838:39 *1713:B 2.31905e-05
22 *838:39 *1751:A1 1.9633e-05
23 *838:39 *1751:A2 0.000194701
24 *838:39 *1962:CLK 0.000173066
25 *838:58 *1518:B 1.1883e-05
26 *838:58 *1684:B 6.08467e-05
27 *838:58 *1934:RESET_B 0.000125199
28 *838:58 *1970:RESET_B 0
29 *838:58 *1113:333 0
30 *1517:A1 *838:39 6.93171e-05
31 *1517:B1 *838:39 9.29919e-05
32 *1519:A2 *838:58 0.000122992
33 *1543:A1 *838:39 4.58003e-05
34 *1543:A2 *838:39 0.000297777
35 *1685:B1 *1685:A1 0.000114271
36 *1714:B *838:39 1.03594e-05
37 *1751:C1 *838:39 4.88955e-05
38 *2125:D *838:21 0.000113289
39 *2175:A *838:58 0.000260937
40 *388:30 *1517:A2 0.000112367
41 *458:262 *838:39 0.000107496
42 *598:217 *838:39 2.36813e-05
43 *598:228 *838:39 5.57008e-05
44 *598:258 *838:39 1.49898e-05
45 *618:10 *1517:A2 4.89392e-05
46 *642:22 *838:39 0.00130047
47 *722:12 *838:39 9.73912e-05
48 *722:12 *838:58 9.34985e-06
49 *776:16 *1685:A1 0.000120038
50 *776:28 *838:39 0.0002646
51 *786:20 *838:21 3.20011e-05
*RES
1 *2071:Q *838:4 9.24915 
2 *838:4 *1338:A 23.9928 
3 *838:4 *838:21 31.3713 
4 *838:21 *838:39 48.758 
5 *838:39 *1517:A2 15.0271 
6 *838:39 *838:58 21.25 
7 *838:58 *1684:A 9.24915 
8 *838:58 *1685:A1 14.8916 
*END

*D_NET *839 0.00812708
*CONN
*I *1725:A I *D sky130_fd_sc_hd__nand2_1
*I *1726:A1 I *D sky130_fd_sc_hd__o21ai_1
*I *1514:A2 I *D sky130_fd_sc_hd__a21oi_1
*I *1334:A I *D sky130_fd_sc_hd__nor2_1
*I *2072:Q O *D sky130_fd_sc_hd__dfrtp_1
*CAP
1 *1725:A 0.000161721
2 *1726:A1 0
3 *1514:A2 0
4 *1334:A 0.000356505
5 *2072:Q 0.000121757
6 *839:38 0.000958855
7 *839:23 0.00181665
8 *839:10 0.00149778
9 *1725:A *1725:B 0.000109655
10 *1725:A *1822:B 0
11 *839:38 *2040:CLK 7.36725e-05
12 *839:38 *1111:10 0.000196836
13 *839:38 *1111:23 0.000381698
14 *839:38 *1136:10 0.000139275
15 *1286:A *839:10 1.09738e-05
16 *1286:B *839:23 0.00011818
17 *1286:D *839:23 0.000277488
18 *1514:A1 *839:23 9.82896e-06
19 *1514:A1 *839:38 0.000207399
20 *1514:B1 *839:23 0.000117856
21 *1667:C *839:23 0.000134849
22 *1726:A2 *1725:A 4.59001e-05
23 *1853:A *839:38 8.46891e-05
24 *1853:B *839:38 0.000364631
25 *2489:A *839:10 2.12377e-05
26 *224:12 *839:10 0
27 *443:45 *839:23 0.000218833
28 *598:376 *839:38 0.000102367
29 *611:247 *839:23 0.0005768
30 *636:6 *839:23 2.16355e-05
31 *733:12 *839:38 0
*RES
1 *2072:Q *839:10 20.9116 
2 *839:10 *1334:A 17.2065 
3 *839:10 *839:23 29.5869 
4 *839:23 *1514:A2 9.24915 
5 *839:23 *839:38 36.6505 
6 *839:38 *1726:A1 9.24915 
7 *839:38 *1725:A 14.2406 
*END

*D_NET *840 0.00777049
*CONN
*I *1887:A I *D sky130_fd_sc_hd__nor2_1
*I *1767:A1 I *D sky130_fd_sc_hd__o21ai_1
*I *1766:A I *D sky130_fd_sc_hd__nand2_1
*I *1511:A2 I *D sky130_fd_sc_hd__a21oi_1
*I *2073:Q O *D sky130_fd_sc_hd__dfrtp_1
*CAP
1 *1887:A 0.000279173
2 *1767:A1 0
3 *1766:A 3.42747e-05
4 *1511:A2 0.000114911
5 *2073:Q 0.000254268
6 *840:22 0.000307463
7 *840:18 0.00244395
8 *840:8 0.00281912
9 *1511:A2 *1131:27 0
10 *1887:A *2043:CLK 5.46384e-06
11 *1887:A *1107:14 0
12 *1887:A *1107:34 0.000211539
13 *1887:A *1107:416 0
14 *1887:A *1137:24 0.000406978
15 *840:8 *1107:14 0
16 *840:18 *2492:A 0.00053456
17 *840:22 *1766:B 0.000107496
18 *1258:B *840:8 0
19 *1278:B *840:8 0
20 *1511:A1 *1511:A2 5.04829e-06
21 *1767:A2 *840:18 1.91391e-05
22 *1767:B1 *1766:A 1.61631e-05
23 *1767:B1 *840:22 1.15389e-05
24 *388:143 *1511:A2 0.000118485
25 *458:128 *1511:A2 1.1246e-05
26 *458:142 *1511:A2 5.22654e-06
27 *611:152 *840:18 2.02035e-05
28 *612:10 *1511:A2 3.14978e-05
29 *778:18 *1766:A 1.27469e-05
*RES
1 *2073:Q *840:8 19.526 
2 *840:8 *840:18 17.7853 
3 *840:18 *840:22 3.52053 
4 *840:22 *1511:A2 21.635 
5 *840:22 *1766:A 10.497 
6 *840:18 *1767:A1 9.24915 
7 *840:8 *1887:A 22.4706 
*END

*D_NET *841 0.000133902
*CONN
*I *1293:A I *D sky130_fd_sc_hd__inv_1
*I *2083:Q O *D sky130_fd_sc_hd__dfrtp_1
*CAP
1 *1293:A 3.47063e-05
2 *2083:Q 3.47063e-05
3 *1298:A1 *1293:A 4.06846e-05
4 *1674:A1 *1293:A 2.38045e-05
*RES
1 *2083:Q *1293:A 20.0114 
*END

*D_NET *842 0.000934508
*CONN
*I *1236:A I *D sky130_fd_sc_hd__inv_1
*I *2084:Q O *D sky130_fd_sc_hd__dfrtp_1
*CAP
1 *1236:A 0.000226847
2 *2084:Q 0.000226847
3 *1236:A *2069:RESET_B 0.000329003
4 *1236:A *1137:12 0
5 *1292:A1 *1236:A 5.27799e-05
6 *1552:B2 *1236:A 6.50727e-05
7 *1672:A1 *1236:A 3.39578e-05
*RES
1 *2084:Q *1236:A 34.586 
*END

*D_NET *843 0.00117736
*CONN
*I *1562:A I *D sky130_fd_sc_hd__inv_1
*I *2085:Q O *D sky130_fd_sc_hd__dfrtp_1
*CAP
1 *1562:A 0.000337622
2 *2085:Q 0.000337622
3 *1562:A *2092:RESET_B 0.000156076
4 *1564:A1 *1562:A 6.64843e-05
5 *1898:A1 *1562:A 0.000113593
6 *458:23 *1562:A 0.000114659
7 *637:23 *1562:A 5.13058e-05
*RES
1 *2085:Q *1562:A 35.8401 
*END

*D_NET *844 0.00424448
*CONN
*I *1741:A1 I *D sky130_fd_sc_hd__a211oi_1
*I *1558:A1 I *D sky130_fd_sc_hd__a221oi_1
*I *1355:A0 I *D sky130_fd_sc_hd__mux2_1
*I *2066:Q O *D sky130_fd_sc_hd__dfrtp_1
*CAP
1 *1741:A1 0.000293507
2 *1558:A1 0.000206758
3 *1355:A0 0.000269076
4 *2066:Q 0.000125841
5 *844:12 0.000573216
6 *844:8 0.000516731
7 *1355:A0 *1355:S 4.89251e-05
8 *1741:A1 cio_gpio_o[1] 0.000103706
9 *1741:A1 *1741:A2 0.00026179
10 *1741:A1 *1807:B1 7.5301e-06
11 *1741:A1 *2125:RESET_B 8.39267e-05
12 *1741:A1 *865:14 0.000469839
13 *844:12 *2125:RESET_B 9.66563e-05
14 *844:12 *853:28 7.06708e-05
15 cio_gpio_en_o[1] *1741:A1 8.70662e-06
16 *1532:A2 *844:8 4.23858e-05
17 *1558:C1 *1558:A1 8.60676e-05
18 *1741:B1 *1741:A1 0.000898749
19 *1741:B1 *844:12 5.37077e-05
20 *1741:C1 *1741:A1 5.04829e-06
21 *833:23 *844:8 2.16355e-05
*RES
1 *2066:Q *844:8 15.5817 
2 *844:8 *844:12 8.40826 
3 *844:12 *1355:A0 14.9881 
4 *844:12 *1558:A1 13.8548 
5 *844:8 *1741:A1 29.0436 
*END

*D_NET *845 0.00524815
*CONN
*I *1555:A1 I *D sky130_fd_sc_hd__a221oi_1
*I *1751:A1 I *D sky130_fd_sc_hd__a211oi_1
*I *1351:A0 I *D sky130_fd_sc_hd__mux2_1
*I *2067:Q O *D sky130_fd_sc_hd__dfrtp_1
*CAP
1 *1555:A1 0.000140281
2 *1751:A1 0.000226776
3 *1351:A0 0.000536239
4 *2067:Q 0
5 *845:31 0.000500791
6 *845:4 0.000669972
7 *1351:A0 *1355:S 0.000312718
8 *1351:A0 *2067:RESET_B 8.62625e-06
9 *1351:A0 *849:16 0.000140983
10 *1351:A0 *1107:310 4.17605e-05
11 *1351:A0 *1122:32 5.42e-05
12 *1751:A1 *1751:A2 6.50586e-05
13 *845:31 *849:16 0.00101053
14 *1351:A1 *1351:A0 2.57986e-05
15 *1555:B1 *1555:A1 4.58442e-05
16 *1555:B2 *1351:A0 9.50021e-05
17 *1555:B2 *845:31 0.000825674
18 *1742:A2 *1555:A1 2.35113e-05
19 *1742:A2 *1751:A1 3.74935e-05
20 *611:70 *1555:A1 1.03594e-05
21 *644:16 *845:31 8.37016e-05
22 *776:28 *1751:A1 3.58208e-05
23 *790:12 *1555:A1 0.000107263
24 *790:12 *1751:A1 0.000170592
25 *790:22 *1555:A1 2.49836e-05
26 *837:12 *1351:A0 3.45336e-05
27 *838:39 *1751:A1 1.9633e-05
*RES
1 *2067:Q *845:4 9.24915 
2 *845:4 *1351:A0 32.7271 
3 *845:4 *845:31 15.7609 
4 *845:31 *1751:A1 19.7687 
5 *845:31 *1555:A1 18.1459 
*END

*D_NET *846 0.00564683
*CONN
*I *1552:A1 I *D sky130_fd_sc_hd__a221oi_1
*I *1347:A0 I *D sky130_fd_sc_hd__mux2_1
*I *1770:A1 I *D sky130_fd_sc_hd__a211oi_1
*I *2068:Q O *D sky130_fd_sc_hd__dfrtp_1
*CAP
1 *1552:A1 7.05371e-05
2 *1347:A0 0.000654938
3 *1770:A1 0.000243641
4 *2068:Q 0.000681073
5 *846:12 0.00102483
6 *846:10 0.00087786
7 *1347:A0 *910:121 0
8 *1552:A1 *2127:CLK 4.17467e-05
9 *1770:A1 *1770:A2 6.92705e-05
10 *1770:A1 *2127:RESET_B 0.000195473
11 *846:10 *2127:RESET_B 1.44611e-05
12 *846:12 *2127:RESET_B 8.01886e-05
13 *1347:A1 *1347:A0 0.000337031
14 *1552:A2 *1552:A1 6.36477e-05
15 *1552:A2 *846:10 0.0001739
16 *1552:A2 *846:12 2.75449e-05
17 *1552:B2 *1347:A0 0.000146752
18 *1901:B *846:10 0
19 *2091:D *1770:A1 9.81288e-06
20 *2128:D *846:10 3.94878e-05
21 *453:29 *1770:A1 0
22 *457:27 *846:10 0
23 *611:10 *846:10 0.000434929
24 *836:31 *846:10 0.000459708
*RES
1 *2068:Q *846:10 30.7074 
2 *846:10 *846:12 3.493 
3 *846:12 *1770:A1 19.2141 
4 *846:12 *1347:A0 38.6094 
5 *846:10 *1552:A1 15.5817 
*END

*D_NET *847 0.00721342
*CONN
*I *1549:A1 I *D sky130_fd_sc_hd__a221oi_1
*I *1903:A1 I *D sky130_fd_sc_hd__a211oi_1
*I *1884:A0 I *D sky130_fd_sc_hd__mux2_1
*I *2069:Q O *D sky130_fd_sc_hd__dfrtp_1
*CAP
1 *1549:A1 5.27581e-05
2 *1903:A1 0.000659476
3 *1884:A0 0.000490391
4 *2069:Q 0.000906331
5 *847:27 0.000874166
6 *847:16 0.00155865
7 *1903:A1 *1903:A2 1.03403e-05
8 *847:16 *2085:RESET_B 0.000246636
9 *847:16 *2091:CLK 2.58757e-05
10 *847:16 *1137:12 6.59246e-05
11 *1273:A *1903:A1 5.04829e-06
12 *1273:B *1903:A1 3.82228e-05
13 *1347:A1 *847:16 0
14 *1549:B1 *1549:A1 1.41307e-05
15 *1549:B1 *847:27 7.92757e-06
16 *1549:B2 *1884:A0 5.43595e-05
17 *1549:B2 *847:27 8.14875e-05
18 *1549:C1 *847:27 6.50586e-05
19 *1552:B1 *847:16 0.000128571
20 *1601:A *847:16 0.00022786
21 *1903:B1 *1903:A1 0.000107496
22 *2085:D *847:16 0
23 *224:68 *847:16 0
24 *343:10 *1884:A0 3.14978e-05
25 *453:40 *1903:A1 0.000192948
26 *458:88 *1903:A1 8.21761e-06
27 *636:23 *847:16 5.34502e-05
28 *636:29 *847:16 0.000417622
29 *637:23 *847:16 0.000716253
30 *771:10 *847:16 0.000139817
31 *835:31 *847:16 3.28976e-05
*RES
1 *2069:Q *847:16 49.9455 
2 *847:16 *1884:A0 16.6278 
3 *847:16 *847:27 4.07513 
4 *847:27 *1903:A1 33.4371 
5 *847:27 *1549:A1 10.5271 
*END

*D_NET *848 0.0052655
*CONN
*I *1544:A2 I *D sky130_fd_sc_hd__a21oi_1
*I *1740:A I *D sky130_fd_sc_hd__nor2_1
*I *1330:A I *D sky130_fd_sc_hd__nor2_1
*I *2074:Q O *D sky130_fd_sc_hd__dfrtp_1
*CAP
1 *1544:A2 0.000462085
2 *1740:A 0
3 *1330:A 0.000427146
4 *2074:Q 0.000128243
5 *848:29 0.00140679
6 *848:12 0.0015001
7 *1330:A *1304:A2 7.49001e-05
8 *1330:A *1330:B 1.02267e-05
9 *1544:A2 *2041:RESET_B 3.52807e-05
10 *1544:A2 *910:63 2.54623e-05
11 *848:29 *910:63 1.44057e-05
12 *1304:A1 *1330:A 0.000168313
13 *1304:A1 *848:29 0.000573114
14 *1544:B1 *1544:A2 6.27782e-05
15 *1740:B *848:29 9.62198e-05
16 *1742:A2 *1544:A2 9.94284e-06
17 *1742:A2 *848:29 0.000117376
18 *482:21 *848:29 3.58469e-05
19 *506:16 *1330:A 1.47389e-05
20 *634:6 *1544:A2 2.99747e-05
21 *834:23 *1544:A2 6.97064e-05
22 *838:21 *848:12 2.84712e-06
*RES
1 *2074:Q *848:12 20.3893 
2 *848:12 *1330:A 16.9171 
3 *848:12 *848:29 17.9884 
4 *848:29 *1740:A 9.24915 
5 *848:29 *1544:A2 29.0378 
*END

*D_NET *849 0.00671108
*CONN
*I *1325:A I *D sky130_fd_sc_hd__nor2_1
*I *1541:A2 I *D sky130_fd_sc_hd__a21oi_1
*I *1750:A I *D sky130_fd_sc_hd__nor2_1
*I *2075:Q O *D sky130_fd_sc_hd__dfrtp_1
*CAP
1 *1325:A 0.000193146
2 *1541:A2 0.000603841
3 *1750:A 0
4 *2075:Q 0.00155433
5 *849:16 0.00196503
6 *1325:A *1107:310 0.000118116
7 *1541:A2 *1124:8 7.48797e-05
8 *1541:A2 *1124:14 0
9 *849:16 *2067:RESET_B 7.1912e-06
10 *849:16 *1122:32 0.000301351
11 *849:16 *1122:38 6.64392e-05
12 *1351:A0 *849:16 0.000140983
13 *1752:A1 *849:16 3.07848e-05
14 *1752:A2 *1541:A2 6.4945e-06
15 *1752:A2 *849:16 6.20734e-05
16 *2067:D *1325:A 4.04211e-05
17 *185:237 *1541:A2 0.000154849
18 *185:250 *1541:A2 2.30436e-05
19 *224:117 *1325:A 6.85892e-05
20 *611:212 *1541:A2 0.000164013
21 *644:16 *1541:A2 7.34948e-06
22 *644:16 *849:16 6.6775e-05
23 *788:8 *849:16 5.08393e-05
24 *845:31 *849:16 0.00101053
*RES
1 *2075:Q *849:16 40.741 
2 *849:16 *1750:A 9.24915 
3 *849:16 *1541:A2 34.6909 
4 *2075:Q *1325:A 33.5179 
*END

*D_NET *850 0.01952
*CONN
*I *2023:RESET_B I *D sky130_fd_sc_hd__dfrtp_1
*I *1998:RESET_B I *D sky130_fd_sc_hd__dfrtp_1
*I *2024:RESET_B I *D sky130_fd_sc_hd__dfrtp_1
*I *2014:RESET_B I *D sky130_fd_sc_hd__dfrtp_1
*I *2018:RESET_B I *D sky130_fd_sc_hd__dfrtp_1
*I *1997:RESET_B I *D sky130_fd_sc_hd__dfrtp_1
*I *1987:RESET_B I *D sky130_fd_sc_hd__dfrtp_1
*I *2022:RESET_B I *D sky130_fd_sc_hd__dfrtp_1
*I *2021:RESET_B I *D sky130_fd_sc_hd__dfrtp_1
*I *2013:RESET_B I *D sky130_fd_sc_hd__dfrtp_1
*I *1996:RESET_B I *D sky130_fd_sc_hd__dfrtp_1
*I *1995:RESET_B I *D sky130_fd_sc_hd__dfrtp_1
*I *1991:RESET_B I *D sky130_fd_sc_hd__dfrtp_1
*I *1992:RESET_B I *D sky130_fd_sc_hd__dfrtp_1
*I *2030:RESET_B I *D sky130_fd_sc_hd__dfrtp_1
*I *2004:RESET_B I *D sky130_fd_sc_hd__dfrtp_1
*I *2495:A I *D sky130_fd_sc_hd__buf_4
*I *2025:RESET_B I *D sky130_fd_sc_hd__dfrtp_1
*I *2017:RESET_B I *D sky130_fd_sc_hd__dfrtp_1
*I *1999:RESET_B I *D sky130_fd_sc_hd__dfrtp_1
*I *2086:Q O *D sky130_fd_sc_hd__dfrtp_4
*CAP
1 *2023:RESET_B 7.86113e-05
2 *1998:RESET_B 0.000152907
3 *2024:RESET_B 0.00043004
4 *2014:RESET_B 0.000309547
5 *2018:RESET_B 0.000352683
6 *1997:RESET_B 0.000896081
7 *1987:RESET_B 0.00148579
8 *2022:RESET_B 0.000590192
9 *2021:RESET_B 0.000101177
10 *2013:RESET_B 0.000954003
11 *1996:RESET_B 0.000666002
12 *1995:RESET_B 0.000658615
13 *1991:RESET_B 0.00031442
14 *1992:RESET_B 0.000381521
15 *2030:RESET_B 0.000318316
16 *2004:RESET_B 0.000922443
17 *2495:A 0
18 *2025:RESET_B 0.000719578
19 *2017:RESET_B 4.39216e-05
20 *1999:RESET_B 0.00040333
21 *2086:Q 0.000450201
22 *850:232 0.000231518
23 *850:128 0.000531367
24 *850:96 0.000900724
25 *850:20 0.000307761
26 *850:16 0.00078574
27 *850:12 0.000747667
28 *1987:RESET_B *1118:45 3.20069e-06
29 *1987:RESET_B *1118:60 0.000133527
30 *1991:RESET_B *1044:10 1.56911e-05
31 *1992:RESET_B *1348:A 0
32 *1992:RESET_B *1119:10 0
33 *1995:RESET_B *1327:A 2.26894e-05
34 *1995:RESET_B *1329:A2 3.92275e-05
35 *1995:RESET_B *1384:A0 6.09017e-05
36 *1995:RESET_B *1104:350 0
37 *1996:RESET_B *1322:A 2.97853e-05
38 *1996:RESET_B *1104:361 0
39 *1996:RESET_B *1119:12 0
40 *1997:RESET_B *1104:270 0.000524201
41 *1997:RESET_B *1104:278 0
42 *1997:RESET_B *1118:45 0
43 *1999:RESET_B *1313:B 0.000110084
44 *1999:RESET_B *1109:422 2.67222e-05
45 *1999:RESET_B *1112:299 0
46 *1999:RESET_B *1120:22 3.03586e-05
47 *2004:RESET_B *1112:299 0
48 *2004:RESET_B *1120:14 0
49 *2013:RESET_B *1393:A0 0
50 *2013:RESET_B *1451:A2 4.39919e-05
51 *2013:RESET_B *1995:CLK 0.000334406
52 *2013:RESET_B *1109:212 9.78191e-05
53 *2014:RESET_B *1300:A 0.000163982
54 *2014:RESET_B *1104:278 1.46079e-05
55 *2014:RESET_B *1104:284 4.14166e-05
56 *2017:RESET_B *1112:335 4.70402e-05
57 *2018:RESET_B *1392:S 0
58 *2018:RESET_B *1396:S 0
59 *2018:RESET_B *2201:A 0
60 *2018:RESET_B *1060:12 0
61 *2021:RESET_B *1393:A0 5.69771e-05
62 *2022:RESET_B *2022:CLK 3.70165e-05
63 *2022:RESET_B *1065:12 0.000171273
64 *2022:RESET_B *1119:77 6.95408e-05
65 *2024:RESET_B *1997:CLK 7.17369e-05
66 *2024:RESET_B *1067:12 3.77726e-05
67 *2025:RESET_B *1397:A0 0.000487686
68 *2025:RESET_B *1397:S 0.000342432
69 *2030:RESET_B *1336:B 7.34802e-05
70 *2030:RESET_B *1119:55 0.000153806
71 *850:12 *2046:CLK 7.13472e-05
72 *850:12 *1121:26 8.78962e-05
73 *850:12 *1121:60 4.19058e-05
74 *850:12 *1121:62 7.60173e-05
75 *850:16 *1353:A 6.3657e-05
76 *850:16 *1353:B 6.74141e-05
77 *850:16 *1397:A0 5.51483e-06
78 *850:16 *1459:A 0.000113968
79 *850:16 *2046:CLK 0
80 *850:20 *1459:A 3.90689e-06
81 *850:20 *1059:10 0.000148129
82 *850:20 *1109:422 1.00691e-05
83 *850:20 *1112:299 0
84 *1319:A1 *1997:RESET_B 0.000151741
85 *1354:B1 *850:16 2.16355e-05
86 *1453:B *1997:RESET_B 0
87 *1459:B *2025:RESET_B 0.000383717
88 *1460:B1 *850:16 0.000103139
89 *1466:B *2014:RESET_B 8.01741e-05
90 *1987:D *1987:RESET_B 0.000122068
91 *1995:D *2013:RESET_B 5.88662e-05
92 *1997:D *2024:RESET_B 0.000161234
93 *1998:D *1998:RESET_B 0.00010618
94 *1998:D *2023:RESET_B 5.39463e-05
95 *2014:D *2014:RESET_B 0
96 *2018:D *2018:RESET_B 2.55561e-05
97 *2020:D *1997:RESET_B 1.60687e-05
98 *2024:D *2023:RESET_B 0
99 *2095:D *850:12 8.36586e-06
100 *436:8 *1995:RESET_B 2.32834e-05
101 *436:44 *1995:RESET_B 3.83811e-05
102 *436:216 *1997:RESET_B 0.000255674
103 *548:10 *2004:RESET_B 3.70431e-05
104 *672:24 *1987:RESET_B 0
105 *677:12 *2018:RESET_B 0
106 *682:12 *1998:RESET_B 0
107 *684:16 *2021:RESET_B 2.28919e-05
108 *689:8 *1987:RESET_B 3.48926e-05
109 *689:8 *2014:RESET_B 6.25632e-05
110 *690:14 *1987:RESET_B 8.72699e-05
*RES
1 *2086:Q *850:12 30.4975 
2 *850:12 *850:16 9.06656 
3 *850:16 *850:20 8.40826 
4 *850:20 *1999:RESET_B 7.94085 
5 *850:20 *2017:RESET_B 5.6936 
6 *850:16 *2025:RESET_B 13.8289 
7 *850:12 *2495:A 9.24915 
8 *1999:RESET_B *2004:RESET_B 15.815 
9 *2004:RESET_B *2030:RESET_B 8.31905 
10 *2025:RESET_B *1992:RESET_B 17.8913 
11 *2004:RESET_B *1991:RESET_B 6.65524 
12 *2030:RESET_B *850:96 4.5 
13 *850:96 *1995:RESET_B 15.8362 
14 *850:96 *1996:RESET_B 14.1724 
15 *1995:RESET_B *850:128 8.10492 
16 *850:128 *2013:RESET_B 13.0249 
17 *850:128 *2021:RESET_B 6.97099 
18 *1996:RESET_B *2022:RESET_B 6.65524 
19 *2013:RESET_B *1987:RESET_B 26.6522 
20 *1987:RESET_B *1997:RESET_B 24.5353 
21 *2022:RESET_B *2018:RESET_B 17.8913 
22 *1987:RESET_B *2014:RESET_B 18.2572 
23 *1997:RESET_B *2024:RESET_B 8.15026 
24 *2024:RESET_B *850:232 4.5 
25 *850:232 *1998:RESET_B 9.23876 
26 *850:232 *2023:RESET_B 6.74725 
*END

*D_NET *936 0.000227284
*CONN
*P rst_ni I
*I *2529:A I *D sky130_fd_sc_hd__dlygate4sd3_1
*CAP
1 rst_ni 0.000113642
2 *2529:A 0.000113642
*RES
1 rst_ni *2529:A 16.5338 
*END

*D_NET *852 0.000327284
*CONN
*I *2129:D I *D sky130_fd_sc_hd__dfrtp_1
*I *2130:Q O *D sky130_fd_sc_hd__dfrtp_1
*CAP
1 *2129:D 0.00010977
2 *2130:Q 0.00010977
3 *2086:RESET_B *2129:D 1.79196e-05
4 *2130:RESET_B *2129:D 6.50586e-05
5 *851:10 *2129:D 2.47663e-05
*RES
1 *2130:Q *2129:D 30.0537 
*END

*D_NET *853 0.00542753
*CONN
*I *1739:A I *D sky130_fd_sc_hd__nor2_1
*I *1741:A2 I *D sky130_fd_sc_hd__a211oi_1
*I *2125:Q O *D sky130_fd_sc_hd__dfrtp_1
*CAP
1 *1739:A 0.000126695
2 *1741:A2 0.000124528
3 *2125:Q 3.39167e-05
4 *853:28 0.00124367
5 *853:6 0.00127975
6 *1739:A *910:63 0.000132607
7 *1741:A2 *1807:B1 6.98337e-06
8 *1741:A2 *865:14 9.54357e-06
9 *853:6 *2125:CLK 6.3657e-05
10 *853:28 *1736:A 0.000102525
11 *853:28 *2124:RESET_B 9.60216e-05
12 *853:28 *2125:RESET_B 0.00027164
13 *853:28 *2125:CLK 0.000158357
14 *853:28 *865:14 2.01595e-05
15 *853:28 *1113:66 0
16 *853:28 *1122:79 0
17 cio_gpio_en_o[0] *1741:A2 0.000355666
18 *1558:B2 *853:28 0.000113706
19 *1741:A1 *1741:A2 0.00026179
20 *1741:B1 *853:28 0.000305464
21 *2089:D *853:28 5.56367e-05
22 *637:31 *853:28 5.57646e-06
23 *644:16 *853:28 7.73661e-05
24 *761:14 *853:28 7.94976e-05
25 *762:10 *853:28 3.68867e-05
26 *762:12 *853:28 1.36556e-05
27 *786:20 *853:28 0.00013412
28 *837:14 *853:28 0.000247443
29 *844:12 *853:28 7.06708e-05
*RES
1 *2125:Q *853:6 9.97254 
2 *853:6 *853:28 49.546 
3 *853:28 *1741:A2 14.4335 
4 *853:6 *1739:A 20.9116 
*END

*D_NET *854 0.00205416
*CONN
*I *1751:A2 I *D sky130_fd_sc_hd__a211oi_1
*I *1749:A I *D sky130_fd_sc_hd__nor2_1
*I *2126:Q O *D sky130_fd_sc_hd__dfrtp_1
*CAP
1 *1751:A2 0.000321102
2 *1749:A 0.000223118
3 *2126:Q 0
4 *854:6 0.00054422
5 *1749:A *1124:20 0.000195365
6 *1750:B *1749:A 0
7 *1750:B *1751:A2 0
8 *1751:A1 *1751:A2 6.50586e-05
9 *1751:C1 *1751:A2 6.08467e-05
10 *1752:B1 *1751:A2 0.000162583
11 *634:6 *1749:A 0.000122337
12 *642:16 *1751:A2 0
13 *776:28 *1751:A2 0.000164829
14 *838:39 *1751:A2 0.000194701
*RES
1 *2126:Q *854:6 13.7491 
2 *854:6 *1749:A 21.0145 
3 *854:6 *1751:A2 23.7903 
*END

*D_NET *855 0.00214946
*CONN
*I *1770:A2 I *D sky130_fd_sc_hd__a211oi_1
*I *1768:A I *D sky130_fd_sc_hd__nor2_1
*I *2127:Q O *D sky130_fd_sc_hd__dfrtp_1
*CAP
1 *1770:A2 0.000557581
2 *1768:A 0.000117717
3 *2127:Q 0.000104292
4 *855:8 0.00077959
5 *855:8 *1955:CLK 0.000127164
6 *1769:A *1768:A 0
7 *1769:A *855:8 0
8 *1769:B *1770:A2 4.80635e-06
9 *1770:A1 *1770:A2 6.92705e-05
10 *1771:B1 *1770:A2 6.50727e-05
11 *1955:D *1768:A 2.99929e-05
12 *1955:D *855:8 1.44611e-05
13 *2091:D *1770:A2 7.19887e-05
14 *450:67 *1770:A2 7.50722e-05
15 *457:27 *1770:A2 2.12377e-05
16 *598:370 *1768:A 0
17 *598:370 *855:8 0
18 *777:14 *1768:A 1.83992e-05
19 *777:16 *1770:A2 6.69404e-05
20 *777:18 *1770:A2 2.58757e-05
*RES
1 *2127:Q *855:8 17.2421 
2 *855:8 *1768:A 16.7198 
3 *855:8 *1770:A2 33.9558 
*END

*D_NET *856 0.0030013
*CONN
*I *1903:A2 I *D sky130_fd_sc_hd__a211oi_1
*I *1901:A I *D sky130_fd_sc_hd__nor2_1
*I *2128:Q O *D sky130_fd_sc_hd__dfrtp_1
*CAP
1 *1903:A2 0.000386734
2 *1901:A 0.000330775
3 *2128:Q 0.000142049
4 *856:6 0.000859559
5 *1901:A *2128:CLK 8.12759e-05
6 *856:6 *2128:CLK 6.75138e-05
7 *856:6 *1130:35 2.65831e-05
8 *1903:A1 *1903:A2 1.03403e-05
9 *1903:B1 *1903:A2 2.77625e-06
10 *1903:C1 *1903:A2 0.00025744
11 *1904:B1 *1903:A2 0.000169513
12 *450:78 *1901:A 2.81046e-05
13 *457:38 *1901:A 0.000134472
14 *458:94 *1901:A 0.000111708
15 *611:49 *1901:A 2.83829e-05
16 *652:19 *1903:A2 2.09356e-05
17 *778:50 *1903:A2 0.000249293
18 *832:43 *1901:A 6.23875e-05
19 *836:31 *1901:A 3.14544e-05
*RES
1 *2128:Q *856:6 11.6364 
2 *856:6 *1901:A 26.5971 
3 *856:6 *1903:A2 29.8035 
*END

*D_NET *857 0.000184101
*CONN
*I *2488:A I *D sky130_fd_sc_hd__buf_4
*I *2095:Q O *D sky130_fd_sc_hd__dfrtp_1
*CAP
1 *2488:A 6.06615e-05
2 *2095:Q 6.06615e-05
3 *2488:A *2118:CLK 4.85806e-05
4 *2488:A *1121:60 1.41976e-05
*RES
1 *2095:Q *2488:A 20.2103 
*END

*D_NET *858 0.000741108
*CONN
*I *2121:D I *D sky130_fd_sc_hd__dfrtp_1
*I *1776:Y O *D sky130_fd_sc_hd__a21oi_1
*CAP
1 *2121:D 0.000177525
2 *1776:Y 0.000177525
3 cio_gpio_en_o[0] *2121:D 0.000190001
4 cio_gpio_en_o[1] *2121:D 0.000194842
5 *1776:A1 *2121:D 1.21461e-06
*RES
1 *1776:Y *2121:D 32.9927 
*END

*D_NET *859 0.00080122
*CONN
*I *2122:D I *D sky130_fd_sc_hd__dfrtp_1
*I *1775:Y O *D sky130_fd_sc_hd__a21oi_1
*CAP
1 *2122:D 0.000297118
2 *1775:Y 0.000297118
3 *2122:D *1106:28 0.000179256
4 *2122:D *1122:90 5.66868e-06
5 *1775:B1 *2122:D 2.20583e-05
6 *1776:B1 *2122:D 0
7 *282:19 *2122:D 0
*RES
1 *1775:Y *2122:D 35.0423 
*END

*D_NET *860 0.00123776
*CONN
*I *2123:D I *D sky130_fd_sc_hd__dfrtp_1
*I *1764:X O *D sky130_fd_sc_hd__o31a_1
*CAP
1 *2123:D 0.000434363
2 *1764:X 0.000434363
3 *2123:D *1755:A 4.67268e-05
4 *2123:D *1764:A1 0.000107496
5 *2123:D *1125:18 6.08467e-05
6 *1763:A1 *2123:D 5.51483e-06
7 *1764:A3 *2123:D 2.16355e-05
8 *283:6 *2123:D 3.71814e-05
9 *788:14 *2123:D 8.96342e-05
*RES
1 *1764:X *2123:D 35.2139 
*END

*D_NET *861 0.00244924
*CONN
*I *2124:D I *D sky130_fd_sc_hd__dfrtp_1
*I *1762:Y O *D sky130_fd_sc_hd__nor2_1
*CAP
1 *2124:D 0.000925489
2 *1762:Y 0.000925489
3 *2124:D *867:18 0.000108723
4 *2124:D *1122:16 6.27332e-05
5 *2124:D *1122:22 6.08467e-05
6 *1355:A1 *2124:D 0
7 *1670:A0 *2124:D 6.50088e-05
8 *1670:A1 *2124:D 0
9 *1762:B *2124:D 2.41274e-06
10 *2045:D *2124:D 0.000124844
11 *282:6 *2124:D 5.03013e-06
12 *837:12 *2124:D 0.000168664
*RES
1 *1762:Y *2124:D 48.2289 
*END

*D_NET *862 0.00263907
*CONN
*I *1756:A I *D sky130_fd_sc_hd__inv_1
*I *1776:A2 I *D sky130_fd_sc_hd__a21oi_1
*I *2121:Q O *D sky130_fd_sc_hd__dfrtp_1
*CAP
1 *1756:A 0.000514985
2 *1776:A2 0.000261527
3 *2121:Q 0.000184045
4 *862:14 0.000960556
5 *1756:A *1764:A1 8.15045e-05
6 *1756:A *1807:C1 0.000165682
7 *1756:A *2121:RESET_B 0
8 *862:14 cio_gpio_o[0] 9.43419e-05
9 *862:14 *2112:RESET_B 6.27718e-05
10 intr_gpio_o[0] *1776:A2 9.43222e-06
11 intr_gpio_o[0] *862:14 3.66374e-05
12 *1411:A *1776:A2 6.36477e-05
13 *1774:B *1756:A 1.7286e-05
14 *1776:A1 *1776:A2 6.08467e-05
15 *284:12 *1756:A 8.0516e-06
16 *285:12 *1756:A 0.000117754
17 *787:14 *1756:A 0
18 *790:22 *1756:A 0
*RES
1 *2121:Q *862:14 23.1917 
2 *862:14 *1776:A2 14.9881 
3 *862:14 *1756:A 32.2273 
*END

*D_NET *863 0.00323953
*CONN
*I *1807:C1 I *D sky130_fd_sc_hd__o2111ai_1
*I *1757:A I *D sky130_fd_sc_hd__inv_1
*I *2122:Q O *D sky130_fd_sc_hd__dfrtp_1
*CAP
1 *1807:C1 0.000439112
2 *1757:A 7.13828e-05
3 *2122:Q 0.000524226
4 *863:14 0.00103472
5 *1807:C1 *1807:B1 9.06112e-05
6 *863:14 cio_gpio_o[0] 2.74597e-05
7 *863:14 *2181:A 5.92192e-05
8 *863:14 *2507:A 1.44611e-05
9 *1742:B1 *1807:C1 6.27718e-05
10 *1756:A *1807:C1 0.000165682
11 *1758:A *863:14 0.000161172
12 *1758:B *863:14 2.20702e-05
13 *1759:A *863:14 2.99929e-05
14 *1774:A *863:14 0.000207266
15 *1774:B *1757:A 1.61631e-05
16 *1774:B *863:14 6.92705e-05
17 *1775:A2 *1757:A 6.23307e-05
18 *1807:D1 *1807:C1 3.17114e-05
19 *284:12 *1807:C1 5.88662e-05
20 *287:15 *863:14 2.95757e-05
21 *788:14 *863:14 0
22 *790:22 *1807:C1 6.14694e-05
*RES
1 *2122:Q *863:14 31.7839 
2 *863:14 *1757:A 11.4254 
3 *863:14 *1807:C1 30.9369 
*END

*D_NET *864 0.00219695
*CONN
*I *1755:A I *D sky130_fd_sc_hd__inv_1
*I *1807:A1 I *D sky130_fd_sc_hd__o2111ai_1
*I *2123:Q O *D sky130_fd_sc_hd__dfrtp_1
*CAP
1 *1755:A 0.000240931
2 *1807:A1 0.00035956
3 *2123:Q 0.000246381
4 *864:8 0.000846872
5 *1755:A *2037:RESET_B 5.71992e-05
6 *1807:A1 *2037:RESET_B 0.0001195
7 *864:8 *2123:RESET_B 6.59887e-05
8 *864:8 *1125:18 9.28409e-05
9 *2038:D *864:8 2.49791e-05
10 *2123:D *1755:A 4.67268e-05
11 *283:6 *1755:A 5.9197e-05
12 *776:16 *1807:A1 3.677e-05
*RES
1 *2123:Q *864:8 20.5732 
2 *864:8 *1807:A1 21.5424 
3 *864:8 *1755:A 19.8765 
*END

*D_NET *865 0.00586703
*CONN
*I *1772:B I *D sky130_fd_sc_hd__nand2_1
*I *1764:A1 I *D sky130_fd_sc_hd__o31a_1
*I *1761:A I *D sky130_fd_sc_hd__nor2_1
*I *1807:B1 I *D sky130_fd_sc_hd__o2111ai_1
*I *2124:Q O *D sky130_fd_sc_hd__dfrtp_1
*CAP
1 *1772:B 0
2 *1764:A1 0.000399573
3 *1761:A 1.98947e-05
4 *1807:B1 0.000357401
5 *2124:Q 0.000813374
6 *865:42 0.000472674
7 *865:29 0.000162938
8 *865:14 0.00124072
9 *865:14 *1736:A 0.000189745
10 *865:14 *2125:RESET_B 0.000331029
11 cio_gpio_en_o[0] *865:14 0.000107333
12 cio_gpio_en_o[0] *865:29 0.000138468
13 cio_gpio_en_o[0] *865:42 0.000161318
14 cio_gpio_en_o[1] *865:14 2.12361e-05
15 *1741:A1 *1807:B1 7.5301e-06
16 *1741:A1 *865:14 0.000469839
17 *1741:A2 *1807:B1 6.98337e-06
18 *1741:A2 *865:14 9.54357e-06
19 *1741:C1 *1807:B1 0.000161243
20 *1742:B1 *1807:B1 5.50111e-05
21 *1756:A *1764:A1 8.15045e-05
22 *1761:B *1761:A 2.16355e-05
23 *1763:A1 *1764:A1 2.16355e-05
24 *1763:B1 *1761:A 6.08467e-05
25 *1764:A3 *1764:A1 3.5063e-05
26 *1807:A2 *1764:A1 1.54577e-05
27 *1807:C1 *1807:B1 9.06112e-05
28 *2123:D *1764:A1 0.000107496
29 *284:6 *1764:A1 1.10937e-05
30 *296:10 *1764:A1 5.20546e-06
31 *787:14 *865:29 0.000107116
32 *787:14 *865:42 0.000163359
33 *853:28 *865:14 2.01595e-05
*RES
1 *2124:Q *865:14 37.0428 
2 *865:14 *1807:B1 18.3398 
3 *865:14 *865:29 7.1625 
4 *865:29 *1761:A 14.4725 
5 *865:29 *865:42 7.57775 
6 *865:42 *1764:A1 18.3398 
7 *865:42 *1772:B 9.24915 
*END

*D_NET *866 0.000281202
*CONN
*I *1753:B I *D sky130_fd_sc_hd__xnor2_1
*I *2120:Q O *D sky130_fd_sc_hd__dfrtp_1
*CAP
1 *1753:B 5.96925e-05
2 *2120:Q 5.96925e-05
3 *1753:B *2120:D 0.000161817
*RES
1 *2120:Q *1753:B 20.3309 
*END

*D_NET *867 0.00381166
*CONN
*I *1736:A I *D sky130_fd_sc_hd__inv_1
*I *1753:A I *D sky130_fd_sc_hd__xnor2_1
*I *2120:D I *D sky130_fd_sc_hd__dfrtp_1
*I *2118:Q O *D sky130_fd_sc_hd__dfrtp_1
*CAP
1 *1736:A 0.000432702
2 *1753:A 0
3 *2120:D 0.00045698
4 *2118:Q 0.000174751
5 *867:18 0.000698239
6 *867:10 0.000848712
7 *1736:A *2124:RESET_B 3.45278e-05
8 *1736:A *2125:RESET_B 1.91114e-05
9 *2120:D *1121:18 0.000110976
10 *1558:B2 *1736:A 8.30351e-05
11 *1753:B *2120:D 0.000161817
12 *1754:A *867:18 2.58757e-05
13 *2124:D *867:18 0.000108723
14 *282:6 *867:18 0.000209636
15 *282:19 *1736:A 3.52873e-06
16 *282:19 *867:10 2.34677e-05
17 *761:14 *1736:A 0.000127312
18 *853:28 *1736:A 0.000102525
19 *865:14 *1736:A 0.000189745
*RES
1 *2118:Q *867:10 17.0668 
2 *867:10 *867:18 11.8808 
3 *867:18 *2120:D 21.2575 
4 *867:18 *1753:A 9.24915 
5 *867:10 *1736:A 24.8061 
*END

*D_NET *868 0.00055969
*CONN
*I *2118:D I *D sky130_fd_sc_hd__dfrtp_1
*I *2119:Q O *D sky130_fd_sc_hd__dfrtp_1
*CAP
1 *2118:D 0.000179592
2 *2119:Q 0.000179592
3 *2118:D *1121:10 0
4 *2118:D *1122:90 0
5 *1670:A0 *2118:D 0
6 *1670:A1 *2118:D 0
7 *1670:S *2118:D 0.000141641
8 *2045:D *2118:D 5.88662e-05
*RES
1 *2119:Q *2118:D 33.0676 
*END

*D_NET *869 0.00296919
*CONN
*I *1808:B I *D sky130_fd_sc_hd__nand2_1
*I *1737:B I *D sky130_fd_sc_hd__nand2_1
*I *2037:Q O *D sky130_fd_sc_hd__dfrtp_1
*CAP
1 *1808:B 0.00018457
2 *1737:B 0.000310053
3 *2037:Q 0.000328909
4 *869:6 0.000823533
5 *1737:B *2037:CLK 9.5562e-05
6 *869:6 *2037:RESET_B 1.19751e-05
7 *869:6 *2037:CLK 0.000143875
8 *1558:B2 *1737:B 1.13359e-05
9 *1738:B1 *1737:B 0.000107496
10 *1809:A1 *1808:B 2.71182e-05
11 *1809:A2 *1808:B 2.26731e-05
12 *1809:B1 *1808:B 6.27718e-05
13 *2037:D *1737:B 0.000129489
14 *269:12 *1737:B 2.3339e-05
15 *323:10 *1808:B 0.000285547
16 *787:14 *1737:B 0
17 *790:22 *1808:B 0.000290644
18 *837:25 *1737:B 0.000110297
*RES
1 *2037:Q *869:6 14.4094 
2 *869:6 *1737:B 25.1315 
3 *869:6 *1808:B 25.9833 
*END

*D_NET *870 0.000271385
*CONN
*I *2114:D I *D sky130_fd_sc_hd__dfrtp_1
*I *1795:Y O *D sky130_fd_sc_hd__nor2_1
*CAP
1 *2114:D 7.75153e-05
2 *1795:Y 7.75153e-05
3 *2114:D *2114:RESET_B 0.000116355
*RES
1 *1795:Y *2114:D 29.7455 
*END

*D_NET *871 0.00191415
*CONN
*I *2115:D I *D sky130_fd_sc_hd__dfrtp_1
*I *1792:Y O *D sky130_fd_sc_hd__nor2_1
*CAP
1 *2115:D 0.000463143
2 *1792:Y 0.000463143
3 *2115:D *1788:A1 0
4 *2115:D *2115:RESET_B 0.000203185
5 *2115:D *2115:CLK 1.50924e-05
6 *2115:D *872:18 9.04224e-05
7 *2115:D *1106:173 0.000421541
8 *2115:D *1126:92 0
9 *1788:A2 *2115:D 0.00024065
10 *1810:B *2115:D 2.77625e-06
11 *310:10 *2115:D 1.41976e-05
*RES
1 *1792:Y *2115:D 41.3246 
*END

*D_NET *872 0.00215548
*CONN
*I *2116:D I *D sky130_fd_sc_hd__dfrtp_1
*I *1788:X O *D sky130_fd_sc_hd__o21a_1
*CAP
1 *2116:D 0
2 *1788:X 0.000489248
3 *872:18 0.000489248
4 *872:18 *1777:A 1.16216e-05
5 *872:18 *1788:A1 0.000116986
6 *872:18 *2117:RESET_B 1.03594e-05
7 *872:18 *877:29 5.92192e-05
8 *872:18 *1106:173 0.000545124
9 *1788:A2 *872:18 5.27093e-05
10 *1788:B1 *872:18 3.98548e-05
11 *1810:B *872:18 5.67504e-05
12 *2115:D *872:18 9.04224e-05
13 *299:12 *872:18 3.8519e-05
14 *303:10 *872:18 0.000132229
15 *307:10 *872:18 2.3186e-05
*RES
1 *1788:X *872:18 43.9604 
2 *872:18 *2116:D 9.24915 
*END

*D_NET *873 0.00167176
*CONN
*I *2117:D I *D sky130_fd_sc_hd__dfrtp_1
*I *1784:Y O *D sky130_fd_sc_hd__a21oi_1
*CAP
1 *2117:D 0.000474716
2 *1784:Y 0.000474716
3 *2117:D *2117:CLK 5.52748e-05
4 *2117:D *2508:A 0
5 *2117:D *877:10 0.000353958
6 *2117:D *877:29 0.000257009
7 *2117:D *1126:25 3.53797e-05
8 *2117:D *1126:38 2.07093e-05
*RES
1 *1784:Y *2117:D 42.5169 
*END

*D_NET *874 0.00109821
*CONN
*I *1789:B I *D sky130_fd_sc_hd__or2_0
*I *1779:B I *D sky130_fd_sc_hd__nand2_1
*I *1793:A I *D sky130_fd_sc_hd__inv_1
*I *2114:Q O *D sky130_fd_sc_hd__dfrtp_1
*CAP
1 *1789:B 0
2 *1779:B 0
3 *1793:A 0.000128785
4 *2114:Q 0.000117154
5 *874:12 0.000207935
6 *874:6 0.000196304
7 *874:12 axi_lite_o[12] 0.000193906
8 *874:12 *1779:A 8.32652e-05
9 *1791:A1 *874:6 6.13051e-05
10 *1794:A *1793:A 6.63843e-05
11 *301:10 *1793:A 4.31703e-05
*RES
1 *2114:Q *874:6 12.191 
2 *874:6 *874:12 12.493 
3 *874:12 *1793:A 12.4381 
4 *874:12 *1779:B 9.24915 
5 *874:6 *1789:B 9.24915 
*END

*D_NET *875 0.00103969
*CONN
*I *1789:A I *D sky130_fd_sc_hd__or2_0
*I *1779:A I *D sky130_fd_sc_hd__nand2_1
*I *2115:Q O *D sky130_fd_sc_hd__dfrtp_1
*CAP
1 *1789:A 0
2 *1779:A 0.000133028
3 *2115:Q 0.000325272
4 *875:10 0.0004583
5 *1779:A axi_lite_o[12] 7.03112e-06
6 *875:10 axi_lite_o[12] 3.27973e-05
7 *874:12 *1779:A 8.32652e-05
*RES
1 *2115:Q *875:10 19.4928 
2 *875:10 *1779:A 17.6574 
3 *875:10 *1789:A 13.7491 
*END

*D_NET *876 0.000576183
*CONN
*I *1778:A I *D sky130_fd_sc_hd__inv_1
*I *2116:Q O *D sky130_fd_sc_hd__dfrtp_1
*CAP
1 *1778:A 0.000240326
2 *2116:Q 0.000240326
3 *1787:A1 *1778:A 6.34773e-05
4 *300:8 *1778:A 3.20544e-05
*RES
1 *2116:Q *1778:A 32.3732 
*END

*D_NET *877 0.00469465
*CONN
*I *1788:A1 I *D sky130_fd_sc_hd__o21a_1
*I *1777:A I *D sky130_fd_sc_hd__inv_1
*I *1811:B I *D sky130_fd_sc_hd__nand3_1
*I *2117:Q O *D sky130_fd_sc_hd__dfrtp_1
*CAP
1 *1788:A1 0.000199257
2 *1777:A 2.82417e-05
3 *1811:B 0.000273138
4 *2117:Q 0.00027613
5 *877:29 0.000463667
6 *877:10 0.000785436
7 *1788:A1 *1126:92 1.12605e-05
8 *877:10 *2117:RESET_B 5.19713e-05
9 *877:10 *1126:25 6.64597e-05
10 *877:29 *879:10 0
11 *877:29 *879:16 0
12 *1788:B1 *1788:A1 2.65667e-05
13 *1788:B1 *877:29 3.18543e-05
14 *1794:A *1788:A1 1.03434e-05
15 *1795:A *1788:A1 5.42115e-05
16 *1810:A *1788:A1 0.000177819
17 *1810:A *877:29 8.62625e-06
18 *1810:B *1777:A 7.88183e-05
19 *1811:A *1811:B 0.000282906
20 *1811:C *1811:B 0.00018734
21 *2115:D *1788:A1 0
22 *2117:D *877:10 0.000353958
23 *2117:D *877:29 0.000257009
24 *299:12 *877:29 0.000149522
25 *307:10 *877:10 0.000362917
26 *307:10 *877:29 2.21564e-05
27 *312:8 *1788:A1 0.000326398
28 *326:6 *1811:B 2.08133e-05
29 *872:18 *1777:A 1.16216e-05
30 *872:18 *1788:A1 0.000116986
31 *872:18 *877:29 5.92192e-05
*RES
1 *2117:Q *877:10 24.7545 
2 *877:10 *1811:B 22.2852 
3 *877:10 *877:29 8.54931 
4 *877:29 *1777:A 14.6835 
5 *877:29 *1788:A1 22.1425 
*END

*D_NET *878 0.000379679
*CONN
*I *1782:B I *D sky130_fd_sc_hd__xnor2_1
*I *2113:Q O *D sky130_fd_sc_hd__dfrtp_1
*CAP
1 *1782:B 0.00011544
2 *2113:Q 0.00011544
3 *1782:B *2113:D 2.16355e-05
4 *1782:B *879:16 0.000127164
5 *2175:A *1782:B 0
*RES
1 *2113:Q *1782:B 30.4689 
*END

*D_NET *879 0.00349428
*CONN
*I *2113:D I *D sky130_fd_sc_hd__dfrtp_1
*I *1782:A I *D sky130_fd_sc_hd__xnor2_1
*I *1683:A I *D sky130_fd_sc_hd__inv_1
*I *2111:Q O *D sky130_fd_sc_hd__dfrtp_1
*CAP
1 *2113:D 0.000327663
2 *1782:A 0
3 *1683:A 0.000471097
4 *2111:Q 0.000191315
5 *879:16 0.000616368
6 *879:10 0.00066425
7 *2113:D *2113:CLK 0.000201556
8 *879:10 *2114:RESET_B 0.000114284
9 *1782:B *2113:D 2.16355e-05
10 *1782:B *879:16 0.000127164
11 *1810:A *879:10 0
12 *1811:A *1683:A 5.20497e-05
13 *1811:A *879:16 0.000149183
14 *1813:A1 *1683:A 4.66492e-05
15 *1813:A2 *1683:A 5.0118e-05
16 *1813:B1 *1683:A 0.000109421
17 *2038:D *1683:A 0.00025718
18 *2175:A *879:10 0
19 *2175:A *879:16 0
20 *232:6 *1683:A 3.79772e-05
21 *326:6 *1683:A 5.6369e-05
22 *877:29 *879:10 0
23 *877:29 *879:16 0
*RES
1 *2111:Q *879:10 17.6896 
2 *879:10 *879:16 9.271 
3 *879:16 *1683:A 32.0137 
4 *879:16 *1782:A 9.24915 
5 *879:10 *2113:D 22.7916 
*END

*D_NET *880 0.000313228
*CONN
*I *2111:D I *D sky130_fd_sc_hd__dfrtp_1
*I *2112:Q O *D sky130_fd_sc_hd__dfrtp_1
*CAP
1 *2111:D 0.000104211
2 *2112:Q 0.000104211
3 *2111:D *2111:CLK 6.92705e-05
4 *2111:D *1106:87 3.55357e-05
*RES
1 *2112:Q *2111:D 21.633 
*END

*D_NET *881 0.00149768
*CONN
*I *1812:B I *D sky130_fd_sc_hd__nand2_1
*I *1684:B I *D sky130_fd_sc_hd__nand2_1
*I *2038:Q O *D sky130_fd_sc_hd__dfrtp_1
*CAP
1 *1812:B 2.85655e-05
2 *1684:B 0.000192763
3 *2038:Q 3.88075e-05
4 *881:8 0.000260136
5 *1685:A1 *1684:B 2.31875e-05
6 *1685:B1 *1684:B 6.63816e-05
7 *1812:A *1812:B 3.5063e-05
8 *1813:A2 *1812:B 4.32117e-05
9 *1813:B1 *1812:B 6.2759e-05
10 *2175:A *1684:B 0.00025431
11 *2175:A *881:8 9.63354e-05
12 *758:8 *1684:B 0.000249335
13 *758:8 *881:8 8.5976e-05
14 *838:58 *1684:B 6.08467e-05
*RES
1 *2038:Q *881:8 15.5811 
2 *881:8 *1684:B 21.2489 
3 *881:8 *1812:B 15.2321 
*END

*D_NET *882 0.000563956
*CONN
*I *2107:D I *D sky130_fd_sc_hd__dfrtp_1
*I *1900:Y O *D sky130_fd_sc_hd__nor2_1
*CAP
1 *2107:D 0.000154205
2 *1900:Y 0.000154205
3 *2107:D *2108:D 7.17024e-05
4 *2107:D *2108:CLK 3.67528e-06
5 *2107:D *2109:RESET_B 4.4877e-05
6 *2107:D *1134:14 0.000135291
*RES
1 *1900:Y *2107:D 33.4828 
*END

*D_NET *883 0.000933029
*CONN
*I *2108:D I *D sky130_fd_sc_hd__dfrtp_1
*I *1899:Y O *D sky130_fd_sc_hd__nor2_1
*CAP
1 *2108:D 0.000379401
2 *1899:Y 0.000379401
3 *2108:D *2108:RESET_B 0
4 *2108:D *2108:CLK 0
5 *2108:D *2109:RESET_B 0.000102525
6 *2107:D *2108:D 7.17024e-05
*RES
1 *1899:Y *2108:D 37.8458 
*END

*D_NET *884 0.00180684
*CONN
*I *1821:C I *D sky130_fd_sc_hd__nand3_1
*I *2109:D I *D sky130_fd_sc_hd__dfrtp_1
*I *1820:Y O *D sky130_fd_sc_hd__a21oi_1
*CAP
1 *1821:C 0.00010315
2 *2109:D 0.000235899
3 *1820:Y 0.000254668
4 *884:8 0.000593716
5 *1821:C *2517:A 5.21854e-05
6 *1821:C *1134:14 5.044e-05
7 *2109:D *2517:A 4.75721e-06
8 *2109:D *1134:14 0.000125291
9 *884:8 *1819:A1 0.000224395
10 *1818:B *884:8 1.55915e-05
11 *1819:B1 *884:8 6.08467e-05
12 *321:12 *1821:C 6.50727e-05
13 *331:12 *884:8 2.08274e-05
*RES
1 *1820:Y *884:8 20.0186 
2 *884:8 *2109:D 20.9794 
3 *884:8 *1821:C 17.5503 
*END

*D_NET *885 0.00130238
*CONN
*I *1821:B I *D sky130_fd_sc_hd__nand3_1
*I *2110:D I *D sky130_fd_sc_hd__dfrtp_1
*I *1806:Y O *D sky130_fd_sc_hd__a21oi_1
*CAP
1 *1821:B 0.000130803
2 *2110:D 0.000326484
3 *1806:Y 6.19191e-05
4 *885:6 0.000519205
5 *2110:D *1134:14 0
6 *2110:D *1134:34 0
7 *1806:A2 *1821:B 0
8 *1819:B1 *1821:B 8.1799e-05
9 *1819:B1 *2110:D 5.05252e-05
10 *1819:B1 *885:6 1.65872e-05
11 *1821:A *2110:D 0
12 *319:12 *2110:D 0
13 *321:12 *1821:B 9.9353e-05
14 *322:6 *885:6 7.92757e-06
15 *322:12 *2110:D 7.77309e-06
*RES
1 *1806:Y *885:6 10.5271 
2 *885:6 *2110:D 25.4794 
3 *885:6 *1821:B 13.3484 
*END

*D_NET *886 0.000584979
*CONN
*I *1798:A I *D sky130_fd_sc_hd__inv_1
*I *2107:Q O *D sky130_fd_sc_hd__dfrtp_1
*CAP
1 *1798:A 0.000209727
2 *2107:Q 0.000209727
3 *1798:A *1797:A 0.000154431
4 *315:14 *1798:A 1.10937e-05
*RES
1 *2107:Q *1798:A 31.8976 
*END

*D_NET *887 0.00101683
*CONN
*I *1797:A I *D sky130_fd_sc_hd__inv_1
*I *2108:Q O *D sky130_fd_sc_hd__dfrtp_1
*CAP
1 *1797:A 0.000395418
2 *2108:Q 0.000395418
3 *1797:A *2108:RESET_B 7.15593e-05
4 *1798:A *1797:A 0.000154431
*RES
1 *2108:Q *1797:A 36.7214 
*END

*D_NET *888 0.00431515
*CONN
*I *1796:A I *D sky130_fd_sc_hd__inv_1
*I *1819:A1 I *D sky130_fd_sc_hd__o21ai_0
*I *2109:Q O *D sky130_fd_sc_hd__dfrtp_1
*CAP
1 *1796:A 0.000359379
2 *1819:A1 0.000524696
3 *2109:Q 0.000167442
4 *888:8 0.00105152
5 *1796:A *899:10 2.58757e-05
6 *1801:B *1796:A 4.4462e-06
7 *1802:A *1796:A 0.000304918
8 *1815:B *1796:A 2.36748e-05
9 *1815:B *888:8 0.000114659
10 *1818:B *1819:A1 0.000360086
11 *1820:A1 *1796:A 0.000445436
12 *1820:A1 *1819:A1 1.4106e-05
13 *1820:A2 *1819:A1 4.24488e-05
14 *1820:B1 *1819:A1 6.27782e-05
15 *315:14 *888:8 2.4433e-05
16 *317:10 *1796:A 2.24632e-05
17 *317:10 *888:8 6.73597e-05
18 *319:12 *1796:A 0.000257201
19 *322:12 *1796:A 0
20 *328:10 *1796:A 0.000162666
21 *331:12 *1819:A1 4.18882e-05
22 *592:38 *1796:A 1.32814e-05
23 *884:8 *1819:A1 0.000224395
*RES
1 *2109:Q *888:8 18.4879 
2 *888:8 *1819:A1 24.9136 
3 *888:8 *1796:A 29.5277 
*END

*D_NET *889 0.000410332
*CONN
*I *1803:A I *D sky130_fd_sc_hd__inv_1
*I *2110:Q O *D sky130_fd_sc_hd__dfrtp_1
*CAP
1 *1803:A 0.000167501
2 *2110:Q 0.000167501
3 *320:10 *1803:A 6.96979e-05
4 *592:38 *1803:A 5.63099e-06
*RES
1 *2110:Q *1803:A 30.8487 
*END

*D_NET *890 0.000267575
*CONN
*I *1804:B I *D sky130_fd_sc_hd__xnor2_1
*I *2106:Q O *D sky130_fd_sc_hd__dfrtp_1
*CAP
1 *1804:B 4.96314e-05
2 *2106:Q 4.96314e-05
3 *1804:B *1804:A 0.000168313
*RES
1 *2106:Q *1804:B 20.3309 
*END

*D_NET *891 0.00256026
*CONN
*I *1804:A I *D sky130_fd_sc_hd__xnor2_1
*I *1724:A I *D sky130_fd_sc_hd__inv_1
*I *2106:D I *D sky130_fd_sc_hd__dfrtp_1
*I *2104:Q O *D sky130_fd_sc_hd__dfrtp_1
*CAP
1 *1804:A 0.00013702
2 *1724:A 0.000200758
3 *2106:D 0.000101794
4 *2104:Q 0.000286157
5 *891:14 0.000553096
6 *891:12 0.000673721
7 *1724:A *904:12 0
8 *1724:A *1106:314 0
9 *1804:A *2106:RESET_B 1.55025e-05
10 *891:12 *2517:A 0
11 *891:12 *904:12 0.000388382
12 *891:14 *2106:RESET_B 1.40631e-05
13 *1804:B *1804:A 0.000168313
14 *2055:D *1724:A 0
15 *261:10 *1724:A 2.14494e-05
16 *733:12 *1724:A 0
*RES
1 *2104:Q *891:12 26.8968 
2 *891:12 *891:14 5.71483 
3 *891:14 *2106:D 11.6364 
4 *891:14 *1724:A 23.1709 
5 *891:12 *1804:A 13.3243 
*END

*D_NET *892 0.000562132
*CONN
*I *2104:D I *D sky130_fd_sc_hd__dfrtp_1
*I *2105:Q O *D sky130_fd_sc_hd__dfrtp_1
*CAP
1 *2104:D 0.000163666
2 *2105:Q 0.000163666
3 *2104:D *2105:RESET_B 6.62387e-06
4 *2104:D *2109:CLK 4.89392e-05
5 *2104:D *1135:12 0.000122992
6 *2055:D *2104:D 5.62448e-05
*RES
1 *2105:Q *2104:D 31.5781 
*END

*D_NET *893 0.00204158
*CONN
*I *1822:B I *D sky130_fd_sc_hd__nand2_1
*I *1725:B I *D sky130_fd_sc_hd__nand2_1
*I *2039:Q O *D sky130_fd_sc_hd__dfrtp_1
*CAP
1 *1822:B 1.61349e-05
2 *1725:B 9.17866e-05
3 *2039:Q 0.000287063
4 *893:14 0.000394985
5 *893:14 *1106:279 0.000143161
6 *893:14 *1134:83 0.000267394
7 *1725:A *1725:B 0.000109655
8 *1725:A *1822:B 0
9 *1726:A2 *1725:B 0.00016195
10 *1822:A *893:14 0.000304838
11 *592:38 *893:14 0.000264612
*RES
1 *2039:Q *893:14 28.4591 
2 *893:14 *1725:B 12.7697 
3 *893:14 *1822:B 9.82786 
*END

*D_NET *894 0.000548234
*CONN
*I *2100:D I *D sky130_fd_sc_hd__dfrtp_1
*I *1692:Y O *D sky130_fd_sc_hd__nor2_1
*CAP
1 *2100:D 0.000212715
2 *1692:Y 0.000212715
3 *2100:D *2101:D 0.00010521
4 *2100:D *1106:273 0
5 *2100:D *1106:275 0
6 *1822:A *2100:D 1.75933e-05
*RES
1 *1692:Y *2100:D 33.4828 
*END

*D_NET *895 0.00095332
*CONN
*I *2101:D I *D sky130_fd_sc_hd__dfrtp_1
*I *1711:Y O *D sky130_fd_sc_hd__nor2_1
*CAP
1 *2101:D 0.000381628
2 *1711:Y 0.000381628
3 *2101:D *1106:343 0
4 *2101:D *1134:64 6.46815e-05
5 *1826:A *2101:D 1.07248e-05
6 *2100:D *2101:D 0.00010521
7 *592:38 *2101:D 9.44631e-06
*RES
1 *1711:Y *2101:D 37.9435 
*END

*D_NET *896 0.00052297
*CONN
*I *2102:D I *D sky130_fd_sc_hd__dfrtp_1
*I *1826:B I *D sky130_fd_sc_hd__nand3_1
*I *1717:Y O *D sky130_fd_sc_hd__nor3_1
*CAP
1 *2102:D 7.55576e-05
2 *1826:B 0.000144905
3 *1717:Y 0.000220462
4 *1826:B *2040:RESET_B 1.4106e-05
5 *2102:D *2040:RESET_B 2.8322e-05
6 *2102:D *1106:237 1.37566e-05
7 *1826:A *1826:B 2.58616e-05
*RES
1 *1717:Y *1826:B 21.8741 
2 *1717:Y *2102:D 29.3303 
*END

*D_NET *897 0.00212613
*CONN
*I *2103:D I *D sky130_fd_sc_hd__dfrtp_1
*I *1826:C I *D sky130_fd_sc_hd__nand3_1
*I *1825:Y O *D sky130_fd_sc_hd__a21oi_1
*CAP
1 *2103:D 0.000638604
2 *1826:C 0
3 *1825:Y 0.000367377
4 *897:10 0.00100598
5 *2103:D *1106:235 0
6 *2103:D *1106:237 0
7 *598:36 *2103:D 3.20069e-06
8 *612:10 *2103:D 0.000110971
*RES
1 *1825:Y *897:10 19.9081 
2 *897:10 *1826:C 13.7491 
3 *897:10 *2103:D 26.579 
*END

*D_NET *898 0.00304328
*CONN
*I *1689:C I *D sky130_fd_sc_hd__nand3_1
*I *1716:A2 I *D sky130_fd_sc_hd__a21oi_1
*I *1709:B I *D sky130_fd_sc_hd__nand2_1
*I *1687:A I *D sky130_fd_sc_hd__inv_1
*I *1708:B I *D sky130_fd_sc_hd__or2_0
*I *2100:Q O *D sky130_fd_sc_hd__dfrtp_1
*CAP
1 *1689:C 0.000130335
2 *1716:A2 0
3 *1709:B 0
4 *1687:A 0.000142352
5 *1708:B 5.18601e-05
6 *2100:Q 0.000240172
7 *898:47 0.000395172
8 *898:25 0.000142352
9 *898:23 0.000367458
10 *898:10 0.000394653
11 *1689:C *1689:B 0.000195862
12 *1689:C *1716:B1 0.000135413
13 *1689:C *899:30 5.23435e-05
14 *1708:B *1708:A 5.04829e-06
15 *898:10 *899:10 5.19205e-05
16 *898:10 *899:21 2.04806e-05
17 *898:23 *899:21 7.0954e-05
18 *898:47 *1716:B1 5.03545e-06
19 *898:47 *899:21 5.22654e-06
20 *898:47 *899:30 0.00016745
21 *1691:A *1687:A 5.67111e-05
22 *1691:B *1687:A 2.11937e-05
23 *1710:A1 *1708:B 0.000118166
24 *1710:A1 *898:23 6.31809e-05
25 *1710:A2 *1687:A 3.75217e-05
26 *1802:A *898:10 3.80598e-05
27 *238:12 *898:47 0
28 *239:8 *1687:A 0
29 *252:8 *1687:A 0.00013314
30 *319:12 *898:10 1.21765e-06
*RES
1 *2100:Q *898:10 18.6595 
2 *898:10 *1708:B 15.6059 
3 *898:10 *898:23 3.07775 
4 *898:23 *898:25 4.5 
5 *898:25 *1687:A 14.3189 
6 *898:25 *1709:B 9.24915 
7 *898:23 *898:47 7.54782 
8 *898:47 *1716:A2 13.7491 
9 *898:47 *1689:C 18.2442 
*END

*D_NET *899 0.0028839
*CONN
*I *1689:B I *D sky130_fd_sc_hd__nand3_1
*I *1716:A1 I *D sky130_fd_sc_hd__a21oi_1
*I *1709:A I *D sky130_fd_sc_hd__nand2_1
*I *1708:A I *D sky130_fd_sc_hd__or2_0
*I *2101:Q O *D sky130_fd_sc_hd__dfrtp_1
*CAP
1 *1689:B 0.000142772
2 *1716:A1 7.7537e-05
3 *1709:A 0
4 *1708:A 5.35506e-05
5 *2101:Q 0.000219141
6 *899:30 0.000460648
7 *899:21 0.00037896
8 *899:10 0.000411313
9 *1689:B *1689:A 0.000168313
10 *1689:C *1689:B 0.000195862
11 *1689:C *899:30 5.23435e-05
12 *1708:B *1708:A 5.04829e-06
13 *1710:A1 *1708:A 2.20702e-05
14 *1796:A *899:10 2.58757e-05
15 *1802:A *899:10 0.000165499
16 *2056:D *899:30 0
17 *237:12 *1689:B 1.32043e-05
18 *237:12 *1716:A1 0.000109421
19 *237:12 *899:30 5.46384e-06
20 *592:38 *899:10 6.08467e-05
21 *898:10 *899:10 5.19205e-05
22 *898:10 *899:21 2.04806e-05
23 *898:23 *899:21 7.0954e-05
24 *898:47 *899:21 5.22654e-06
25 *898:47 *899:30 0.00016745
*RES
1 *2101:Q *899:10 20.4571 
2 *899:10 *1708:A 15.0271 
3 *899:10 *899:21 3.90826 
4 *899:21 *1709:A 13.7491 
5 *899:21 *899:30 7.64553 
6 *899:30 *1716:A1 15.0271 
7 *899:30 *1689:B 18.3836 
*END

*D_NET *900 0.00107564
*CONN
*I *1689:A I *D sky130_fd_sc_hd__nand3_1
*I *1716:B1 I *D sky130_fd_sc_hd__a21oi_1
*I *2102:Q O *D sky130_fd_sc_hd__dfrtp_1
*CAP
1 *1689:A 9.43652e-05
2 *1716:B1 0.000289074
3 *2102:Q 0.000383439
4 *1689:B *1689:A 0.000168313
5 *1689:C *1716:B1 0.000135413
6 *898:47 *1716:B1 5.03545e-06
*RES
1 *2102:Q *1716:B1 32.6874 
2 *2102:Q *1689:A 21.4642 
*END

*D_NET *901 0.00160949
*CONN
*I *1715:A I *D sky130_fd_sc_hd__nor2_1
*I *1688:A I *D sky130_fd_sc_hd__inv_1
*I *2103:Q O *D sky130_fd_sc_hd__dfrtp_1
*CAP
1 *1715:A 0
2 *1688:A 0.000161461
3 *2103:Q 0.000369572
4 *901:10 0.000531033
5 *901:10 *1106:237 0
6 *1690:A *1688:A 1.13461e-05
7 *1690:B *1688:A 2.86829e-05
8 *1825:A1 *1688:A 1.92281e-05
9 *1825:A2 *1688:A 9.68194e-05
10 *237:25 *1688:A 0.000134943
11 *237:25 *901:10 3.20264e-05
12 *458:142 *901:10 0.000224381
*RES
1 *2103:Q *901:10 21.7056 
2 *901:10 *1688:A 18.9489 
3 *901:10 *1715:A 13.7491 
*END

*D_NET *902 0.000298304
*CONN
*I *1686:B I *D sky130_fd_sc_hd__xor2_1
*I *2099:Q O *D sky130_fd_sc_hd__dfrtp_1
*CAP
1 *1686:B 0.000149152
2 *2099:Q 0.000149152
3 *1686:B *1106:273 0
*RES
1 *2099:Q *1686:B 30.4689 
*END

*D_NET *903 0.00430606
*CONN
*I *1686:A I *D sky130_fd_sc_hd__xor2_1
*I *1765:A I *D sky130_fd_sc_hd__inv_1
*I *2099:D I *D sky130_fd_sc_hd__dfrtp_1
*I *2097:Q O *D sky130_fd_sc_hd__dfrtp_1
*CAP
1 *1686:A 0.000133598
2 *1765:A 0.000263547
3 *2099:D 0.000264922
4 *2097:Q 0.000657578
5 *903:39 0.000496424
6 *903:26 0.00102178
7 *903:26 *2097:RESET_B 2.39165e-05
8 *903:26 *2097:CLK 0.00032084
9 *903:26 *2106:RESET_B 6.20478e-05
10 *903:26 *2110:CLK 6.27782e-05
11 *903:26 *1106:273 2.13165e-05
12 *903:26 *1106:275 0.000139467
13 *903:26 *1106:279 0.000259004
14 *903:39 *1106:273 0.000201734
15 *1822:A *903:26 1.20036e-05
16 *1823:A2 *903:26 0.000102142
17 *291:10 *1765:A 1.94236e-05
18 *334:12 *903:26 0.00024354
*RES
1 *2097:Q *903:26 44.335 
2 *903:26 *2099:D 20.0186 
3 *903:26 *903:39 7.993 
4 *903:39 *1765:A 15.6693 
5 *903:39 *1686:A 12.191 
*END

*D_NET *904 0.00292489
*CONN
*I *2097:D I *D sky130_fd_sc_hd__dfrtp_1
*I *2098:Q O *D sky130_fd_sc_hd__dfrtp_1
*CAP
1 *2097:D 0
2 *2098:Q 0.000611253
3 *904:12 0.000611253
4 *904:12 *2098:RESET_B 0.000125079
5 *904:12 *2106:RESET_B 0.000340998
6 *904:12 *2517:A 0
7 *904:12 *1106:314 0.000362627
8 *904:12 *1106:316 0.000268834
9 *1724:A *904:12 0
10 *2098:D *904:12 0.000216467
11 *261:10 *904:12 0
12 *891:12 *904:12 0.000388382
*RES
1 *2098:Q *904:12 41.1547 
2 *904:12 *2097:D 9.24915 
*END

*D_NET *905 0.00237032
*CONN
*I *1827:B I *D sky130_fd_sc_hd__nand2_1
*I *1766:B I *D sky130_fd_sc_hd__nand2_1
*I *2040:Q O *D sky130_fd_sc_hd__dfrtp_1
*CAP
1 *1827:B 0
2 *1766:B 0.000267047
3 *2040:Q 0.000341691
4 *905:12 0.000608737
5 *1766:B *2102:CLK 0
6 *905:12 *2040:RESET_B 7.23277e-05
7 *1767:A2 *1766:B 0.000334641
8 *1767:B1 *1766:B 6.08467e-05
9 *1828:A1 *1766:B 7.01935e-06
10 *1828:A2 *1766:B 0.000136694
11 *1828:B1 *1766:B 6.27718e-05
12 *2040:D *1766:B 7.28567e-06
13 *337:12 *905:12 0.000113715
14 *458:128 *1766:B 0.000153257
15 *458:142 *1766:B 8.88627e-05
16 *778:18 *1766:B 7.92757e-06
17 *840:22 *1766:B 0.000107496
*RES
1 *2040:Q *905:12 27.457 
2 *905:12 *1766:B 29.0563 
3 *905:12 *1827:B 9.24915 
*END

*D_NET *910 0.018285
*CONN
*I *2128:RESET_B I *D sky130_fd_sc_hd__dfrtp_1
*I *2127:RESET_B I *D sky130_fd_sc_hd__dfrtp_1
*I *2044:RESET_B I *D sky130_fd_sc_hd__dfrtp_1
*I *2043:RESET_B I *D sky130_fd_sc_hd__dfrtp_1
*I *2047:RESET_B I *D sky130_fd_sc_hd__dfrtp_1
*I *2048:RESET_B I *D sky130_fd_sc_hd__dfrtp_1
*I *2042:RESET_B I *D sky130_fd_sc_hd__dfrtp_1
*I *2126:RESET_B I *D sky130_fd_sc_hd__dfrtp_1
*I *2041:RESET_B I *D sky130_fd_sc_hd__dfrtp_1
*I *2125:RESET_B I *D sky130_fd_sc_hd__dfrtp_1
*I *2045:RESET_B I *D sky130_fd_sc_hd__dfrtp_1
*I *2046:RESET_B I *D sky130_fd_sc_hd__dfrtp_1
*I *2093:Q O *D sky130_fd_sc_hd__dfrtp_1
*CAP
1 *2128:RESET_B 0.000239633
2 *2127:RESET_B 0.000993714
3 *2044:RESET_B 0.000209485
4 *2043:RESET_B 0.000842776
5 *2047:RESET_B 0.000680598
6 *2048:RESET_B 0.000248194
7 *2042:RESET_B 0.000507797
8 *2126:RESET_B 0.000267792
9 *2041:RESET_B 0.000757869
10 *2125:RESET_B 0.00113947
11 *2045:RESET_B 0.00111389
12 *2046:RESET_B 5.23492e-05
13 *2093:Q 0.000169142
14 *910:170 0
15 *910:121 0.00160281
16 *910:119 0.00114047
17 *910:63 0.00110283
18 *910:12 0.000630147
19 *2041:RESET_B *2090:CLK 5.04829e-06
20 *2042:RESET_B *1113:68 0
21 *2045:RESET_B *2045:CLK 0.000127503
22 *2047:RESET_B *1291:A 0.000277621
23 *2047:RESET_B *2069:RESET_B 2.8906e-05
24 *2125:RESET_B *2066:RESET_B 0
25 *2125:RESET_B *1113:66 0
26 *2126:RESET_B *1124:36 7.15888e-05
27 *910:63 *2125:CLK 9.13394e-06
28 *910:63 *1124:36 1.43698e-05
29 *910:121 *1884:S 5.2558e-05
30 *910:121 *2069:RESET_B 3.55296e-05
31 *1292:A1 *2043:RESET_B 3.75419e-05
32 *1347:A0 *910:121 0
33 *1544:A2 *2041:RESET_B 3.52807e-05
34 *1544:A2 *910:63 2.54623e-05
35 *1555:B2 *2125:RESET_B 0
36 *1576:A2 *2042:RESET_B 0
37 *1583:A *910:63 6.06764e-05
38 *1670:S *910:12 1.15766e-05
39 *1671:B *2047:RESET_B 3.55539e-05
40 *1672:A1 *2047:RESET_B 0.000112361
41 *1736:A *2125:RESET_B 1.91114e-05
42 *1739:A *910:63 0.000132607
43 *1740:B *910:63 2.58169e-05
44 *1741:A1 *2125:RESET_B 8.39267e-05
45 *1770:A1 *2127:RESET_B 0.000195473
46 *1835:A1 *910:121 9.17266e-05
47 *2041:D *2042:RESET_B 0
48 *2043:D *2047:RESET_B 0.00011815
49 *2045:D *2045:RESET_B 6.50727e-05
50 *2048:D *2044:RESET_B 0.000166091
51 *2068:D *910:121 0.000600749
52 *2089:D *2042:RESET_B 0.000196546
53 *2091:D *2127:RESET_B 4.89392e-05
54 *2126:D *2126:RESET_B 6.08467e-05
55 *2127:D *2127:RESET_B 0.000171273
56 *2132:A *2042:RESET_B 6.17773e-05
57 *175:12 *2047:RESET_B 7.44124e-05
58 *175:12 *910:121 0.000327716
59 *224:12 *2047:RESET_B 1.75816e-05
60 *224:21 *2047:RESET_B 2.97245e-05
61 *224:79 *2042:RESET_B 0
62 *224:79 *2048:RESET_B 0.000113244
63 *450:67 *2128:RESET_B 2.61535e-05
64 *450:78 *2128:RESET_B 0.000104763
65 *457:27 *2127:RESET_B 0
66 *457:27 *2128:RESET_B 0.0001403
67 *457:38 *2128:RESET_B 0.000349969
68 *458:31 *2127:RESET_B 3.14426e-05
69 *458:46 *2127:RESET_B 0.000344196
70 *475:8 *2047:RESET_B 1.39095e-05
71 *637:31 *910:63 0.000185257
72 *640:16 *2127:RESET_B 7.13387e-06
73 *648:8 *2127:RESET_B 0.000131487
74 *663:10 *2041:RESET_B 0.000169817
75 *761:14 *2125:RESET_B 5.37479e-05
76 *762:10 *2045:RESET_B 4.6035e-06
77 *762:12 *2125:RESET_B 0
78 *763:12 *2047:RESET_B 3.25052e-05
79 *769:12 *2041:RESET_B 2.74484e-05
80 *770:8 *2042:RESET_B 4.94526e-05
81 *772:10 *2044:RESET_B 1.75715e-05
82 *772:10 *910:121 0
83 *790:12 *2041:RESET_B 0.000141755
84 *835:31 *2043:RESET_B 0.000309626
85 *835:31 *2127:RESET_B 4.12705e-05
86 *838:21 *910:63 5.37479e-05
87 *844:12 *2125:RESET_B 9.66563e-05
88 *846:10 *2127:RESET_B 1.44611e-05
89 *846:12 *2127:RESET_B 8.01886e-05
90 *848:29 *910:63 1.44057e-05
91 *853:28 *2125:RESET_B 0.00027164
92 *865:14 *2125:RESET_B 0.000331029
*RES
1 *2093:Q *910:12 20.9439 
2 *910:12 *2046:RESET_B 1.21772 
3 *910:12 *2045:RESET_B 7.48715 
4 *2045:RESET_B *2125:RESET_B 30.2306 
5 *2125:RESET_B *910:63 18.844 
6 *910:63 *2041:RESET_B 19.3664 
7 *910:63 *2126:RESET_B 4.71413 
8 *2041:RESET_B *2042:RESET_B 18.5303 
9 *2042:RESET_B *2048:RESET_B 13.3235 
10 *2048:RESET_B *910:119 6.74725 
11 *910:119 *910:121 26.7471 
12 *910:121 *2047:RESET_B 19.3596 
13 *910:121 *2043:RESET_B 7.91202 
14 *910:119 *2044:RESET_B 9.57583 
15 *2043:RESET_B *2127:RESET_B 28.1181 
16 *2127:RESET_B *910:170 0.168792 
17 *2127:RESET_B *2128:RESET_B 17.8913 
*END

*D_NET *949 0.000838002
*CONN
*I *1244:A1 I *D sky130_fd_sc_hd__o21ai_1
*I *1664:B I *D sky130_fd_sc_hd__nand2_1
*I *1916:Q O *D sky130_fd_sc_hd__dfrtp_1
*CAP
1 *1244:A1 5.37088e-05
2 *1664:B 0.000248772
3 *1916:Q 0
4 *949:4 0.00030248
5 *1244:A1 *1916:CLK 2.99287e-05
6 *1664:B *1916:CLK 4.62119e-05
7 *1664:B *1091:26 2.04806e-05
8 *1254:A3 *1664:B 0.000125695
9 *1664:A *1664:B 1.07248e-05
10 *446:10 *1664:B 0
*RES
1 *1916:Q *949:4 9.24915 
2 *949:4 *1664:B 23.4382 
3 *949:4 *1244:A1 10.9612 
*END

*D_NET *950 0.00261766
*CONN
*I *1244:A2 I *D sky130_fd_sc_hd__o21ai_1
*I *1661:B I *D sky130_fd_sc_hd__nand2_1
*I *1917:Q O *D sky130_fd_sc_hd__dfrtp_1
*CAP
1 *1244:A2 7.30938e-05
2 *1661:B 0.000381651
3 *1917:Q 0.000264141
4 *950:10 0.000718885
5 *1244:A2 *1916:CLK 3.81056e-05
6 *1661:B *1245:B1 0.000317467
7 *1661:B *2520:A 0.000148129
8 *1661:B *957:45 0
9 *1661:B *957:47 1.65872e-05
10 *1661:B *1138:18 0.000171288
11 *950:10 *1917:CLK 1.43698e-05
12 *950:10 *2520:A 0.000116832
13 *950:10 *1138:58 0
14 *1244:B1 *1244:A2 6.08467e-05
15 *1261:B1 *1661:B 1.37189e-05
16 *1661:A *1661:B 6.3657e-05
17 *446:10 *1661:B 0.000139918
18 *446:10 *950:10 7.89694e-05
*RES
1 *1917:Q *950:10 20.4571 
2 *950:10 *1661:B 26.7747 
3 *950:10 *1244:A2 15.5817 
*END

*D_NET *951 0.00266399
*CONN
*I *1658:B I *D sky130_fd_sc_hd__nand2_1
*I *1269:B I *D sky130_fd_sc_hd__nor2_1
*I *1918:Q O *D sky130_fd_sc_hd__dfrtp_1
*CAP
1 *1658:B 2.42061e-05
2 *1269:B 7.09344e-05
3 *1918:Q 0.000764702
4 *951:14 0.000859843
5 *1269:B *1269:A 5.50954e-05
6 *1269:B *1270:A 3.43582e-05
7 *1658:B *1269:A 7.32623e-05
8 *951:14 *1269:A 2.53145e-06
9 *951:14 *1872:A 0
10 *951:14 *1110:727 0.000104731
11 *951:14 *1110:729 0.000273828
12 *951:14 *1110:731 0.000297535
13 *1270:B *1269:B 1.07744e-07
14 *1918:D *1269:B 8.07651e-05
15 *751:12 *951:14 2.20937e-05
*RES
1 *1918:Q *951:14 35.7861 
2 *951:14 *1269:B 12.7938 
3 *951:14 *1658:B 10.5513 
*END

*D_NET *952 0.00287986
*CONN
*I *1260:B I *D sky130_fd_sc_hd__nor2_1
*I *1836:B I *D sky130_fd_sc_hd__nand2_1
*I *1915:Q O *D sky130_fd_sc_hd__dfrtp_1
*CAP
1 *1260:B 0.000155146
2 *1836:B 0.000340755
3 *1915:Q 0.000478606
4 *952:14 0.000974508
5 *1260:B *1245:B1 4.94e-06
6 *1260:B *1138:18 3.40155e-05
7 *1836:B *954:8 0.000101177
8 *952:14 *1915:RESET_B 2.58616e-05
9 *1662:A *1836:B 5.52417e-05
10 *1664:A *1260:B 1.39717e-06
11 *1836:A *1836:B 0
12 *1838:A *1836:B 0.000441911
13 *1838:B *1260:B 3.35964e-05
14 *1838:B *1836:B 2.36617e-05
15 *1838:B *952:14 2.40736e-05
16 *216:22 *1836:B 0.00011818
17 *217:8 *952:14 6.27782e-05
18 *217:27 *1260:B 4.01386e-06
*RES
1 *1915:Q *952:14 28.5984 
2 *952:14 *1836:B 29.0081 
3 *952:14 *1260:B 22.1574 
*END

*D_NET *953 0.00335942
*CONN
*I *1245:A1 I *D sky130_fd_sc_hd__o21ai_1
*I *1655:A0 I *D sky130_fd_sc_hd__mux2_1
*I *1919:Q O *D sky130_fd_sc_hd__dfrtp_1
*CAP
1 *1245:A1 0.000397908
2 *1655:A0 3.57807e-05
3 *1919:Q 0.000449569
4 *953:10 0.000883258
5 *1245:A1 *1654:A0 0.000250405
6 *1245:A1 *1091:8 0.000101177
7 *1245:A1 *1154:10 0.000296228
8 *953:10 *1919:RESET_B 7.23277e-05
9 *953:10 *1154:10 9.20398e-05
10 *1654:A1 *1245:A1 0.00019849
11 *2538:A *953:10 2.65667e-05
12 *716:8 *1245:A1 0.000339318
13 *793:11 *1245:A1 0.000126339
14 *793:11 *953:10 9.0014e-05
*RES
1 *1919:Q *953:10 25.73 
2 *953:10 *1655:A0 14.4725 
3 *953:10 *1245:A1 30.8681 
*END

*D_NET *954 0.00134602
*CONN
*I *1245:A2 I *D sky130_fd_sc_hd__o21ai_1
*I *1654:A0 I *D sky130_fd_sc_hd__mux2_1
*I *1920:Q O *D sky130_fd_sc_hd__dfrtp_1
*CAP
1 *1245:A2 2.11185e-05
2 *1654:A0 0.000224843
3 *1920:Q 0.000120486
4 *954:8 0.000366447
5 *1245:A1 *1654:A0 0.000250405
6 *1254:A3 *1245:A2 1.72644e-05
7 *1654:S *954:8 1.06049e-05
8 *1662:A *954:8 6.49514e-05
9 *1663:B *1245:A2 4.39919e-05
10 *1663:B *954:8 6.93171e-05
11 *1836:B *954:8 0.000101177
12 *1838:A *954:8 1.22289e-05
13 *217:27 *1245:A2 5.18062e-06
14 *217:27 *954:8 3.80007e-05
*RES
1 *1920:Q *954:8 18.4879 
2 *954:8 *1654:A0 17.2456 
3 *954:8 *1245:A2 14.7506 
*END

*D_NET *955 0.00255462
*CONN
*I *1270:A I *D sky130_fd_sc_hd__nor2_1
*I *1653:A0 I *D sky130_fd_sc_hd__mux2_1
*I *1921:Q O *D sky130_fd_sc_hd__dfrtp_1
*CAP
1 *1270:A 0.000389274
2 *1653:A0 0.000142763
3 *1921:Q 0.000552149
4 *955:8 0.00108419
5 *1270:A *1269:A 2.23379e-06
6 *1270:A *2049:CLK 4.20662e-05
7 *1270:A *957:45 0
8 *1270:A *1091:26 7.14746e-05
9 *1270:A *1110:733 0.000120458
10 *1270:A *1110:735 1.37566e-05
11 *1270:A *1138:12 0
12 *1270:A *1138:43 0
13 *1653:A0 *1110:735 2.48716e-05
14 *1269:B *1270:A 3.43582e-05
15 *1270:B *1270:A 1.09551e-05
16 *1653:A1 *1653:A0 1.03403e-05
17 *1918:D *1270:A 1.5243e-05
18 *1921:D *1270:A 8.70662e-06
19 *1921:D *1653:A0 3.17869e-05
*RES
1 *1921:Q *955:8 21.1278 
2 *955:8 *1653:A0 16.4439 
3 *955:8 *1270:A 24.0726 
*END

*D_NET *956 0.000819583
*CONN
*I *1259:A I *D sky130_fd_sc_hd__inv_1
*I *1914:Q O *D sky130_fd_sc_hd__dfrtp_1
*CAP
1 *1259:A 0.000342361
2 *1914:Q 0.000342361
3 *1259:A *1914:RESET_B 4.59816e-06
4 *215:16 *1259:A 3.31287e-05
5 *216:14 *1259:A 1.14407e-05
6 *444:10 *1259:A 2.59857e-05
7 *717:10 *1259:A 5.9708e-05
*RES
1 *1914:Q *1259:A 33.9767 
*END

*D_NET *957 0.00615497
*CONN
*I *1841:A I *D sky130_fd_sc_hd__xor2_1
*I *1243:A I *D sky130_fd_sc_hd__inv_1
*I *1261:A2 I *D sky130_fd_sc_hd__a21oi_1
*I *1260:A I *D sky130_fd_sc_hd__nor2_1
*I *1245:B1 I *D sky130_fd_sc_hd__o21ai_1
*I *1269:A I *D sky130_fd_sc_hd__nor2_1
*I *2049:Q O *D sky130_fd_sc_hd__dfrtp_1
*CAP
1 *1841:A 0.000193438
2 *1243:A 4.28463e-05
3 *1261:A2 0
4 *1260:A 0
5 *1245:B1 0.000270965
6 *1269:A 0.000207004
7 *2049:Q 0
8 *957:47 0.000330056
9 *957:45 0.000354513
10 *957:39 0.000862085
11 *957:10 0.00115289
12 *957:4 0.000615503
13 *1245:B1 *1138:18 3.0676e-05
14 *957:10 *1785:B 0.00012136
15 *957:39 *1138:43 3.55859e-05
16 *957:45 *1138:12 0.000127194
17 *957:45 *1138:18 0.000261128
18 *957:45 *1138:43 0.000236506
19 *957:47 *1138:18 0.000161956
20 *1244:B1 *1243:A 6.63843e-05
21 *1260:B *1245:B1 4.94e-06
22 *1261:A1 *957:47 2.58757e-05
23 *1261:B1 *957:47 6.36477e-05
24 *1269:B *1269:A 5.50954e-05
25 *1270:A *1269:A 2.23379e-06
26 *1270:A *957:45 0
27 *1270:B *1243:A 7.54492e-05
28 *1658:B *1269:A 7.32623e-05
29 *1660:A *1269:A 0.000161254
30 *1661:B *1245:B1 0.000317467
31 *1661:B *957:45 0
32 *1661:B *957:47 1.65872e-05
33 *1663:A *1245:B1 0.000113968
34 *1918:D *1269:A 2.19224e-05
35 *2049:D *1841:A 4.33748e-05
36 *2049:D *957:10 6.41964e-05
37 *425:20 *957:10 0
38 *446:10 *1245:B1 2.81678e-06
39 *751:12 *957:10 4.02577e-05
40 *951:14 *1269:A 2.53145e-06
*RES
1 *2049:Q *957:4 9.24915 
2 *957:4 *957:10 13.0111 
3 *957:10 *1269:A 20.1753 
4 *957:10 *957:39 8.72867 
5 *957:39 *957:45 14.2568 
6 *957:45 *957:47 2.38721 
7 *957:47 *1245:B1 25.0431 
8 *957:47 *1260:A 9.24915 
9 *957:45 *1261:A2 9.24915 
10 *957:39 *1243:A 15.2743 
11 *957:4 *1841:A 12.625 
*END

*D_NET *958 0.000655207
*CONN
*I *1733:A I *D sky130_fd_sc_hd__inv_1
*I *1912:Q O *D sky130_fd_sc_hd__dfrtp_1
*CAP
1 *1733:A 0.000266964
2 *1912:Q 0.000266964
3 axi_lite_o[2] *1733:A 1.53307e-05
4 axi_lite_o[34] *1733:A 1.94614e-05
5 *2156:A *1733:A 3.77635e-05
6 *267:6 *1733:A 4.87237e-05
*RES
1 *1912:Q *1733:A 34.7912 
*END

*D_NET *959 0.000864212
*CONN
*I *1693:B I *D sky130_fd_sc_hd__nand2_1
*I *1622:B I *D sky130_fd_sc_hd__nand2_1
*I *1931:Q O *D sky130_fd_sc_hd__dfrtp_1
*CAP
1 *1693:B 0.000122425
2 *1622:B 7.42505e-05
3 *1931:Q 0.000123723
4 *959:10 0.000320398
5 *1695:B *1622:B 1.55391e-05
6 *1695:B *1693:B 3.87797e-05
7 *1695:B *959:10 9.05084e-06
8 *185:316 *959:10 0.000160047
*RES
1 *1931:Q *959:10 16.6687 
2 *959:10 *1622:B 15.3002 
3 *959:10 *1693:B 16.7414 
*END

*D_NET *960 0.00133103
*CONN
*I *1680:B I *D sky130_fd_sc_hd__nand2_1
*I *1620:B I *D sky130_fd_sc_hd__nand2_1
*I *1932:Q O *D sky130_fd_sc_hd__dfrtp_1
*CAP
1 *1680:B 0.000125276
2 *1620:B 0.000181064
3 *1932:Q 0.000227054
4 *960:10 0.000533394
5 *1680:B *1963:RESET_B 0
6 *1680:B *1113:559 6.27782e-05
7 *960:10 *1963:RESET_B 0
8 axi_lite_o[5] *1620:B 2.41916e-05
9 *1620:A *1620:B 4.31603e-06
10 *1621:B1 *1620:B 3.14978e-05
11 *1680:A *1680:B 7.65348e-05
12 *1981:D *1680:B 0
13 *1981:D *960:10 0
14 *185:12 *1620:B 2.85139e-05
15 *185:12 *960:10 2.22788e-05
16 *185:18 *1620:B 1.41291e-05
*RES
1 *1932:Q *960:10 18.1049 
2 *960:10 *1620:B 18.3789 
3 *960:10 *1680:B 17.135 
*END

*D_NET *961 0.00256518
*CONN
*I *1618:B I *D sky130_fd_sc_hd__nand2_1
*I *1677:B I *D sky130_fd_sc_hd__nand2_1
*I *1933:Q O *D sky130_fd_sc_hd__dfrtp_1
*CAP
1 *1618:B 0.000975582
2 *1677:B 8.44811e-05
3 *1933:Q 0.00106006
4 *1618:B *1933:RESET_B 2.57276e-05
5 *1618:B *1964:CLK 0.00011818
6 *1618:B *1129:14 6.75138e-05
7 *1677:B *1111:303 4.27119e-05
8 *1677:B *1111:305 7.86825e-06
9 *1618:A *1618:B 1.53047e-05
10 *1619:A1 *1618:B 1.04993e-06
11 *1619:A2 *1618:B 2.11945e-05
12 *1619:B1 *1618:B 1.75155e-06
13 *1680:A *1677:B 2.14842e-06
14 *185:345 *1618:B 7.67452e-05
15 *388:83 *1677:B 2.60119e-05
16 *628:22 *1618:B 3.14978e-05
17 *638:10 *1618:B 7.34948e-06
*RES
1 *1933:Q *1677:B 29.7455 
2 *1933:Q *1618:B 34.8229 
*END

*D_NET *962 0.00213334
*CONN
*I *1233:B I *D sky130_fd_sc_hd__nand2_1
*I *1616:B I *D sky130_fd_sc_hd__nand2_1
*I *1934:Q O *D sky130_fd_sc_hd__dfrtp_1
*CAP
1 *1233:B 1.33251e-05
2 *1616:B 0.000132849
3 *1934:Q 0.000607352
4 *962:14 0.000753526
5 *962:14 *1934:RESET_B 7.64959e-06
6 *962:14 *998:12 0
7 *1233:A *962:14 6.50586e-05
8 *1235:A *962:14 3.4475e-05
9 *1518:A *1233:B 0
10 *1616:A *1233:B 0
11 *1616:A *1616:B 5.14953e-05
12 *1617:B1 *1616:B 6.50586e-05
13 *598:266 *1616:B 5.64241e-05
14 *598:266 *962:14 2.17699e-05
15 *598:288 *962:14 2.08274e-05
16 *726:14 *962:14 1.79807e-05
17 *758:8 *962:14 0.000285547
*RES
1 *1934:Q *962:14 30.9506 
2 *962:14 *1616:B 13.3243 
3 *962:14 *1233:B 9.82786 
*END

*D_NET *963 0.00213016
*CONN
*I *1746:B I *D sky130_fd_sc_hd__nand2_1
*I *1614:B I *D sky130_fd_sc_hd__nand2_1
*I *1935:Q O *D sky130_fd_sc_hd__dfrtp_1
*CAP
1 *1746:B 8.69599e-05
2 *1614:B 0.000420784
3 *1935:Q 0.000231901
4 *963:10 0.000739645
5 *1614:B *1111:181 1.44764e-05
6 *1746:B *1111:172 1.65581e-05
7 *1746:B *1111:181 0.0001276
8 *963:10 *1980:RESET_B 0.000160561
9 *963:10 *1111:172 2.91831e-05
10 *963:10 *1129:53 2.41274e-06
11 *1615:A1 *1614:B 0.000110458
12 *1746:A *1746:B 1.85345e-06
13 *1748:A *1746:B 6.23026e-05
14 *1748:B *1746:B 1.52796e-05
15 *1935:D *1614:B 1.03594e-05
16 *185:337 *1614:B 2.10465e-05
17 *727:20 *1746:B 8.36586e-06
18 *727:20 *963:10 7.04109e-05
*RES
1 *1935:Q *963:10 18.1077 
2 *963:10 *1614:B 29.4655 
3 *963:10 *1746:B 17.391 
*END

*D_NET *964 0.0018655
*CONN
*I *1612:B I *D sky130_fd_sc_hd__nand2_1
*I *1743:B I *D sky130_fd_sc_hd__nand2_1
*I *1936:Q O *D sky130_fd_sc_hd__dfrtp_1
*CAP
1 *1612:B 0.000217161
2 *1743:B 0.000321412
3 *1936:Q 0.000538574
4 *1612:B *1941:CLK 0.000122844
5 *1743:B *1941:RESET_B 0.000153395
6 *1743:B *1111:65 5.13058e-05
7 *1613:B1 *1612:B 2.58757e-05
8 *1702:A *1743:B 2.48716e-05
9 *185:34 *1612:B 0.000122844
10 *185:54 *1612:B 0.00025821
11 *185:65 *1612:B 2.90025e-05
*RES
1 *1936:Q *1743:B 33.242 
2 *1936:Q *1612:B 34.9299 
*END

*D_NET *965 0.00251543
*CONN
*I *1610:B I *D sky130_fd_sc_hd__nand2_1
*I *1200:B I *D sky130_fd_sc_hd__nand2_1
*I *1937:Q O *D sky130_fd_sc_hd__dfrtp_1
*CAP
1 *1610:B 0.000369817
2 *1200:B 9.34069e-05
3 *1937:Q 0.000102644
4 *965:10 0.000565868
5 *1200:B *1106:235 0.000170592
6 *1610:B *1143:10 1.70851e-05
7 *965:10 *1106:235 0.000134841
8 *1202:A *1200:B 4.30017e-06
9 *1610:A *1610:B 2.82809e-05
10 *1611:B1 *1610:B 1.84293e-05
11 *2145:A *965:10 2.16355e-05
12 *388:125 *1200:B 8.62625e-06
13 *388:212 *1200:B 0.000161966
14 *388:212 *965:10 0.000143467
15 *628:22 *1610:B 0.000540713
16 *638:10 *1610:B 0.000133753
*RES
1 *1937:Q *965:10 17.135 
2 *965:10 *1200:B 17.5503 
3 *965:10 *1610:B 33.3959 
*END

*D_NET *966 0.00304704
*CONN
*I *1203:B I *D sky130_fd_sc_hd__nand2_1
*I *1608:B I *D sky130_fd_sc_hd__nand2_1
*I *1938:Q O *D sky130_fd_sc_hd__dfrtp_1
*CAP
1 *1203:B 0
2 *1608:B 0.000344689
3 *1938:Q 0.000717389
4 *966:18 0.00106208
5 *966:18 *1204:A 8.58349e-05
6 *966:18 *1938:RESET_B 0.000200251
7 *966:18 *1111:196 0
8 *966:18 *1111:209 0
9 *966:18 *1111:561 0.000138166
10 *966:18 *1127:8 0
11 *966:18 *1127:16 0
12 *966:18 *1127:27 0
13 *1203:A *1608:B 6.27782e-05
14 *1203:A *966:18 4.95892e-05
15 *1205:B *966:18 5.2737e-05
16 *1608:A *1608:B 0.000109872
17 *1974:D *966:18 9.29577e-05
18 *388:73 *966:18 0.000130698
*RES
1 *1938:Q *966:18 36.6952 
2 *966:18 *1608:B 18.1228 
3 *966:18 *1203:B 9.24915 
*END

*D_NET *967 0.000529182
*CONN
*I *1194:B I *D sky130_fd_sc_hd__nand2_1
*I *1606:B I *D sky130_fd_sc_hd__nand2_1
*I *1939:Q O *D sky130_fd_sc_hd__dfrtp_1
*CAP
1 *1194:B 7.42153e-05
2 *1606:B 2.78398e-05
3 *1939:Q 4.18965e-05
4 *967:8 0.000143952
5 *967:8 *1113:441 6.50586e-05
6 *1194:A *1194:B 0.000122098
7 *1194:A *1606:B 5.41227e-05
8 *2174:A *1194:B 0
9 *2174:A *1606:B 0
*RES
1 *1939:Q *967:8 14.4725 
2 *967:8 *1606:B 14.7506 
3 *967:8 *1194:B 15.9964 
*END

*D_NET *968 0.000853832
*CONN
*I *1197:B I *D sky130_fd_sc_hd__nand2_1
*I *1604:B I *D sky130_fd_sc_hd__nand2_1
*I *1940:Q O *D sky130_fd_sc_hd__dfrtp_1
*CAP
1 *1197:B 0.000219932
2 *1604:B 0
3 *1940:Q 3.60903e-05
4 *968:8 0.000256022
5 *1197:B *1111:23 4.23255e-05
6 *1199:A *1197:B 4.58003e-05
7 *1514:A1 *1197:B 7.92757e-06
8 *1604:A *1197:B 7.09666e-06
9 *1605:B1 *1197:B 1.00846e-05
10 *1605:B1 *968:8 3.14978e-05
11 *1853:A *1197:B 7.60465e-05
12 *388:143 *1197:B 4.88955e-05
13 *777:8 *1197:B 7.21131e-05
*RES
1 *1940:Q *968:8 10.5513 
2 *968:8 *1604:B 9.24915 
3 *968:8 *1197:B 24.8769 
*END

*D_NET *969 0.00234162
*CONN
*I *1640:B I *D sky130_fd_sc_hd__nand2_1
*I *1730:B I *D sky130_fd_sc_hd__nand2_1
*I *1922:Q O *D sky130_fd_sc_hd__dfrtp_1
*CAP
1 *1640:B 0.000364455
2 *1730:B 3.17003e-05
3 *1922:Q 0.000195973
4 *969:8 0.000592129
5 *1640:B *1697:A 0
6 *1640:B *1953:RESET_B 2.57071e-05
7 *1730:B *1954:CLK 7.56859e-06
8 *969:8 *1023:10 7.15593e-05
9 *1580:A1 *969:8 7.77309e-06
10 *1696:A *1730:B 1.69932e-05
11 *1696:A *969:8 0.000260817
12 *1698:A *969:8 9.98296e-05
13 *185:187 *1640:B 0.000113968
14 *185:189 *1640:B 0.000317679
15 *185:191 *1640:B 0.00011818
16 *185:228 *1730:B 1.09738e-05
17 *185:228 *969:8 7.11201e-05
18 *185:237 *969:8 2.99643e-05
19 *388:220 *1730:B 5.22654e-06
*RES
1 *1922:Q *969:8 21.8099 
2 *969:8 *1730:B 14.7506 
3 *969:8 *1640:B 29.4655 
*END

*D_NET *970 0.00148749
*CONN
*I *1188:B I *D sky130_fd_sc_hd__nand2_1
*I *1602:B I *D sky130_fd_sc_hd__nand2_1
*I *1941:Q O *D sky130_fd_sc_hd__dfrtp_1
*CAP
1 *1188:B 0
2 *1602:B 0.000226362
3 *1941:Q 0.000153831
4 *970:12 0.000380193
5 *1188:A *1602:B 0.000672468
6 *1190:B *970:12 3.44412e-06
7 *1602:A *1602:B 5.11945e-05
*RES
1 *1941:Q *970:12 21.2198 
2 *970:12 *1602:B 17.7852 
3 *970:12 *1188:B 9.24915 
*END

*D_NET *971 0.000870642
*CONN
*I *1191:A I *D sky130_fd_sc_hd__inv_1
*I *1942:Q O *D sky130_fd_sc_hd__dfrtp_1
*CAP
1 *1191:A 0.000382526
2 *1942:Q 0.000382526
3 *1191:A *1945:RESET_B 0
4 axi_lite_o[23] *1191:A 0
5 *2163:A *1191:A 8.07875e-05
6 *391:8 *1191:A 2.48028e-05
*RES
1 *1942:Q *1191:A 34.1161 
*END

*D_NET *972 0.000462673
*CONN
*I *1181:A I *D sky130_fd_sc_hd__inv_1
*I *1943:Q O *D sky130_fd_sc_hd__dfrtp_1
*CAP
1 *1181:A 0.000171514
2 *1943:Q 0.000171514
3 *2162:A *1181:A 5.76589e-05
4 *384:6 *1181:A 6.19864e-05
*RES
1 *1943:Q *1181:A 32.2406 
*END

*D_NET *973 0.00015326
*CONN
*I *1184:A I *D sky130_fd_sc_hd__inv_1
*I *1944:Q O *D sky130_fd_sc_hd__dfrtp_1
*CAP
1 *1184:A 4.34899e-05
2 *1944:Q 4.34899e-05
3 *1184:A *1944:RESET_B 3.314e-05
4 *1597:A2 *1184:A 0
5 *1597:B1 *1184:A 0
6 *1944:D *1184:A 3.314e-05
*RES
1 *1944:Q *1184:A 20.0114 
*END

*D_NET *974 0.00214776
*CONN
*I *1227:A I *D sky130_fd_sc_hd__inv_1
*I *1945:Q O *D sky130_fd_sc_hd__dfrtp_1
*CAP
1 *1227:A 0.000815666
2 *1945:Q 0.000815666
3 axi_lite_o[23] *1227:A 0.000388987
4 axi_lite_o[33] *1227:A 0
5 *2152:A *1227:A 6.65913e-05
6 *2160:A *1227:A 3.61639e-05
7 *2163:A *1227:A 0
8 *415:8 *1227:A 2.46912e-05
*RES
1 *1945:Q *1227:A 49.7268 
*END

*D_NET *975 0.000401152
*CONN
*I *1230:A I *D sky130_fd_sc_hd__inv_1
*I *1946:Q O *D sky130_fd_sc_hd__dfrtp_1
*CAP
1 *1230:A 0.000182393
2 *1946:Q 0.000182393
3 *417:6 *1230:A 3.6367e-05
*RES
1 *1946:Q *1230:A 31.264 
*END

*D_NET *976 0.000816585
*CONN
*I *1221:A I *D sky130_fd_sc_hd__inv_1
*I *1947:Q O *D sky130_fd_sc_hd__dfrtp_1
*CAP
1 *1221:A 0.000392208
2 *1947:Q 0.000392208
3 *1221:A *1113:840 0
4 *411:6 *1221:A 3.21692e-05
*RES
1 *1947:Q *1221:A 33.6217 
*END

*D_NET *977 0.00204782
*CONN
*I *1224:A I *D sky130_fd_sc_hd__inv_1
*I *1948:Q O *D sky130_fd_sc_hd__dfrtp_1
*CAP
1 *1224:A 0.000752666
2 *1948:Q 0.000752666
3 *1224:A *1950:RESET_B 0.00029447
4 *1948:D *1224:A 0.000193981
5 *2154:A *1224:A 0
6 *2169:A *1224:A 2.6874e-05
7 *184:51 *1224:A 1.32509e-05
8 *413:10 *1224:A 1.39115e-05
*RES
1 *1948:Q *1224:A 43.5331 
*END

*D_NET *978 0.000475137
*CONN
*I *1215:A I *D sky130_fd_sc_hd__inv_1
*I *1949:Q O *D sky130_fd_sc_hd__dfrtp_1
*CAP
1 *1215:A 0.00022059
2 *1949:Q 0.00022059
3 *407:6 *1215:A 3.39578e-05
*RES
1 *1949:Q *1215:A 31.8186 
*END

*D_NET *979 0.000642895
*CONN
*I *1218:A I *D sky130_fd_sc_hd__inv_1
*I *1950:Q O *D sky130_fd_sc_hd__dfrtp_1
*CAP
1 *1218:A 0.000199763
2 *1950:Q 0.000199763
3 *1218:A *1950:RESET_B 6.08736e-05
4 *2154:A *1218:A 9.88345e-05
5 *409:14 *1218:A 1.78493e-05
6 *734:16 *1218:A 6.58125e-05
*RES
1 *1950:Q *1218:A 32.8675 
*END

*D_NET *980 0.00221853
*CONN
*I *1727:B I *D sky130_fd_sc_hd__nand2_1
*I *1638:B I *D sky130_fd_sc_hd__nand2_1
*I *1923:Q O *D sky130_fd_sc_hd__dfrtp_1
*CAP
1 *1727:B 4.34799e-05
2 *1638:B 0.000141424
3 *1923:Q 0.00023491
4 *980:12 0.000419814
5 *980:12 *1728:B 0
6 *980:12 *1106:235 0.000329417
7 *980:12 *1111:151 9.04726e-06
8 *980:12 *1111:164 3.1218e-05
9 *980:12 *1129:61 4.31703e-05
10 *1638:A *1638:B 9.57511e-05
11 *1727:A *1727:B 2.60902e-05
12 *1729:A *1727:B 3.68307e-05
13 *1729:B *1638:B 6.97525e-05
14 *388:220 *1638:B 0.000482079
15 *388:220 *1727:B 0.000106487
16 *598:173 *980:12 0.000149059
*RES
1 *1923:Q *980:12 25.5117 
2 *980:12 *1638:B 15.7115 
3 *980:12 *1727:B 11.1059 
*END

*D_NET *981 0.000872638
*CONN
*I *1209:A I *D sky130_fd_sc_hd__inv_1
*I *1951:Q O *D sky130_fd_sc_hd__dfrtp_1
*CAP
1 *1209:A 0.000420235
2 *1951:Q 0.000420235
3 *184:68 *1209:A 0
4 *403:6 *1209:A 3.21692e-05
*RES
1 *1951:Q *1209:A 34.1763 
*END

*D_NET *982 0.000592155
*CONN
*I *1212:A I *D sky130_fd_sc_hd__inv_1
*I *1952:Q O *D sky130_fd_sc_hd__dfrtp_1
*CAP
1 *1212:A 0.000174917
2 *1952:Q 0.000174917
3 *1212:A *1113:959 0.00017422
4 *1214:B1 *1212:A 3.61564e-05
5 *1945:D *1212:A 0
6 *405:8 *1212:A 3.19445e-05
*RES
1 *1952:Q *1212:A 31.4033 
*END

*D_NET *983 0.000615661
*CONN
*I *1846:A I *D sky130_fd_sc_hd__inv_1
*I *1913:Q O *D sky130_fd_sc_hd__dfrtp_1
*CAP
1 *1846:A 0.00022673
2 *1913:Q 0.00022673
3 *1846:A *1913:RESET_B 8.14957e-05
4 *1846:A *1113:906 6.28598e-05
5 *1847:A1 *1846:A 1.38823e-05
6 *1906:A2 *1846:A 3.96379e-06
7 *1910:D *1846:A 0
*RES
1 *1913:Q *1846:A 33.9417 
*END

*D_NET *984 0.00211521
*CONN
*I *1851:B I *D sky130_fd_sc_hd__nand2_1
*I *1734:B I *D sky130_fd_sc_hd__nand2_1
*I *1910:Q O *D sky130_fd_sc_hd__dfrtp_1
*CAP
1 *1851:B 0.000402567
2 *1734:B 0
3 *1910:Q 0.000454424
4 *984:10 0.000856992
5 *1851:B *1906:A1 1.16107e-05
6 *1851:B *1912:RESET_B 1.34231e-05
7 *1851:B *1111:414 1.53822e-05
8 *1851:B *1111:434 1.44764e-05
9 *984:10 *1111:414 3.44412e-06
10 *1848:A2 *1851:B 1.02917e-05
11 *1906:B1 *1851:B 3.00174e-06
12 *1906:B1 *984:10 0
13 *1912:D *1851:B 0.000128094
14 *1912:D *984:10 3.55179e-05
15 *183:39 *1851:B 0.000110458
16 *183:52 *1851:B 1.30094e-05
17 *184:40 *1851:B 3.21615e-05
18 *598:686 *1851:B 1.03594e-05
*RES
1 *1910:Q *984:10 24.6096 
2 *984:10 *1734:B 13.7491 
3 *984:10 *1851:B 30.8794 
*END

*D_NET *985 0.00114872
*CONN
*I *1731:B I *D sky130_fd_sc_hd__nand2_1
*I *1585:B I *D sky130_fd_sc_hd__nand2_1
*I *1953:Q O *D sky130_fd_sc_hd__dfrtp_1
*CAP
1 *1731:B 4.05428e-05
2 *1585:B 0.000107639
3 *1953:Q 0.000141725
4 *985:12 0.000289907
5 *1731:B *1731:A 6.27718e-05
6 *1731:B *1954:CLK 5.04829e-06
7 *985:12 *1937:RESET_B 3.50159e-05
8 *985:12 *1954:CLK 2.5971e-05
9 *985:12 *1113:159 2.63639e-05
10 *1535:B1 *985:12 2.41274e-06
11 *1586:A1 *1585:B 1.00766e-05
12 *1586:B1 *1585:B 3.00829e-05
13 *598:115 *985:12 4.91278e-05
14 *598:128 *985:12 2.59855e-05
15 *598:145 *1585:B 0.000112367
16 *598:145 *1731:B 1.3808e-05
17 *598:145 *985:12 5.03545e-06
18 *638:10 *985:12 0.000164843
*RES
1 *1953:Q *985:12 23.1595 
2 *985:12 *1585:B 12.7938 
3 *985:12 *1731:B 10.5271 
*END

*D_NET *986 0.000738863
*CONN
*I *1579:B I *D sky130_fd_sc_hd__nand2_1
*I *1728:B I *D sky130_fd_sc_hd__nand2_1
*I *1954:Q O *D sky130_fd_sc_hd__dfrtp_1
*CAP
1 *1579:B 5.34199e-05
2 *1728:B 0.000123778
3 *1954:Q 4.17153e-05
4 *986:6 0.000218913
5 *1579:B *1111:164 2.41274e-06
6 *1728:B *1111:151 5.22654e-06
7 *1728:B *1111:164 0.000113792
8 *1728:B *1143:143 0.000166694
9 *598:167 *1579:B 4.80635e-06
10 *598:173 *1728:B 8.10514e-06
11 *980:12 *1728:B 0
*RES
1 *1954:Q *986:6 9.97254 
2 *986:6 *1728:B 22.6459 
3 *986:6 *1579:B 10.5513 
*END

*D_NET *987 0.00119654
*CONN
*I *1573:B I *D sky130_fd_sc_hd__nand2_1
*I *1722:B I *D sky130_fd_sc_hd__nand2_1
*I *1955:Q O *D sky130_fd_sc_hd__dfrtp_1
*CAP
1 *1573:B 0.000236657
2 *1722:B 0
3 *1955:Q 0.000170184
4 *987:12 0.00040684
5 *1573:B *1722:A 4.80635e-06
6 *1573:B *1111:23 6.55265e-05
7 *987:12 *1924:RESET_B 5.39608e-05
8 *987:12 *1955:RESET_B 0.00011818
9 *987:12 *1111:46 0
10 *1574:A1 *1573:B 1.43387e-05
11 *1574:B1 *1573:B 2.99287e-05
12 *1723:B *1573:B 7.32658e-06
13 *598:396 *1573:B 6.50586e-05
14 *777:14 *1573:B 2.3735e-05
*RES
1 *1955:Q *987:12 21.7744 
2 *987:12 *1722:B 9.24915 
3 *987:12 *1573:B 15.5668 
*END

*D_NET *988 0.00144086
*CONN
*I *1719:B I *D sky130_fd_sc_hd__nand2_1
*I *1566:B I *D sky130_fd_sc_hd__nand2_1
*I *1956:Q O *D sky130_fd_sc_hd__dfrtp_1
*CAP
1 *1719:B 0
2 *1566:B 0.000134974
3 *1956:Q 0.000255609
4 *988:12 0.000390583
5 *1566:B *1111:46 0.000238819
6 *988:12 *1956:CLK 5.05841e-05
7 *988:12 *1131:8 1.43983e-05
8 *1566:A *1566:B 6.97444e-05
9 *1567:B1 *1566:B 2.58757e-05
10 *388:131 *988:12 0.000114403
11 *598:366 *1566:B 9.81288e-06
12 *630:10 *1566:B 1.80601e-05
13 *778:18 *988:12 0.000118
*RES
1 *1956:Q *988:12 23.4382 
2 *988:12 *1566:B 13.903 
3 *988:12 *1719:B 9.24915 
*END

*D_NET *989 0.00144529
*CONN
*I *1713:B I *D sky130_fd_sc_hd__nand2_1
*I *1559:B I *D sky130_fd_sc_hd__nand2_1
*I *1957:Q O *D sky130_fd_sc_hd__dfrtp_1
*CAP
1 *1713:B 0.000175376
2 *1559:B 0.000309445
3 *1957:Q 0
4 *989:4 0.000484821
5 *1559:B *1632:B 2.23108e-05
6 *1559:B *1712:B 5.02592e-05
7 *1559:B *1934:CLK 0.000107863
8 *1713:B *1712:B 1.83992e-05
9 *1632:A *1559:B 7.86825e-06
10 *1714:A *1713:B 7.92757e-06
11 *1714:B *1713:B 7.26606e-05
12 *185:278 *1559:B 3.62398e-05
13 *388:30 *1713:B 1.41976e-05
14 *598:258 *1713:B 0.000112897
15 *618:10 *1713:B 1.83294e-06
16 *838:39 *1713:B 2.31905e-05
*RES
1 *1957:Q *989:4 9.24915 
2 *989:4 *1559:B 23.9928 
3 *989:4 *1713:B 22.329 
*END

*D_NET *990 0.000389698
*CONN
*I *1706:B I *D sky130_fd_sc_hd__nand2_1
*I *1556:B I *D sky130_fd_sc_hd__nand2_1
*I *1958:Q O *D sky130_fd_sc_hd__dfrtp_1
*CAP
1 *1706:B 9.64061e-05
2 *1556:B 1.85175e-05
3 *1958:Q 3.03252e-05
4 *990:6 0.000145249
5 *1556:A *1706:B 6.27718e-05
6 *1707:B *1706:B 0
7 *598:614 *1556:B 3.13805e-06
8 *598:614 *1706:B 3.32903e-05
*RES
1 *1958:Q *990:6 9.97254 
2 *990:6 *1556:B 9.82786 
3 *990:6 *1706:B 12.2151 
*END

*D_NET *991 0.00175982
*CONN
*I *1721:B I *D sky130_fd_sc_hd__nand2_1
*I *1636:B I *D sky130_fd_sc_hd__nand2_1
*I *1924:Q O *D sky130_fd_sc_hd__dfrtp_1
*CAP
1 *1721:B 0.000281941
2 *1636:B 0.000335841
3 *1924:Q 0.000617782
4 *1636:B *1111:23 5.12484e-05
5 *1721:B *1722:A 0
6 *1721:B *1111:46 1.02267e-05
7 *1526:A1 *1636:B 7.01935e-06
8 *1526:A2 *1636:B 8.23828e-05
9 *1526:A2 *1721:B 1.65872e-05
10 *1604:A *1636:B 5.03545e-06
11 *1723:A *1721:B 3.25906e-05
12 *2142:A *1721:B 1.58551e-05
13 *388:133 *1721:B 0.0001195
14 *622:6 *1721:B 0.000109427
15 *777:8 *1636:B 2.51064e-05
16 *778:18 *1721:B 4.92721e-05
*RES
1 *1924:Q *1636:B 33.7966 
2 *1924:Q *1721:B 33.9895 
*END

*D_NET *992 0.000974426
*CONN
*I *1703:B I *D sky130_fd_sc_hd__nand2_1
*I *1553:B I *D sky130_fd_sc_hd__nand2_1
*I *1959:Q O *D sky130_fd_sc_hd__dfrtp_1
*CAP
1 *1703:B 0
2 *1553:B 5.1784e-05
3 *1959:Q 0.000225278
4 *992:16 0.000277062
5 *1553:B *1703:A 6.92163e-05
6 *992:16 *1703:A 6.92705e-05
7 *992:16 *1959:RESET_B 5.04829e-06
8 *992:16 *1132:39 2.6096e-05
9 *185:28 *992:16 0
10 *598:77 *992:16 2.14842e-06
11 *598:86 *992:16 2.92569e-05
12 *630:10 *992:16 2.60765e-05
13 *784:14 *1553:B 0.000169041
14 *784:14 *992:16 2.41483e-05
*RES
1 *1959:Q *992:16 23.2306 
2 *992:16 *1553:B 12.2392 
3 *992:16 *1703:B 9.24915 
*END

*D_NET *993 0.00250882
*CONN
*I *1700:B I *D sky130_fd_sc_hd__nand2_1
*I *1550:B I *D sky130_fd_sc_hd__nand2_1
*I *1960:Q O *D sky130_fd_sc_hd__dfrtp_1
*CAP
1 *1700:B 9.23123e-05
2 *1550:B 0.00100333
3 *1960:Q 0
4 *993:4 0.00109564
5 *1550:B *1960:CLK 5.23947e-05
6 *1551:A1 *1550:B 2.58757e-05
7 *1551:B1 *1550:B 2.77242e-05
8 *1960:D *1550:B 0.000211546
*RES
1 *1960:Q *993:4 9.24915 
2 *993:4 *1550:B 24.8263 
3 *993:4 *1700:B 11.5158 
*END

*D_NET *994 0.00135066
*CONN
*I *1545:B I *D sky130_fd_sc_hd__nand2_1
*I *1697:B I *D sky130_fd_sc_hd__nand2_1
*I *1961:Q O *D sky130_fd_sc_hd__dfrtp_1
*CAP
1 *1545:B 0.000257839
2 *1697:B 0
3 *1961:Q 0.000207872
4 *994:12 0.000465711
5 *1545:B *1697:A 7.17435e-06
6 *994:12 *1961:RESET_B 5.6526e-05
7 *1529:A2 *1545:B 7.61007e-05
8 *1546:A1 *1545:B 1.47688e-05
9 *1546:B1 *1545:B 6.81572e-05
10 *1698:B *1545:B 7.62098e-06
11 *185:237 *994:12 0.000188892
*RES
1 *1961:Q *994:12 23.5748 
2 *994:12 *1697:B 9.24915 
3 *994:12 *1545:B 16.4711 
*END

*D_NET *995 0.000743781
*CONN
*I *1694:B I *D sky130_fd_sc_hd__nand2_1
*I *1542:B I *D sky130_fd_sc_hd__nand2_1
*I *1962:Q O *D sky130_fd_sc_hd__dfrtp_1
*CAP
1 *1694:B 0.000142689
2 *1542:B 2.86212e-05
3 *1962:Q 3.36663e-05
4 *995:8 0.000204977
5 *1694:B *1694:A 4.31703e-05
6 *1694:B *1106:235 0.000175689
7 *995:8 *1106:235 5.41227e-05
8 *1543:B1 *1542:B 6.08467e-05
*RES
1 *1962:Q *995:8 14.7506 
2 *995:8 *1542:B 14.4725 
3 *995:8 *1694:B 18.1049 
*END

*D_NET *996 0.00165756
*CONN
*I *1681:B I *D sky130_fd_sc_hd__nand2_1
*I *1539:B I *D sky130_fd_sc_hd__nand2_1
*I *1963:Q O *D sky130_fd_sc_hd__dfrtp_1
*CAP
1 *1681:B 0
2 *1539:B 0.000207216
3 *1963:Q 0.000173688
4 *996:14 0.000380904
5 *1539:B *1681:A 0.000259225
6 *1539:B *1132:37 0
7 *996:14 *1681:A 4.85806e-05
8 *996:14 *1113:559 5.03545e-06
9 *1508:A *1539:B 0.000317612
10 *1508:A *996:14 6.27782e-05
11 *1539:A *1539:B 9.95922e-06
12 *1540:B1 *1539:B 6.27782e-05
13 *1680:A *996:14 1.45014e-05
14 *1682:B *996:14 0.000101177
15 *1981:D *996:14 0
16 *598:459 *1539:B 1.4106e-05
*RES
1 *1963:Q *996:14 22.3678 
2 *996:14 *1539:B 25.5683 
3 *996:14 *1681:B 9.24915 
*END

*D_NET *997 0.00142222
*CONN
*I *1536:B I *D sky130_fd_sc_hd__nand2_1
*I *1678:B I *D sky130_fd_sc_hd__nand2_1
*I *1964:Q O *D sky130_fd_sc_hd__dfrtp_1
*CAP
1 *1536:B 0.000217712
2 *1678:B 0
3 *1964:Q 0.000282652
4 *997:12 0.000500363
5 *1536:B *1132:37 0.000164023
6 *997:12 *1681:A 5.03545e-06
7 *997:12 *1111:305 5.28849e-05
8 axi_lite_o[18] *1536:B 6.50586e-05
9 *1679:B *1536:B 1.05504e-05
10 *2168:A *1536:B 0.000109779
11 *388:113 *997:12 1.4164e-05
*RES
1 *1964:Q *997:12 23.2989 
2 *997:12 *1678:B 9.24915 
3 *997:12 *1536:B 16.8448 
*END

*D_NET *998 0.0017516
*CONN
*I *1234:B I *D sky130_fd_sc_hd__nand2_1
*I *1533:B I *D sky130_fd_sc_hd__nand2_1
*I *1965:Q O *D sky130_fd_sc_hd__dfrtp_1
*CAP
1 *1234:B 0
2 *1533:B 0.000247201
3 *1965:Q 0.000297136
4 *998:12 0.000544337
5 *1533:B *1234:A 1.64789e-05
6 *998:12 *1934:CLK 0.000137458
7 *1235:A *998:12 0
8 *1534:A1 *1533:B 0.00010072
9 *1617:A2 *1533:B 0.000101056
10 *1934:D *1533:B 1.80887e-05
11 *1934:D *998:12 0.000127179
12 *726:14 *998:12 0
13 *776:16 *998:12 0.00016195
14 *962:14 *998:12 0
*RES
1 *1965:Q *998:12 26.0663 
2 *998:12 *1533:B 15.9044 
3 *998:12 *1234:B 9.24915 
*END

*D_NET *999 0.00169298
*CONN
*I *1747:B I *D sky130_fd_sc_hd__nand2_1
*I *1530:B I *D sky130_fd_sc_hd__nand2_1
*I *1966:Q O *D sky130_fd_sc_hd__dfrtp_1
*CAP
1 *1747:B 0.000302812
2 *1530:B 0.000422636
3 *1966:Q 0
4 *999:4 0.000725448
5 *1530:B *1958:RESET_B 3.30132e-05
6 *1530:B *1106:235 0.00013832
7 *1747:B *1958:RESET_B 4.4855e-05
8 *1748:B *1747:B 2.58985e-05
*RES
1 *1966:Q *999:4 9.24915 
2 *999:4 *1530:B 25.5173 
3 *999:4 *1747:B 23.8535 
*END

*D_NET *1000 0.00104763
*CONN
*I *1744:B I *D sky130_fd_sc_hd__nand2_1
*I *1527:B I *D sky130_fd_sc_hd__nand2_1
*I *1967:Q O *D sky130_fd_sc_hd__dfrtp_1
*CAP
1 *1744:B 0
2 *1527:B 0.000211902
3 *1967:Q 0.000151342
4 *1000:12 0.000363243
5 *1527:B *1972:CLK 0.000100657
6 *1000:12 *1744:A 3.84001e-05
7 *1000:12 *1967:RESET_B 3.18748e-06
8 *1000:12 *1106:235 0
9 *1000:12 *1111:65 2.39566e-05
10 *1528:A1 *1527:B 0.000118166
11 *1528:B1 *1527:B 3.14978e-05
12 *1745:B *1527:B 3.01683e-06
13 *388:165 *1000:12 2.26179e-06
*RES
1 *1967:Q *1000:12 21.635 
2 *1000:12 *1527:B 15.5668 
3 *1000:12 *1744:B 9.24915 
*END

*D_NET *1001 0.00212572
*CONN
*I *1201:B I *D sky130_fd_sc_hd__nand2_1
*I *1524:B I *D sky130_fd_sc_hd__nand2_1
*I *1968:Q O *D sky130_fd_sc_hd__dfrtp_1
*CAP
1 *1201:B 1.46226e-05
2 *1524:B 0.00017849
3 *1968:Q 0.000603433
4 *1001:16 0.000796546
5 *1524:B *1201:A 4.25952e-05
6 *1001:16 *1201:A 5.03013e-06
7 *1001:16 *1106:235 2.48669e-05
8 *1202:B *1201:B 3.13805e-06
9 *1202:B *1001:16 2.84892e-05
10 *1525:B1 *1524:B 2.99287e-05
11 *1540:A2 *1001:16 0.000161243
12 *1968:D *1001:16 5.04829e-06
13 *388:125 *1524:B 1.32618e-05
14 *598:86 *1001:16 0
15 *598:96 *1001:16 0.000106683
16 *598:107 *1524:B 1.46024e-05
17 *598:435 *1001:16 9.77432e-05
*RES
1 *1968:Q *1001:16 32.92 
2 *1001:16 *1524:B 13.8789 
3 *1001:16 *1201:B 9.82786 
*END

*D_NET *1002 0.00084007
*CONN
*I *1718:B I *D sky130_fd_sc_hd__nand2_1
*I *1634:B I *D sky130_fd_sc_hd__nand2_1
*I *1925:Q O *D sky130_fd_sc_hd__dfrtp_1
*CAP
1 *1718:B 0
2 *1634:B 5.74857e-05
3 *1925:Q 0.00017381
4 *1002:12 0.000231295
5 *1525:A2 *1002:12 5.04829e-06
6 *1634:A *1634:B 2.04534e-05
7 *185:141 *1634:B 8.83607e-05
8 *185:154 *1634:B 2.30636e-05
9 *388:125 *1002:12 4.2748e-05
10 *388:131 *1002:12 5.03545e-06
11 *598:109 *1002:12 1.96344e-05
12 *598:115 *1002:12 2.41274e-06
13 *598:360 *1002:12 3.94515e-05
14 *778:22 *1634:B 0.000131271
*RES
1 *1925:Q *1002:12 21.7744 
2 *1002:12 *1634:B 12.408 
3 *1002:12 *1718:B 9.24915 
*END

*D_NET *1003 0.00110039
*CONN
*I *1521:B I *D sky130_fd_sc_hd__nand2_1
*I *1204:B I *D sky130_fd_sc_hd__nand2_1
*I *1969:Q O *D sky130_fd_sc_hd__dfrtp_1
*CAP
1 *1521:B 0.000410564
2 *1204:B 5.37405e-05
3 *1969:Q 0.000464305
4 *1521:B *1113:441 3.27425e-05
5 *598:629 *1521:B 0.000139037
*RES
1 *1969:Q *1204:B 19.8004 
2 *1969:Q *1521:B 34.7664 
*END

*D_NET *1004 0.00275607
*CONN
*I *1195:B I *D sky130_fd_sc_hd__nand2_1
*I *1518:B I *D sky130_fd_sc_hd__nand2_1
*I *1970:Q O *D sky130_fd_sc_hd__dfrtp_1
*CAP
1 *1195:B 0.000152035
2 *1518:B 0.000555268
3 *1970:Q 4.51842e-05
4 *1004:8 0.000752486
5 *1195:B *1234:A 6.08467e-05
6 *1195:B *1939:CLK 3.14099e-05
7 *1195:B *1111:211 0.000377273
8 *1195:B *1111:230 2.95757e-05
9 *1518:B *1939:RESET_B 5.14106e-06
10 *1518:B *1939:CLK 0.000116971
11 *1518:B *1111:230 0.000184332
12 *1004:8 *1234:A 6.08467e-05
13 *1518:A *1518:B 6.62732e-05
14 *1519:B1 *1518:B 1.83992e-05
15 *1607:A2 *1518:B 7.80873e-05
16 *1607:B1 *1518:B 0.000210059
17 *838:58 *1518:B 1.1883e-05
*RES
1 *1970:Q *1004:8 14.4725 
2 *1004:8 *1518:B 35.0009 
3 *1004:8 *1195:B 19.3563 
*END

*D_NET *1005 0.00121469
*CONN
*I *1198:B I *D sky130_fd_sc_hd__nand2_1
*I *1515:B I *D sky130_fd_sc_hd__nand2_1
*I *1971:Q O *D sky130_fd_sc_hd__dfrtp_1
*CAP
1 *1198:B 7.96178e-05
2 *1515:B 0.000383743
3 *1971:Q 0
4 *1005:4 0.000463361
5 *1198:B *2040:CLK 6.27782e-05
6 *1515:B *1110:438 4.63668e-05
7 *1516:A1 *1515:B 0.000113254
8 *1516:B1 *1515:B 6.5568e-05
*RES
1 *1971:Q *1005:4 9.24915 
2 *1005:4 *1515:B 25.2708 
3 *1005:4 *1198:B 11.5158 
*END

*D_NET *1006 0.00106884
*CONN
*I *1189:B I *D sky130_fd_sc_hd__nand2_1
*I *1512:B I *D sky130_fd_sc_hd__nand2_1
*I *1972:Q O *D sky130_fd_sc_hd__dfrtp_1
*CAP
1 *1189:B 3.53607e-05
2 *1512:B 0.00030239
3 *1972:Q 0
4 *1006:4 0.000337751
5 *1189:B *1189:A 4.42738e-05
6 *1512:B *1189:A 0.000259321
7 *1972:D *1512:B 3.37843e-05
8 *598:12 *1512:B 4.94e-06
9 *728:20 *1512:B 5.10171e-05
*RES
1 *1972:Q *1006:4 9.24915 
2 *1006:4 *1512:B 28.0116 
3 *1006:4 *1189:B 10.5513 
*END

*D_NET *1007 0.0027643
*CONN
*I *1192:B I *D sky130_fd_sc_hd__nand2_1
*I *1508:B I *D sky130_fd_sc_hd__nand2_1
*I *1973:Q O *D sky130_fd_sc_hd__dfrtp_1
*CAP
1 *1192:B 0.000145746
2 *1508:B 0.000839512
3 *1973:Q 9.68784e-05
4 *1007:6 0.00108214
5 *1192:B *1192:A 0
6 *1192:B *1111:339 0.000211546
7 *1508:B *1681:A 3.26478e-05
8 *1508:B *1973:CLK 0.000203324
9 *1007:6 *1111:339 5.31465e-05
10 *1508:A *1508:B 1.47892e-05
11 *1509:B *1508:B 5.6112e-05
12 *1973:D *1508:B 1.44764e-05
13 *725:18 *1508:B 1.39852e-05
*RES
1 *1973:Q *1007:6 11.0817 
2 *1007:6 *1508:B 23.0178 
3 *1007:6 *1192:B 13.5895 
*END

*D_NET *1008 0.00133022
*CONN
*I *1506:B I *D sky130_fd_sc_hd__nand2_1
*I *1182:A I *D sky130_fd_sc_hd__nand2_1
*I *1974:Q O *D sky130_fd_sc_hd__dfrtp_1
*CAP
1 *1506:B 0
2 *1182:A 0.000230626
3 *1974:Q 0.000188403
4 *1008:12 0.000419029
5 *1182:A *1498:B 1.00766e-05
6 *1182:A *1111:578 8.83997e-05
7 *1182:A *1111:644 2.84892e-05
8 *1008:12 *1943:CLK 0
9 *1008:12 *1974:RESET_B 6.50727e-05
10 *1008:12 *1127:27 0
11 *1183:B1 *1182:A 6.46815e-05
12 *1498:A *1182:A 0.000177828
13 *1498:A *1008:12 9.89388e-06
14 *1507:A *1182:A 3.74935e-05
15 *1598:A1 *1182:A 1.02267e-05
*RES
1 *1974:Q *1008:12 17.4526 
2 *1008:12 *1182:A 21.4807 
3 *1008:12 *1506:B 13.7491 
*END

*D_NET *1009 0.000675732
*CONN
*I *1185:B I *D sky130_fd_sc_hd__nand2_1
*I *1504:B I *D sky130_fd_sc_hd__nand2_1
*I *1975:Q O *D sky130_fd_sc_hd__dfrtp_1
*CAP
1 *1185:B 0.000107432
2 *1504:B 0
3 *1975:Q 0.000160748
4 *1009:12 0.00026818
5 *1185:B *1949:CLK 1.0759e-05
6 *1505:A *1185:B 3.60363e-05
7 *1505:B *1185:B 2.58757e-05
8 *2170:A *1009:12 8.96314e-06
9 *598:599 *1009:12 5.77383e-05
*RES
1 *1975:Q *1009:12 21.635 
2 *1009:12 *1504:B 9.24915 
3 *1009:12 *1185:B 12.2392 
*END

*D_NET *1010 0.000592096
*CONN
*I *1228:B I *D sky130_fd_sc_hd__nand2_1
*I *1502:B I *D sky130_fd_sc_hd__nand2_1
*I *1976:Q O *D sky130_fd_sc_hd__dfrtp_1
*CAP
1 *1228:B 8.43657e-05
2 *1502:B 2.0249e-05
3 *1976:Q 2.86286e-05
4 *1010:6 0.000133243
5 *1228:B axi_lite_o[3] 0.000160047
6 *1010:6 axi_lite_o[3] 6.08467e-05
7 *183:125 *1228:B 8.36586e-06
8 *183:138 *1228:B 4.39919e-05
9 *598:561 *1502:B 5.23577e-05
*RES
1 *1976:Q *1010:6 9.97254 
2 *1010:6 *1502:B 19.2506 
3 *1010:6 *1228:B 21.0832 
*END

*D_NET *1011 0.00277086
*CONN
*I *1500:B I *D sky130_fd_sc_hd__nand2_1
*I *1231:B I *D sky130_fd_sc_hd__nand2_1
*I *1977:Q O *D sky130_fd_sc_hd__dfrtp_1
*CAP
1 *1500:B 0.000190686
2 *1231:B 0
3 *1977:Q 0.000698233
4 *1011:14 0.000888919
5 axi_lite_o[27] *1011:14 0
6 *1232:B1 *1011:14 2.01874e-05
7 *1501:A *1500:B 9.9774e-06
8 *1595:A1 *1500:B 3.01683e-06
9 *1595:A1 *1011:14 0.000378912
10 *1977:D *1500:B 4.63117e-05
11 *184:113 *1011:14 0
12 *417:6 *1011:14 0.000208218
13 *598:578 *1500:B 0.000326398
*RES
1 *1977:Q *1011:14 31.9098 
2 *1011:14 *1231:B 9.24915 
3 *1011:14 *1500:B 15.5668 
*END

*D_NET *1012 0.00192804
*CONN
*I *1498:B I *D sky130_fd_sc_hd__nand2_1
*I *1222:B I *D sky130_fd_sc_hd__nand2_1
*I *1978:Q O *D sky130_fd_sc_hd__dfrtp_1
*CAP
1 *1498:B 0.000562038
2 *1222:B 8.00367e-05
3 *1978:Q 4.45919e-05
4 *1012:8 0.000686667
5 *1222:B *1978:RESET_B 0.000205687
6 *1498:B *1978:RESET_B 5.42751e-05
7 *1498:B *1111:578 2.05513e-06
8 *1498:B *1111:582 6.93171e-05
9 *1182:A *1498:B 1.00766e-05
10 *1498:A *1498:B 5.25767e-05
11 *1499:B *1498:B 1.8606e-05
12 *1598:A2 *1498:B 5.37077e-05
13 *1598:A2 *1012:8 7.26606e-05
14 *2167:A *1498:B 1.57486e-05
*RES
1 *1978:Q *1012:8 15.1659 
2 *1012:8 *1222:B 16.1364 
3 *1012:8 *1498:B 33.1488 
*END

*D_NET *1013 0.00184458
*CONN
*I *1712:B I *D sky130_fd_sc_hd__nand2_1
*I *1632:B I *D sky130_fd_sc_hd__nand2_1
*I *1926:Q O *D sky130_fd_sc_hd__dfrtp_1
*CAP
1 *1712:B 7.02998e-05
2 *1632:B 0.0002508
3 *1926:Q 0.000234246
4 *1013:14 0.000555345
5 *1632:B *1957:RESET_B 1.6989e-05
6 *1013:14 *1934:CLK 9.29777e-05
7 *1559:B *1632:B 2.23108e-05
8 *1559:B *1712:B 5.02592e-05
9 *1632:A *1632:B 7.86825e-06
10 *1713:B *1712:B 1.83992e-05
11 *1957:D *1632:B 0
12 *185:278 *1632:B 6.31272e-05
13 *388:30 *1712:B 4.76161e-06
14 *598:266 *1013:14 0.000206696
15 *618:10 *1632:B 0.00012816
16 *618:10 *1712:B 0.000122337
*RES
1 *1926:Q *1013:14 23.0471 
2 *1013:14 *1632:B 25.2386 
3 *1013:14 *1712:B 12.7697 
*END

*D_NET *1014 0.00158067
*CONN
*I *1496:B I *D sky130_fd_sc_hd__nand2_1
*I *1225:B I *D sky130_fd_sc_hd__nand2_1
*I *1979:Q O *D sky130_fd_sc_hd__dfrtp_1
*CAP
1 *1496:B 0.000277574
2 *1225:B 0.000154795
3 *1979:Q 8.96225e-05
4 *1014:8 0.000521991
5 *1225:B *1912:CLK 3.64415e-05
6 *1225:B *1950:CLK 2.69064e-05
7 *1225:B *1111:400 5.04829e-06
8 *1014:8 *1950:CLK 7.58217e-06
9 *1496:A *1496:B 2.42295e-05
10 *1497:B *1496:B 6.64392e-05
11 *1593:A2 *1225:B 0.00011818
12 *1950:D *1496:B 5.04829e-06
13 *1950:D *1014:8 0.000125876
14 *2169:A *1225:B 4.0752e-05
15 *183:52 *1225:B 1.44611e-05
16 *183:67 *1225:B 4.52469e-05
17 *183:67 *1014:8 2.04806e-05
*RES
1 *1979:Q *1014:8 16.8269 
2 *1014:8 *1225:B 18.7989 
3 *1014:8 *1496:B 20.2115 
*END

*D_NET *1015 0.000343848
*CONN
*I *1216:B I *D sky130_fd_sc_hd__nand2_1
*I *1494:B I *D sky130_fd_sc_hd__nand2_1
*I *1980:Q O *D sky130_fd_sc_hd__dfrtp_1
*CAP
1 *1216:B 5.13864e-05
2 *1494:B 2.28254e-05
3 *1980:Q 0
4 *1015:4 7.42118e-05
5 *1216:B *1216:A 1.59756e-05
6 *1216:B *1111:273 9.44106e-05
7 *1494:A *1216:B 4.04393e-05
8 *1494:A *1494:B 3.01683e-06
9 *1495:B *1216:B 1.00846e-05
10 *1495:B *1494:B 3.14978e-05
*RES
1 *1980:Q *1015:4 9.24915 
2 *1015:4 *1494:B 10.5513 
3 *1015:4 *1216:B 12.2151 
*END

*D_NET *1016 0.00402417
*CONN
*I *1492:B I *D sky130_fd_sc_hd__nand2_1
*I *1219:B I *D sky130_fd_sc_hd__nand2_1
*I *1981:Q O *D sky130_fd_sc_hd__dfrtp_1
*CAP
1 *1492:B 0.000812249
2 *1219:B 0.00025009
3 *1981:Q 0.00070328
4 *1016:8 0.00176562
5 *1219:B *1979:RESET_B 2.21564e-05
6 *1492:B *2515:A 0
7 *1492:B *1113:487 0
8 *1016:8 *1979:RESET_B 3.54565e-05
9 *1016:8 *1113:615 0
10 *1016:8 *1113:617 0
11 *1016:8 *1132:10 0.000288523
12 *1016:8 *1132:27 0.000130426
13 *1982:D *1016:8 0
14 *725:18 *1016:8 1.63652e-05
*RES
1 *1981:Q *1016:8 31.776 
2 *1016:8 *1219:B 19.7715 
3 *1016:8 *1492:B 34.4541 
*END

*D_NET *1017 0.000871686
*CONN
*I *1210:B I *D sky130_fd_sc_hd__nand2_1
*I *1490:B I *D sky130_fd_sc_hd__nand2_1
*I *1982:Q O *D sky130_fd_sc_hd__dfrtp_1
*CAP
1 *1210:B 9.11864e-05
2 *1490:B 0
3 *1982:Q 0.00013744
4 *1017:12 0.000228626
5 *1210:B *1111:360 1.64789e-05
6 *1017:12 *1948:CLK 6.42979e-06
7 *1017:12 *1951:RESET_B 4.89392e-05
8 *1017:12 *1132:88 3.65807e-05
9 *1490:A *1210:B 2.98906e-05
10 *1491:B *1210:B 2.65831e-05
11 *1600:A *1017:12 4.89251e-05
12 *183:95 *1017:12 5.04829e-06
13 *598:535 *1017:12 0.00014142
14 *598:548 *1017:12 5.41377e-05
*RES
1 *1982:Q *1017:12 23.0201 
2 *1017:12 *1490:B 9.24915 
3 *1017:12 *1210:B 12.2392 
*END

*D_NET *1018 0.000827262
*CONN
*I *1213:B I *D sky130_fd_sc_hd__nand2_1
*I *1488:B I *D sky130_fd_sc_hd__nand2_1
*I *1983:Q O *D sky130_fd_sc_hd__dfrtp_1
*CAP
1 *1213:B 0.000120891
2 *1488:B 8.01758e-05
3 *1983:Q 7.69833e-05
4 *1018:10 0.00027805
5 *1213:B *1214:A1 4.31603e-06
6 *1018:10 *1942:CLK 4.08704e-05
7 *1488:A *1213:B 0.000113197
8 *1488:A *1488:B 3.50319e-05
9 *1503:A *1488:B 3.41459e-05
10 *1503:B *1488:B 2.74378e-05
11 *1952:D *1213:B 1.61631e-05
12 *597:99 *1018:10 0
*RES
1 *1983:Q *1018:10 20.0811 
2 *1018:10 *1488:B 11.6605 
3 *1018:10 *1213:B 12.7697 
*END

*D_NET *1019 0.000870729
*CONN
*I *1905:B I *D sky130_fd_sc_hd__nand2_1
*I *1849:B I *D sky130_fd_sc_hd__nand2_1
*I *1911:Q O *D sky130_fd_sc_hd__dfrtp_1
*CAP
1 *1905:B 6.89686e-05
2 *1849:B 0
3 *1911:Q 0.000158362
4 *1019:12 0.000227331
5 *1905:B *1111:434 1.63255e-05
6 *1019:12 *1911:RESET_B 6.27782e-05
7 *1019:12 *1113:904 2.15745e-05
8 *1849:A *1905:B 7.75738e-05
9 *1852:B *1905:B 0.000208627
10 *183:39 *1905:B 2.91871e-05
*RES
1 *1911:Q *1019:12 21.2198 
2 *1019:12 *1849:B 9.24915 
3 *1019:12 *1905:B 12.7938 
*END

*D_NET *1020 0.00075515
*CONN
*I *1705:B I *D sky130_fd_sc_hd__nand2_1
*I *1630:B I *D sky130_fd_sc_hd__nand2_1
*I *1927:Q O *D sky130_fd_sc_hd__dfrtp_1
*CAP
1 *1705:B 1.08844e-05
2 *1630:B 8.39432e-05
3 *1927:Q 0.000126597
4 *1020:12 0.000221424
5 *1020:12 *1127:71 0.000101148
6 *1630:A *1630:B 2.54755e-05
7 *1630:A *1705:B 1.09551e-05
8 *1631:B1 *1630:B 6.69353e-05
9 *1705:A *1020:12 6.50727e-05
10 *388:75 *1020:12 4.27148e-05
*RES
1 *1927:Q *1020:12 21.9137 
2 *1020:12 *1630:B 12.0101 
3 *1020:12 *1705:B 9.82786 
*END

*D_NET *1021 0.00162932
*CONN
*I *1702:B I *D sky130_fd_sc_hd__nand2_1
*I *1628:B I *D sky130_fd_sc_hd__nand2_1
*I *1928:Q O *D sky130_fd_sc_hd__dfrtp_1
*CAP
1 *1702:B 0.000220522
2 *1628:B 0.000256339
3 *1928:Q 0
4 *1021:4 0.000476861
5 *1628:B *1928:RESET_B 0.000143032
6 *1628:B *1113:255 6.52573e-05
7 *1702:B *1106:235 0
8 *1702:B *1111:65 0.000196193
9 *1702:B *1113:255 1.97642e-05
10 *1613:B1 *1702:B 4.89392e-05
11 *1928:D *1628:B 2.1588e-05
12 *185:65 *1628:B 2.1091e-05
13 *185:65 *1702:B 3.61531e-05
14 *598:64 *1628:B 5.62569e-05
15 *598:77 *1702:B 6.73186e-05
*RES
1 *1928:Q *1021:4 9.24915 
2 *1021:4 *1628:B 25.9786 
3 *1021:4 *1702:B 25.4074 
*END

*D_NET *1022 0.00236341
*CONN
*I *1699:B I *D sky130_fd_sc_hd__nand2_1
*I *1626:B I *D sky130_fd_sc_hd__nand2_1
*I *1929:Q O *D sky130_fd_sc_hd__dfrtp_1
*CAP
1 *1699:B 0
2 *1626:B 0.00025167
3 *1929:Q 0.000359262
4 *1022:12 0.000610932
5 *1022:12 *1929:RESET_B 0.000167404
6 *1022:12 *1111:299 0.000120544
7 axi_lite_o[4] *1626:B 1.50924e-05
8 *1626:A *1626:B 0.000138219
9 *1627:B1 *1626:B 0.000183815
10 *1929:D *1626:B 2.80783e-05
11 *388:81 *1022:12 4.49059e-05
12 *388:83 *1022:12 3.5534e-06
13 *727:20 *1022:12 8.32952e-06
14 *785:8 *1626:B 0.000431603
*RES
1 *1929:Q *1022:12 25.102 
2 *1022:12 *1626:B 20.7753 
3 *1022:12 *1699:B 9.24915 
*END

*D_NET *1023 0.000607748
*CONN
*I *1624:B I *D sky130_fd_sc_hd__nand2_1
*I *1696:B I *D sky130_fd_sc_hd__nand2_1
*I *1930:Q O *D sky130_fd_sc_hd__dfrtp_1
*CAP
1 *1624:B 0.000119614
2 *1696:B 0
3 *1930:Q 4.99148e-05
4 *1023:10 0.000169529
5 *1625:B1 *1624:B 2.65667e-05
6 *1696:A *1624:B 3.01683e-06
7 *185:228 *1023:10 0.000156823
8 *185:237 *1023:10 1.07248e-05
9 *969:8 *1023:10 7.15593e-05
*RES
1 *1930:Q *1023:10 20.9116 
2 *1023:10 *1696:B 9.24915 
3 *1023:10 *1624:B 12.2392 
*END

*D_NET *1024 0.00017717
*CONN
*I *2493:A I *D sky130_fd_sc_hd__buf_4
*I *2053:Q O *D sky130_fd_sc_hd__dfrtp_1
*CAP
1 *2493:A 5.62442e-05
2 *2053:Q 5.62442e-05
3 *2493:A *1111:10 6.46815e-05
*RES
1 *2053:Q *2493:A 20.2103 
*END

*D_NET *1025 0.0020246
*CONN
*I *1481:A I *D sky130_fd_sc_hd__xor2_1
*I *1854:B I *D sky130_fd_sc_hd__nand2_1
*I *1206:A I *D sky130_fd_sc_hd__inv_1
*I *1237:B1 I *D sky130_fd_sc_hd__o22ai_1
*I *2054:Q O *D sky130_fd_sc_hd__dfrtp_1
*CAP
1 *1481:A 3.98622e-05
2 *1854:B 0
3 *1206:A 1.45701e-05
4 *1237:B1 9.3404e-05
5 *2054:Q 0.000350518
6 *1025:22 0.000359882
7 *1025:16 0.000395946
8 *1025:10 0.000534418
9 *1481:B *1481:A 6.27718e-05
10 *1481:B *1025:10 5.46384e-06
11 *1481:B *1025:16 1.35317e-05
12 *1643:A1 *1206:A 9.55569e-06
13 *1643:B1 *1025:22 0
14 *1854:A *1025:16 3.30578e-05
15 *1855:B *1025:22 0
16 *1856:A *1237:B1 0
17 *208:10 *1237:B1 6.66393e-05
18 *208:10 *1025:22 2.19131e-05
19 *592:21 *1481:A 2.30636e-05
*RES
1 *2054:Q *1025:10 19.3535 
2 *1025:10 *1025:16 8.30115 
3 *1025:16 *1025:22 10.7955 
4 *1025:22 *1237:B1 16.4116 
5 *1025:22 *1206:A 14.0686 
6 *1025:16 *1854:B 9.24915 
7 *1025:10 *1481:A 15.0271 
*END

*D_NET *1026 0.00543774
*CONN
*I *1207:A I *D sky130_fd_sc_hd__clkinv_1
*I *1643:A2 I *D sky130_fd_sc_hd__a21oi_1
*I *2055:Q O *D sky130_fd_sc_hd__dfrtp_1
*CAP
1 *1207:A 8.13179e-05
2 *1643:A2 0.000496438
3 *2055:Q 0.00122606
4 *1026:20 0.00180381
5 *1643:A2 *1029:25 4.19665e-06
6 *1026:20 *1237:A1 0.000137973
7 *1026:20 *2055:RESET_B 0.000132739
8 *1026:20 *1028:10 0.000246023
9 *1026:20 *1135:39 0.000444929
10 *1646:A *1643:A2 6.13051e-05
11 *2051:D *1643:A2 0
12 *2105:D *1026:20 0.000339046
13 *208:10 *1643:A2 0.00043316
14 *402:10 *1207:A 4.76635e-06
15 *422:10 *1643:A2 0
16 *748:10 *1643:A2 2.5971e-05
*RES
1 *2055:Q *1026:20 49.319 
2 *1026:20 *1643:A2 29.9457 
3 *1026:20 *1207:A 10.5271 
*END

*D_NET *1027 0.00191394
*CONN
*I *1482:A I *D sky130_fd_sc_hd__inv_1
*I *1858:A I *D sky130_fd_sc_hd__nor2_1
*I *1587:A I *D sky130_fd_sc_hd__nor2_4
*I *2056:Q O *D sky130_fd_sc_hd__dfrtp_1
*CAP
1 *1482:A 0.000104594
2 *1858:A 6.78668e-05
3 *1587:A 0.000515239
4 *2056:Q 0.000451907
5 *1027:26 0.000235792
6 *1587:A *2056:RESET_B 0.000150455
7 *1587:A *2056:CLK 5.45547e-05
8 *1483:A *1858:A 4.72592e-05
9 *1483:A *1027:26 3.01683e-06
10 *1484:A *1482:A 0.000101133
11 *1484:A *1587:A 0
12 *1484:B *1587:A 0.000104733
13 *1588:B *1587:A 0
14 *1913:D *1482:A 0
15 *592:38 *1482:A 0
16 *595:8 *1858:A 5.04829e-06
17 *595:8 *1027:26 4.31703e-05
18 *596:21 *1587:A 2.91752e-05
*RES
1 *2056:Q *1587:A 37.5338 
2 *1587:A *1027:26 11.1059 
3 *1027:26 *1858:A 11.1059 
4 *1027:26 *1482:A 21.2311 
*END

*D_NET *1028 0.003126
*CONN
*I *1237:A1 I *D sky130_fd_sc_hd__o22ai_1
*I *1642:A I *D sky130_fd_sc_hd__clkinv_1
*I *2050:Q O *D sky130_fd_sc_hd__dfrtp_1
*CAP
1 *1237:A1 0.000387691
2 *1642:A 0
3 *2050:Q 0.00068632
4 *1028:10 0.00107401
5 *1237:A1 *1029:12 3.25751e-05
6 *1028:10 *2050:RESET_B 1.44611e-05
7 *1028:10 *2055:RESET_B 0.000164189
8 *1028:10 *1135:39 5.04054e-06
9 axi_lite_o[35] *1028:10 0
10 *1237:B2 *1237:A1 6.50586e-05
11 *1646:A *1237:A1 7.22413e-05
12 *1856:A *1237:A1 2.01482e-05
13 *2050:D *1237:A1 1.71187e-05
14 *2050:D *1028:10 0.000103401
15 *2105:D *1028:10 1.41761e-05
16 *207:22 *1237:A1 6.00269e-05
17 *208:10 *1237:A1 0
18 *402:10 *1237:A1 2.55493e-05
19 *720:14 *1237:A1 0
20 *1026:20 *1237:A1 0.000137973
21 *1026:20 *1028:10 0.000246023
*RES
1 *2050:Q *1028:10 28.7733 
2 *1028:10 *1642:A 13.7491 
3 *1028:10 *1237:A1 25.7576 
*END

*D_NET *1029 0.00319289
*CONN
*I *1237:A2 I *D sky130_fd_sc_hd__o22ai_1
*I *1843:A1 I *D sky130_fd_sc_hd__a21oi_1
*I *1645:C I *D sky130_fd_sc_hd__nand3_1
*I *1842:A1 I *D sky130_fd_sc_hd__o21ai_0
*I *1646:B I *D sky130_fd_sc_hd__nand2_4
*I *2051:Q O *D sky130_fd_sc_hd__dfrtp_1
*CAP
1 *1237:A2 0.000151498
2 *1843:A1 0.000173879
3 *1645:C 0
4 *1842:A1 6.52172e-05
5 *1646:B 6.82821e-05
6 *2051:Q 0
7 *1029:33 0.000209104
8 *1029:25 0.00040881
9 *1029:12 0.000330734
10 *1029:4 0.000322907
11 *1842:A1 *1135:62 7.48663e-05
12 *1029:33 *1135:62 1.7754e-05
13 *1237:A1 *1029:12 3.25751e-05
14 *1237:B2 *1237:A2 2.65831e-05
15 *1643:A2 *1029:25 4.19665e-06
16 *1645:B *1029:33 7.01935e-06
17 *1646:A *1029:12 0.000109427
18 *1649:B *1029:33 0.000164842
19 *1650:A2 *1029:33 1.22289e-05
20 *1650:A3 *1843:A1 9.95542e-06
21 *1650:B1 *1843:A1 0.00021377
22 *1842:B1 *1842:A1 3.32158e-05
23 *1842:B1 *1029:33 2.53191e-05
24 *1843:B1 *1842:A1 4.66118e-05
25 *2051:D *1029:25 0
26 *208:10 *1029:12 0.000127194
27 *210:6 *1029:33 4.76794e-05
28 *422:10 *1237:A2 4.49568e-05
29 *748:10 *1646:B 6.27718e-05
30 *748:10 *1029:12 4.66492e-05
31 *748:10 *1029:25 0.0001195
32 *748:10 *1029:33 0.000235343
*RES
1 *2051:Q *1029:4 9.24915 
2 *1029:4 *1029:12 14.1891 
3 *1029:12 *1646:B 11.1059 
4 *1029:12 *1029:25 7.1625 
5 *1029:25 *1029:33 10.6802 
6 *1029:33 *1842:A1 12.3839 
7 *1029:33 *1645:C 9.24915 
8 *1029:25 *1843:A1 16.691 
9 *1029:4 *1237:A2 11.6364 
*END

*D_NET *1030 0.00316309
*CONN
*I *1844:B I *D sky130_fd_sc_hd__nand2_1
*I *1656:A I *D sky130_fd_sc_hd__nor2_2
*I *1651:A I *D sky130_fd_sc_hd__inv_1
*I *2052:Q O *D sky130_fd_sc_hd__dfrtp_1
*CAP
1 *1844:B 0.000313095
2 *1656:A 0.000136825
3 *1651:A 1.39612e-05
4 *2052:Q 0.00030678
5 *1030:23 0.000604109
6 *1030:12 0.000474929
7 *1652:A *1651:A 6.54015e-05
8 *1652:A *1656:A 1.41976e-05
9 *1652:A *1030:23 0.000296566
10 *1656:B *1656:A 2.1249e-05
11 *1844:A *1844:B 0.000101415
12 *1845:B *1844:B 2.95835e-05
13 *186:10 *1030:12 0
14 *211:17 *1030:12 0
15 *211:21 *1651:A 0.000106698
16 *211:21 *1030:12 9.62212e-05
17 *213:10 *1030:12 7.72722e-05
18 *216:14 *1656:A 0.000168621
19 *751:12 *1844:B 0
20 *789:26 *1030:12 0.00033617
*RES
1 *2052:Q *1030:12 27.5191 
2 *1030:12 *1651:A 10.4307 
3 *1030:12 *1030:23 4.69605 
4 *1030:23 *1656:A 13.1796 
5 *1030:23 *1844:B 25.8173 
*END

*D_NET *1031 0.00142992
*CONN
*I *1275:A I *D sky130_fd_sc_hd__inv_1
*I *2007:Q O *D sky130_fd_sc_hd__dfrtp_1
*CAP
1 *1275:A 0.000448935
2 *2007:Q 0.000448935
3 *1275:A *2007:RESET_B 4.13646e-05
4 *1275:A *2033:RESET_B 0
5 *1275:A *1108:47 0.000150019
6 *1275:A *1108:51 0.000117376
7 *1275:A *1109:78 0
8 *1276:B *1275:A 0.00019787
9 *1418:A1 *1275:A 2.54181e-05
10 *461:10 *1275:A 0
*RES
1 *2007:Q *1275:A 39.2157 
*END

*D_NET *1032 0.000742904
*CONN
*I *1344:A I *D sky130_fd_sc_hd__inv_1
*I *1993:Q O *D sky130_fd_sc_hd__dfrtp_1
*CAP
1 *1344:A 0.000139459
2 *1993:Q 0.000139459
3 *1344:A *1109:151 0.00013832
4 *1344:A *1109:442 1.43698e-05
5 *1487:A *1344:A 0.000122896
6 *2016:D *1344:A 0.000139684
7 *674:18 *1344:A 4.87161e-05
*RES
1 *1993:Q *1344:A 32.3129 
*END

*D_NET *1033 0.000127835
*CONN
*I *1452:A I *D sky130_fd_sc_hd__inv_1
*I *1994:Q O *D sky130_fd_sc_hd__dfrtp_1
*CAP
1 *1452:A 4.36986e-05
2 *1994:Q 4.36986e-05
3 *1452:A *1994:CLK 4.04381e-05
*RES
1 *1994:Q *1452:A 20.0114 
*END

*D_NET *1034 0.000786565
*CONN
*I *1327:A I *D sky130_fd_sc_hd__inv_1
*I *1995:Q O *D sky130_fd_sc_hd__dfrtp_1
*CAP
1 *1327:A 0.000338686
2 *1995:Q 0.000338686
3 *1451:A1 *1327:A 3.20544e-05
4 *1995:RESET_B *1327:A 2.26894e-05
5 *690:14 *1327:A 5.44485e-05
*RES
1 *1995:Q *1327:A 33.4824 
*END

*D_NET *1035 0.00116209
*CONN
*I *1322:A I *D sky130_fd_sc_hd__inv_1
*I *1996:Q O *D sky130_fd_sc_hd__dfrtp_1
*CAP
1 *1322:A 0.000313018
2 *1996:Q 0.000313018
3 *1322:A *1109:350 0.000243096
4 *1322:A *1109:356 8.6781e-05
5 *1322:A *1119:12 8.36586e-06
6 *1322:A *1119:14 0.000139817
7 *1996:RESET_B *1322:A 2.97853e-05
8 *500:14 *1322:A 2.82123e-05
*RES
1 *1996:Q *1322:A 35.737 
*END

*D_NET *1036 0.000763727
*CONN
*I *1317:A I *D sky130_fd_sc_hd__inv_1
*I *1997:Q O *D sky130_fd_sc_hd__dfrtp_1
*CAP
1 *1317:A 0.000219538
2 *1997:Q 0.000219538
3 *1317:A *1997:CLK 2.85139e-05
4 *1317:A *1109:151 2.61857e-05
5 *1317:A *1109:159 0.000194941
6 *1319:A1 *1317:A 0
7 *1319:B1 *1317:A 0
8 *1453:B *1317:A 8.62625e-06
9 *436:216 *1317:A 0
10 *496:8 *1317:A 6.63843e-05
*RES
1 *1997:Q *1317:A 33.1033 
*END

*D_NET *1037 0.0016063
*CONN
*I *1443:A I *D sky130_fd_sc_hd__inv_1
*I *1998:Q O *D sky130_fd_sc_hd__dfrtp_1
*CAP
1 *1443:A 0.00059917
2 *1998:Q 0.00059917
3 *1443:A *1391:A0 5.17104e-05
4 *1443:A *1890:A2 7.41912e-05
5 *1443:A *1066:10 7.78562e-06
6 *1443:A *1067:12 0.000157379
7 *1443:A *1174:16 0
8 *1446:B *1443:A 9.05509e-05
9 *1889:B *1443:A 6.88088e-06
10 *1998:D *1443:A 0
11 *571:6 *1443:A 1.94663e-05
*RES
1 *1998:Q *1443:A 41.7497 
*END

*D_NET *1038 0.000866877
*CONN
*I *1440:B I *D sky130_fd_sc_hd__nand2_1
*I *1314:B I *D sky130_fd_sc_hd__nand2_1
*I *1999:Q O *D sky130_fd_sc_hd__dfrtp_1
*CAP
1 *1440:B 8.42428e-05
2 *1314:B 0
3 *1999:Q 0.000158037
4 *1038:12 0.00024228
5 *1440:B *1109:422 0.000209636
6 *1038:12 *1991:CLK 5.00379e-05
7 *1038:12 *1120:22 6.27782e-05
8 *1314:A *1038:12 1.03594e-05
9 *1440:A *1440:B 2.36292e-05
10 *1442:A *1440:B 2.58757e-05
*RES
1 *1999:Q *1038:12 21.635 
2 *1038:12 *1314:B 9.24915 
3 *1038:12 *1440:B 12.7938 
*END

*D_NET *1039 0.00138175
*CONN
*I *1310:B I *D sky130_fd_sc_hd__nand2_1
*I *1437:B I *D sky130_fd_sc_hd__nand2_1
*I *2000:Q O *D sky130_fd_sc_hd__dfrtp_1
*CAP
1 *1310:B 6.17368e-05
2 *1437:B 0.000395901
3 *2000:Q 0
4 *1039:4 0.000457638
5 *1310:B *2000:RESET_B 4.78409e-05
6 *1437:B *2000:RESET_B 5.52256e-05
7 *1437:B *1112:282 0.000116652
8 *1312:A3 *1310:B 9.29777e-05
9 *436:71 *1310:B 1.22289e-05
10 *506:16 *1437:B 9.86489e-05
11 *548:12 *1437:B 2.91598e-05
12 *548:22 *1437:B 1.37421e-05
*RES
1 *2000:Q *1039:4 9.24915 
2 *1039:4 *1437:B 25.6566 
3 *1039:4 *1310:B 20.4964 
*END

*D_NET *1040 0.00412991
*CONN
*I *1434:B I *D sky130_fd_sc_hd__nand2_1
*I *1306:B I *D sky130_fd_sc_hd__nand2_1
*I *2001:Q O *D sky130_fd_sc_hd__dfrtp_1
*CAP
1 *1434:B 0.000516331
2 *1306:B 0.000509388
3 *2001:Q 0.000136723
4 *1040:12 0.00116244
5 *1306:B *2080:CLK 2.16355e-05
6 *1306:B *1107:40 0.000191451
7 *1306:B *1107:49 1.87125e-05
8 *1306:B *1107:53 0.000408047
9 *1434:B *2076:CLK 4.45999e-05
10 *1434:B *1110:68 1.02356e-05
11 *1040:12 *1107:53 0.000138334
12 *1040:12 *1107:64 1.15085e-05
13 *1040:12 *1107:77 1.93511e-06
14 *1306:A *1306:B 4.65954e-06
15 *1308:A3 *1306:B 6.50727e-05
16 *1321:A2 *1040:12 0.000110458
17 *1321:B1 *1040:12 6.09246e-05
18 *1436:A *1434:B 1.84443e-05
19 *1436:B *1434:B 7.62098e-06
20 *1886:A *1306:B 4.45999e-05
21 *2076:D *1306:B 5.37077e-05
22 *2076:D *1434:B 2.16355e-05
23 *2076:D *1040:12 6.4309e-05
24 *2080:D *1306:B 0.000134336
25 *340:10 *1040:12 1.00901e-05
26 *436:94 *1306:B 0.000259452
27 *436:94 *1040:12 3.89804e-05
28 *436:98 *1306:B 2.77625e-06
29 *436:120 *1306:B 8.23171e-06
30 *548:32 *1434:B 3.91432e-05
31 *548:40 *1434:B 1.41307e-05
*RES
1 *2001:Q *1040:12 19.0935 
2 *1040:12 *1306:B 32.8463 
3 *1040:12 *1434:B 21.9717 
*END

*D_NET *1041 0.00102672
*CONN
*I *1431:B I *D sky130_fd_sc_hd__nand2_1
*I *1894:B I *D sky130_fd_sc_hd__nand2_1
*I *2002:Q O *D sky130_fd_sc_hd__dfrtp_1
*CAP
1 *1431:B 0.000220866
2 *1894:B 0
3 *2002:Q 5.59659e-05
4 *1041:10 0.000276832
5 *1431:B *2003:CLK 5.04829e-06
6 *1431:A *1431:B 0.000114584
7 *1433:A *1431:B 2.99287e-05
8 *374:16 *1041:10 6.08467e-05
9 *436:88 *1431:B 3.25677e-05
10 *436:90 *1431:B 2.09356e-05
11 *436:94 *1431:B 5.03545e-06
12 *436:94 *1041:10 2.10465e-05
13 *548:32 *1431:B 0.000130702
14 *548:32 *1041:10 5.23577e-05
*RES
1 *2002:Q *1041:10 15.474 
2 *1041:10 *1894:B 13.7491 
3 *1041:10 *1431:B 19.9322 
*END

*D_NET *1042 0.00107828
*CONN
*I *1283:A2 I *D sky130_fd_sc_hd__a31oi_1
*I *1414:B I *D sky130_fd_sc_hd__nand2_1
*I *2008:Q O *D sky130_fd_sc_hd__dfrtp_1
*CAP
1 *1283:A2 0.000138457
2 *1414:B 5.53647e-05
3 *2008:Q 0.000136917
4 *1042:10 0.000330739
5 *1283:A2 *2008:RESET_B 3.68055e-05
6 *1283:A2 *1108:19 7.86847e-05
7 *1283:A2 *1108:32 8.61654e-05
8 *1042:10 *2008:RESET_B 3.90891e-05
9 *1042:10 *2008:CLK 1.43698e-05
10 *1042:10 *1108:19 0.000127179
11 *1042:10 *1109:16 3.01368e-06
12 *1413:A *1414:B 3.14978e-05
*RES
1 *2008:Q *1042:10 17.2744 
2 *1042:10 *1414:B 15.2053 
3 *1042:10 *1283:A2 17.8155 
*END

*D_NET *1043 0.00189751
*CONN
*I *1341:B I *D sky130_fd_sc_hd__nand2_1
*I *1428:B I *D sky130_fd_sc_hd__nand2_1
*I *2003:Q O *D sky130_fd_sc_hd__dfrtp_1
*CAP
1 *1341:B 7.17189e-05
2 *1428:B 0.000235102
3 *2003:Q 0.000256767
4 *1043:10 0.000563588
5 *1341:B *1107:171 3.58457e-05
6 *1341:B *1107:234 1.32509e-05
7 *1043:10 *1107:171 4.58259e-05
8 *1043:10 *1110:256 0.00016096
9 *1428:A *1428:B 4.87301e-05
10 *1429:B *1428:B 0
11 *1430:A *1428:B 6.3657e-05
12 *436:86 *1341:B 3.31882e-05
13 *436:88 *1341:B 0.000141016
14 *436:88 *1043:10 0.00017419
15 *480:8 *1428:B 5.36705e-05
*RES
1 *2003:Q *1043:10 19.7687 
2 *1043:10 *1428:B 28.3563 
3 *1043:10 *1341:B 16.8269 
*END

*D_NET *1044 0.00155871
*CONN
*I *1337:B I *D sky130_fd_sc_hd__nand2_1
*I *1425:B I *D sky130_fd_sc_hd__nand2_1
*I *2004:Q O *D sky130_fd_sc_hd__dfrtp_1
*CAP
1 *1337:B 0
2 *1425:B 0.000389176
3 *2004:Q 0.000166674
4 *1044:10 0.00055585
5 *1425:B *1112:286 1.03986e-05
6 *1425:B *1112:299 1.77537e-06
7 *1044:10 *1112:299 3.75329e-05
8 *1314:A *1044:10 5.71157e-05
9 *1326:A2 *1425:B 7.56341e-06
10 *1339:A2 *1425:B 0.000271044
11 *1427:A *1425:B 1.84293e-05
12 *1991:RESET_B *1044:10 1.56911e-05
13 *436:249 *1425:B 2.22342e-05
14 *436:249 *1044:10 5.22654e-06
*RES
1 *2004:Q *1044:10 17.6896 
2 *1044:10 *1425:B 20.8995 
3 *1044:10 *1337:B 13.7491 
*END

*D_NET *1045 0.00215784
*CONN
*I *1333:B I *D sky130_fd_sc_hd__nand2_1
*I *1422:B I *D sky130_fd_sc_hd__nand2_1
*I *2005:Q O *D sky130_fd_sc_hd__dfrtp_1
*CAP
1 *1333:B 8.33265e-05
2 *1422:B 0.000319578
3 *2005:Q 0.000167915
4 *1045:10 0.00057082
5 *1333:B *2494:A 0.000247652
6 *1045:10 *2005:RESET_B 3.73595e-05
7 *1045:10 *2494:A 0.000198319
8 *1424:A *1422:B 4.04393e-05
9 *436:126 *1333:B 0.000232516
10 *436:126 *1045:10 0.000194842
11 *442:16 *1333:B 6.50727e-05
*RES
1 *2005:Q *1045:10 19.6294 
2 *1045:10 *1422:B 20.0427 
3 *1045:10 *1333:B 18.7961 
*END

*D_NET *1046 0.00222624
*CONN
*I *1886:B I *D sky130_fd_sc_hd__nand2_1
*I *1419:B I *D sky130_fd_sc_hd__nand2_1
*I *2006:Q O *D sky130_fd_sc_hd__dfrtp_1
*CAP
1 *1886:B 5.91014e-05
2 *1419:B 0.000593648
3 *2006:Q 0
4 *1046:4 0.000652749
5 *1419:B *1387:A0 5.04829e-06
6 *1419:B *2006:RESET_B 0.000122936
7 *1419:B *1104:442 4.89898e-06
8 *1419:B *1112:157 0.000113941
9 *1419:A *1419:B 2.65831e-05
10 *1435:B *1419:B 6.18026e-05
11 *1886:A *1886:B 1.05504e-05
12 *686:22 *1419:B 0.000442818
13 *688:16 *1419:B 5.82426e-05
14 *688:22 *1419:B 7.39195e-05
*RES
1 *2006:Q *1046:4 9.24915 
2 *1046:4 *1419:B 34.152 
3 *1046:4 *1886:B 10.9612 
*END

*D_NET *1047 0.00282046
*CONN
*I *1283:A1 I *D sky130_fd_sc_hd__a31oi_1
*I *1410:B I *D sky130_fd_sc_hd__nand2_1
*I *2009:Q O *D sky130_fd_sc_hd__dfrtp_1
*CAP
1 *1283:A1 0.000201454
2 *1410:B 0.000110652
3 *2009:Q 0.000534347
4 *1047:8 0.000846453
5 *1283:A1 *1108:19 0
6 *1283:A1 *1109:42 0.000216109
7 *1410:B *2010:CLK 1.62073e-05
8 *1047:8 *1104:121 0
9 *1047:8 *1108:19 0
10 *1047:8 *1109:10 0.000279823
11 *1047:8 *1109:42 0.000217121
12 *1283:B1 *1283:A1 4.83908e-05
13 *1408:B *1047:8 2.04806e-05
14 *1410:A *1410:B 6.92705e-05
15 *1414:A *1410:B 3.88949e-05
16 *2486:A *1047:8 8.71199e-05
17 *2491:A *1047:8 0
18 *468:12 *1283:A1 3.24105e-05
19 *538:21 *1047:8 7.58595e-05
20 *548:65 *1283:A1 2.58696e-05
*RES
1 *2009:Q *1047:8 30.115 
2 *1047:8 *1410:B 16.7151 
3 *1047:8 *1283:A1 19.7914 
*END

*D_NET *1048 0.000571065
*CONN
*I *1247:A I *D sky130_fd_sc_hd__inv_1
*I *1984:Q O *D sky130_fd_sc_hd__dfrtp_1
*CAP
1 *1247:A 0.000155329
2 *1984:Q 0.000155329
3 *1247:A *1104:172 1.92656e-05
4 *1247:A *1104:189 3.44412e-06
5 *1247:A *1112:18 3.37311e-05
6 *1247:A *1112:31 7.62471e-05
7 *1248:A2 *1247:A 1.43298e-05
8 *1405:B1 *1247:A 2.48716e-05
9 *1476:A1 *1247:A 2.38352e-05
10 *462:28 *1247:A 6.46815e-05
*RES
1 *1984:Q *1247:A 31.7583 
*END

*D_NET *1049 0.000565829
*CONN
*I *1246:A I *D sky130_fd_sc_hd__inv_1
*I *1985:Q O *D sky130_fd_sc_hd__dfrtp_1
*CAP
1 *1246:A 0.00020954
2 *1985:Q 0.00020954
3 *1246:A *2005:CLK 0
4 *1246:A *1109:497 2.85677e-05
5 *2057:D *1246:A 0
6 *442:16 *1246:A 0.00011818
*RES
1 *1985:Q *1246:A 31.7583 
*END

*D_NET *1050 0.00184356
*CONN
*I *1470:B I *D sky130_fd_sc_hd__nand2_1
*I *1257:A2 I *D sky130_fd_sc_hd__o21ai_1
*I *1986:Q O *D sky130_fd_sc_hd__dfrtp_1
*CAP
1 *1470:B 9.43993e-05
2 *1257:A2 0.000196011
3 *1986:Q 9.10946e-05
4 *1050:8 0.000381505
5 *1257:A2 *1256:B 1.97273e-05
6 *1257:A2 *1288:A 0.000169063
7 *1257:A2 *1112:103 0
8 *1050:8 *1288:A 0.000164245
9 *1256:A *1257:A2 4.70005e-05
10 *1256:A *1470:B 0.000283819
11 *1257:B1 *1257:A2 0.000228593
12 *1472:A *1470:B 6.50727e-05
13 *1990:D *1050:8 0
14 *548:52 *1470:B 2.90438e-05
15 *548:65 *1257:A2 8.92568e-06
16 *548:65 *1470:B 6.50586e-05
17 *691:16 *1050:8 0
*RES
1 *1986:Q *1050:8 16.8269 
2 *1050:8 *1257:A2 20.184 
3 *1050:8 *1470:B 17.9931 
*END

*D_NET *1051 0.00299778
*CONN
*I *1263:B I *D sky130_fd_sc_hd__nand2_1
*I *1860:B I *D sky130_fd_sc_hd__nand2_1
*I *1909:Q O *D sky130_fd_sc_hd__dfrtp_1
*CAP
1 *1263:B 0.000125235
2 *1860:B 3.34309e-05
3 *1909:Q 0.000780652
4 *1051:12 0.000939319
5 *1051:12 *1110:876 0
6 *1051:12 *1110:890 0
7 *1051:12 *1110:904 0
8 *1264:A2 *1263:B 6.81008e-05
9 *1860:A *1263:B 0.00017419
10 *1860:A *1051:12 1.07248e-05
11 *1909:D *1051:12 2.38092e-05
12 *1916:D *1051:12 6.08467e-05
13 *425:14 *1051:12 9.84729e-05
14 *438:12 *1263:B 0.000164829
15 *714:12 *1051:12 0.000518167
*RES
1 *1909:Q *1051:12 32.2707 
2 *1051:12 *1860:B 14.4819 
3 *1051:12 *1263:B 18.6595 
*END

*D_NET *1052 0.00113494
*CONN
*I *1277:A2 I *D sky130_fd_sc_hd__a21oi_1
*I *1281:A I *D sky130_fd_sc_hd__inv_1
*I *2033:Q O *D sky130_fd_sc_hd__dfrtp_1
*CAP
1 *1277:A2 9.50837e-05
2 *1281:A 0.000177278
3 *2033:Q 0.000272362
4 *1277:A2 *2033:RESET_B 6.46815e-05
5 *1277:A2 *1109:48 5.76849e-05
6 *1281:A *2007:RESET_B 0.000276513
7 *1281:A *2033:RESET_B 6.49659e-05
8 *1277:B1 *1277:A2 6.08467e-05
9 *462:16 *1277:A2 6.55265e-05
*RES
1 *2033:Q *1281:A 33.2533 
2 *2033:Q *1277:A2 22.0188 
*END

*D_NET *1053 0.00183408
*CONN
*I *1280:A I *D sky130_fd_sc_hd__inv_1
*I *2034:Q O *D sky130_fd_sc_hd__dfrtp_1
*CAP
1 *1280:A 0.000525875
2 *2034:Q 0.000525875
3 *1280:A *1415:A 9.06263e-05
4 *1280:A *2528:A 2.41274e-06
5 *1280:A *1104:14 0.00015985
6 *1280:A *1104:25 0.000156476
7 *1280:A *1104:40 0.000202415
8 *1379:A1 *1280:A 8.52766e-05
9 *1413:B *1280:A 0
10 *1416:B *1280:A 8.52766e-05
11 *2035:D *1280:A 0
*RES
1 *2034:Q *1280:A 42.4786 
*END

*D_NET *1054 0.0018926
*CONN
*I *1279:A I *D sky130_fd_sc_hd__inv_1
*I *2035:Q O *D sky130_fd_sc_hd__dfrtp_1
*CAP
1 *1279:A 0.000487341
2 *2035:Q 0.000487341
3 *1279:A *2009:CLK 2.99287e-05
4 *1279:A *2035:RESET_B 2.95031e-05
5 *1279:A *2060:RESET_B 4.90673e-05
6 *1279:A *1110:613 9.8332e-05
7 *1282:A *1279:A 0.000138643
8 *1377:A1 *1279:A 2.46912e-05
9 *1868:B *1279:A 0.000122098
10 *2009:D *1279:A 0.000405322
11 *2060:D *1279:A 2.03343e-05
*RES
1 *2035:Q *1279:A 42.7026 
*END

*D_NET *1055 0.00182631
*CONN
*I *1301:B I *D sky130_fd_sc_hd__nand2_1
*I *1401:A0 I *D sky130_fd_sc_hd__mux2_1
*I *2013:Q O *D sky130_fd_sc_hd__dfrtp_1
*CAP
1 *1301:B 5.73024e-05
2 *1401:A0 0.000355992
3 *2013:Q 0.0001178
4 *1055:8 0.000531094
5 *1301:B *2014:CLK 6.0497e-05
6 *1301:B *1118:62 4.45999e-05
7 *1401:A0 *1118:60 1.53265e-05
8 *1055:8 *1118:60 2.15992e-05
9 *671:10 *1401:A0 6.27718e-05
10 *672:24 *1301:B 0.000256643
11 *672:24 *1401:A0 0.000302687
*RES
1 *2013:Q *1055:8 16.4116 
2 *1055:8 *1401:A0 19.9109 
3 *1055:8 *1301:B 16.691 
*END

*D_NET *1056 0.00139589
*CONN
*I *1295:B I *D sky130_fd_sc_hd__nand2_1
*I *1400:A0 I *D sky130_fd_sc_hd__mux2_1
*I *2014:Q O *D sky130_fd_sc_hd__dfrtp_1
*CAP
1 *1295:B 0
2 *1400:A0 7.7313e-05
3 *2014:Q 0.000152501
4 *1056:12 0.000229814
5 *1400:A0 *1385:S 0.00021233
6 *1400:A0 *1104:278 2.15348e-05
7 *1400:A0 *1112:243 0.000574566
8 *1056:12 *1109:322 0
9 *1056:12 *1117:72 0
10 *485:20 *1056:12 6.27718e-05
11 *672:24 *1400:A0 6.50586e-05
*RES
1 *2014:Q *1056:12 21.2198 
2 *1056:12 *1400:A0 15.5186 
3 *1056:12 *1295:B 9.24915 
*END

*D_NET *1057 0.00260216
*CONN
*I *1289:B I *D sky130_fd_sc_hd__nand2_1
*I *1399:A0 I *D sky130_fd_sc_hd__mux2_1
*I *2015:Q O *D sky130_fd_sc_hd__dfrtp_1
*CAP
1 *1289:B 0.000333543
2 *1399:A0 0.000347524
3 *2015:Q 0.00011572
4 *1057:10 0.000796787
5 *1289:B *1110:352 0.000373047
6 *1399:A0 *1109:119 2.28997e-05
7 *1057:10 *1109:108 7.33779e-05
8 *1057:10 *1109:119 4.64787e-05
9 *1057:10 *1110:364 9.58263e-05
10 *1399:A1 *1399:A0 6.92705e-05
11 *2135:A *1399:A0 8.18319e-05
12 *686:16 *1289:B 2.09463e-05
13 *686:16 *1057:10 6.08467e-05
14 *763:33 *1399:A0 0.000164059
*RES
1 *2015:Q *1057:10 16.7809 
2 *1057:10 *1399:A0 20.4432 
3 *1057:10 *1289:B 19.898 
*END

*D_NET *1058 0.00229957
*CONN
*I *1829:B I *D sky130_fd_sc_hd__nand2_1
*I *1398:A0 I *D sky130_fd_sc_hd__mux2_1
*I *2016:Q O *D sky130_fd_sc_hd__dfrtp_1
*CAP
1 *1829:B 5.29014e-05
2 *1398:A0 0.00040588
3 *2016:Q 0.000112469
4 *1058:8 0.00057125
5 *1398:A0 *1461:A 0.000166137
6 *1398:A0 *1104:214 0.000322673
7 *1398:A0 *1104:230 0.000120962
8 *1398:A0 *1104:442 6.22868e-05
9 *1398:A0 *1112:157 0
10 *1829:B *1830:A1 6.27332e-05
11 *1398:A1 *1398:A0 3.14978e-05
12 *1487:A *1829:B 0.000261135
13 *1830:A2 *1398:A0 6.49659e-05
14 *1830:B1 *1829:B 6.46815e-05
*RES
1 *2016:Q *1058:8 15.9964 
2 *1058:8 *1398:A0 26.8336 
3 *1058:8 *1829:B 16.691 
*END

*D_NET *1059 0.00230479
*CONN
*I *1353:B I *D sky130_fd_sc_hd__nand2_1
*I *1397:A0 I *D sky130_fd_sc_hd__mux2_1
*I *2017:Q O *D sky130_fd_sc_hd__dfrtp_1
*CAP
1 *1353:B 0.000284519
2 *1397:A0 0.000320599
3 *2017:Q 0.000134534
4 *1059:10 0.000739652
5 *1353:B *1459:A 4.0752e-05
6 *1397:A0 *1459:A 5.04829e-06
7 *1059:10 *1459:A 7.09395e-05
8 *2025:RESET_B *1397:A0 0.000487686
9 *850:16 *1353:B 6.74141e-05
10 *850:16 *1397:A0 5.51483e-06
11 *850:20 *1059:10 0.000148129
*RES
1 *2017:Q *1059:10 22.1574 
2 *1059:10 *1397:A0 14.964 
3 *1059:10 *1353:B 14.2888 
*END

*D_NET *1060 0.00234855
*CONN
*I *1349:B I *D sky130_fd_sc_hd__nand2_1
*I *1396:A0 I *D sky130_fd_sc_hd__mux2_1
*I *2018:Q O *D sky130_fd_sc_hd__dfrtp_1
*CAP
1 *1349:B 0.000378773
2 *1396:A0 0.000128464
3 *2018:Q 0.00025556
4 *1060:12 0.000762796
5 *1349:B *1457:A 0.000318385
6 *1060:12 *2018:CLK 6.73208e-05
7 *1457:B *1349:B 0.000180511
8 *1457:B *1396:A0 0.000175485
9 *1458:B1 *1349:B 1.19856e-05
10 *2018:RESET_B *1060:12 0
11 *677:12 *1396:A0 6.92705e-05
*RES
1 *2018:Q *1060:12 22.6077 
2 *1060:12 *1396:A0 11.6364 
3 *1060:12 *1349:B 18.7739 
*END

*D_NET *1061 0.00113298
*CONN
*I *1300:A I *D sky130_fd_sc_hd__inv_1
*I *1987:Q O *D sky130_fd_sc_hd__dfrtp_1
*CAP
1 *1300:A 0.000114234
2 *1987:Q 0.000114234
3 *1300:A *1104:278 5.04734e-05
4 *1300:A *1112:243 0.000345027
5 *2014:RESET_B *1300:A 0.000163982
6 *672:24 *1300:A 0.000345027
*RES
1 *1987:Q *1300:A 34.2232 
*END

*D_NET *1062 0.00227517
*CONN
*I *1345:B I *D sky130_fd_sc_hd__nand2_1
*I *1395:A0 I *D sky130_fd_sc_hd__mux2_1
*I *2019:Q O *D sky130_fd_sc_hd__dfrtp_1
*CAP
1 *1345:B 0.000111722
2 *1395:A0 0.000515805
3 *2019:Q 0.000152811
4 *1062:10 0.000780338
5 *1345:B *2496:A 1.9101e-05
6 *1345:B *1104:230 2.61696e-05
7 *1345:B *1109:147 0
8 *1345:B *1110:352 4.25685e-05
9 *1395:A0 *1993:CLK 0.000109861
10 *1395:A0 *1104:270 5.91681e-06
11 *1395:A0 *1109:147 4.25952e-05
12 *1062:10 *2019:RESET_B 6.27782e-05
13 *1062:10 *1104:270 0.00011815
14 *1062:10 *1110:346 8.17858e-05
15 *1062:10 *1110:352 1.72644e-05
16 *1395:A1 *1395:A0 6.46815e-05
17 *1456:A1 *1345:B 6.08467e-05
18 *674:18 *1062:10 6.27782e-05
*RES
1 *2019:Q *1062:10 18.7961 
2 *1062:10 *1395:A0 21.8606 
3 *1062:10 *1345:B 16.7198 
*END

*D_NET *1063 0.00264265
*CONN
*I *1394:A0 I *D sky130_fd_sc_hd__mux2_1
*I *1833:B I *D sky130_fd_sc_hd__nand2_1
*I *2020:Q O *D sky130_fd_sc_hd__dfrtp_1
*CAP
1 *1394:A0 0.000557807
2 *1833:B 7.4819e-05
3 *2020:Q 7.91353e-05
4 *1063:8 0.000711762
5 *1394:A0 *1454:A2 7.16016e-06
6 *1394:A0 *1988:RESET_B 0
7 *1394:A0 *2499:A 7.12632e-06
8 *1394:A0 *1104:270 1.88422e-05
9 *1394:A0 *1109:263 1.31206e-05
10 *1833:B *2020:RESET_B 0.000260577
11 *1833:B *2020:CLK 0.000507515
12 *1063:8 *1110:226 0
13 *1394:A1 *1394:A0 4.85806e-05
14 *1454:A1 *1394:A0 0.000228921
15 *1454:B1 *1394:A0 0
16 *436:196 *1833:B 0.000113082
17 *679:10 *1394:A0 1.41976e-05
*RES
1 *2020:Q *1063:8 15.1659 
2 *1063:8 *1833:B 19.464 
3 *1063:8 *1394:A0 27.1821 
*END

*D_NET *1064 0.00347131
*CONN
*I *1329:A2 I *D sky130_fd_sc_hd__o21ai_0
*I *1393:A0 I *D sky130_fd_sc_hd__mux2_1
*I *2021:Q O *D sky130_fd_sc_hd__dfrtp_1
*CAP
1 *1329:A2 0.000730468
2 *1393:A0 0.00049072
3 *2021:Q 0
4 *1064:4 0.00122119
5 *1329:A2 *1104:350 0
6 *1393:A0 *2021:CLK 9.43847e-06
7 *1328:A *1329:A2 8.62625e-06
8 *1329:B1 *1329:A2 2.71397e-05
9 *1995:RESET_B *1329:A2 3.92275e-05
10 *2013:RESET_B *1393:A0 0
11 *2021:D *1393:A0 0
12 *2021:RESET_B *1393:A0 5.69771e-05
13 *436:10 *1329:A2 0.000118485
14 *436:44 *1329:A2 0.000196638
15 *684:16 *1329:A2 0.000146136
16 *684:16 *1393:A0 0.000112773
17 *690:14 *1329:A2 0.000313495
*RES
1 *2021:Q *1064:4 9.24915 
2 *1064:4 *1393:A0 26.4899 
3 *1064:4 *1329:A2 33.4155 
*END

*D_NET *1065 0.00321956
*CONN
*I *1324:A2 I *D sky130_fd_sc_hd__o21ai_0
*I *1392:A0 I *D sky130_fd_sc_hd__mux2_1
*I *2022:Q O *D sky130_fd_sc_hd__dfrtp_1
*CAP
1 *1324:A2 0.000346517
2 *1392:A0 0.000453684
3 *2022:Q 0.00029851
4 *1065:12 0.00109871
5 *1324:A2 *1109:356 6.94382e-05
6 *1392:A0 *1392:S 9.81288e-06
7 *1065:12 *1392:S 0
8 *1448:B *1392:A0 0.000184509
9 *1449:A1 *1065:12 5.27944e-05
10 *1449:B1 *1324:A2 6.28701e-05
11 *1449:B1 *1392:A0 0.000208621
12 *1449:B1 *1065:12 5.0187e-05
13 *1996:D *1065:12 0.000113237
14 *2022:RESET_B *1065:12 0.000171273
15 *500:14 *1324:A2 6.93171e-05
16 *681:14 *1392:A0 3.00829e-05
*RES
1 *2022:Q *1065:12 25.651 
2 *1065:12 *1392:A0 17.1824 
3 *1065:12 *1324:A2 24.4081 
*END

*D_NET *1066 0.00353422
*CONN
*I *1319:A2 I *D sky130_fd_sc_hd__o21ai_0
*I *1391:A0 I *D sky130_fd_sc_hd__mux2_1
*I *2023:Q O *D sky130_fd_sc_hd__dfrtp_1
*CAP
1 *1319:A2 0.000433769
2 *1391:A0 0.000657972
3 *2023:Q 0.000105806
4 *1066:10 0.00119755
5 *1319:A2 *1104:270 9.60201e-05
6 *1319:A2 *1174:16 0.000110426
7 *1391:A0 *1391:S 1.88563e-05
8 *1391:A0 *1890:A2 3.52275e-07
9 *1391:A0 *1118:14 5.93466e-05
10 *1066:10 *1174:16 0.000114714
11 *1319:A1 *1319:A2 6.27718e-05
12 *1443:A *1391:A0 5.17104e-05
13 *1443:A *1066:10 7.78562e-06
14 *1445:A1 *1391:A0 0.000121681
15 *1446:B *1391:A0 6.24474e-06
16 *1997:D *1319:A2 9.24241e-05
17 *571:6 *1391:A0 9.19075e-05
18 *683:22 *1391:A0 0.000304887
*RES
1 *2023:Q *1066:10 15.821 
2 *1066:10 *1391:A0 26.0742 
3 *1066:10 *1319:A2 24.6074 
*END

*D_NET *1067 0.00341193
*CONN
*I *1890:A2 I *D sky130_fd_sc_hd__o21ai_0
*I *1390:A0 I *D sky130_fd_sc_hd__mux2_1
*I *2024:Q O *D sky130_fd_sc_hd__dfrtp_1
*CAP
1 *1890:A2 0.000214458
2 *1390:A0 0.000506679
3 *2024:Q 0.000215688
4 *1067:12 0.000936825
5 *1390:A0 *1391:S 0.0001195
6 *1067:12 *1109:174 0.000117421
7 *1390:A1 *1390:A0 6.55124e-05
8 *1391:A0 *1890:A2 3.52275e-07
9 *1443:A *1890:A2 7.41912e-05
10 *1443:A *1067:12 0.000157379
11 *1445:A1 *1890:A2 3.66984e-05
12 *1446:B *1390:A0 0.000304859
13 *1446:B *1890:A2 6.08467e-05
14 *1446:B *1067:12 0.000141968
15 *1889:A *1890:A2 6.3657e-05
16 *1890:B1 *1890:A2 0.000161252
17 *1998:D *1390:A0 2.12494e-05
18 *1998:D *1067:12 0
19 *2024:RESET_B *1067:12 3.77726e-05
20 *436:200 *1890:A2 4.81452e-05
21 *571:6 *1890:A2 1.17766e-05
22 *679:10 *1390:A0 3.86207e-06
23 *682:12 *1390:A0 1.88563e-05
24 *683:22 *1390:A0 9.29777e-05
*RES
1 *2024:Q *1067:12 25.5117 
2 *1067:12 *1390:A0 28.1804 
3 *1067:12 *1890:A2 15.0122 
*END

*D_NET *1068 0.00341026
*CONN
*I *1389:A0 I *D sky130_fd_sc_hd__mux2_1
*I *1313:B I *D sky130_fd_sc_hd__nand2_1
*I *2025:Q O *D sky130_fd_sc_hd__dfrtp_1
*CAP
1 *1389:A0 0.000348489
2 *1313:B 0.000767813
3 *2025:Q 0.000274183
4 *1068:10 0.00139049
5 *1313:B *2078:CLK 4.29314e-06
6 *1313:B *1120:14 2.99929e-05
7 *1313:B *1120:22 7.44228e-05
8 *1389:A0 *1112:313 0.000196517
9 *1068:10 *1397:S 8.75207e-05
10 *1068:10 *1120:10 6.03102e-05
11 *1068:10 *1120:14 1.70219e-05
12 *1999:RESET_B *1313:B 0.000110084
13 *2017:D *1313:B 1.77537e-06
14 *2017:D *1068:10 4.73463e-05
*RES
1 *2025:Q *1068:10 19.6294 
2 *1068:10 *1313:B 26.3062 
3 *1068:10 *1389:A0 19.464 
*END

*D_NET *1069 0.00135174
*CONN
*I *1388:A0 I *D sky130_fd_sc_hd__mux2_1
*I *1309:B I *D sky130_fd_sc_hd__nand2_1
*I *2026:Q O *D sky130_fd_sc_hd__dfrtp_1
*CAP
1 *1388:A0 0.000368281
2 *1309:B 0.000134344
3 *2026:Q 0.000502625
4 *1309:B *2026:RESET_B 7.60173e-05
5 *1309:B *1112:274 1.63255e-05
6 *1388:A0 *2026:RESET_B 0.000158432
7 *1388:A0 *1104:344 1.63652e-05
8 *1439:A *1309:B 7.93481e-05
*RES
1 *2026:Q *1309:B 23.128 
2 *2026:Q *1388:A0 33.5207 
*END

*D_NET *1070 0.00123449
*CONN
*I *1387:A0 I *D sky130_fd_sc_hd__mux2_1
*I *1305:B I *D sky130_fd_sc_hd__nand2_1
*I *2027:Q O *D sky130_fd_sc_hd__dfrtp_1
*CAP
1 *1387:A0 0.00035202
2 *1305:B 4.63151e-05
3 *2027:Q 0
4 *1070:6 0.000398335
5 *1305:B *2027:RESET_B 6.3657e-05
6 *1305:B *1115:16 0
7 *1387:A0 *1386:S 6.50586e-05
8 *1387:A0 *1104:442 3.58208e-05
9 *1387:A0 *1115:16 0
10 *1419:B *1387:A0 5.04829e-06
11 *548:40 *1305:B 5.20674e-05
12 *548:40 *1387:A0 0.000149728
13 *763:33 *1305:B 6.64392e-05
*RES
1 *2027:Q *1070:6 13.7491 
2 *1070:6 *1305:B 15.474 
3 *1070:6 *1387:A0 22.5417 
*END

*D_NET *1071 0.00105509
*CONN
*I *1893:B I *D sky130_fd_sc_hd__nand2_1
*I *1386:A0 I *D sky130_fd_sc_hd__mux2_1
*I *2028:Q O *D sky130_fd_sc_hd__dfrtp_1
*CAP
1 *1893:B 6.0343e-05
2 *1386:A0 0.000307088
3 *2028:Q 9.61467e-05
4 *1071:10 0.000463578
5 *548:32 *1071:10 6.28795e-05
6 *688:22 *1386:A0 6.50586e-05
*RES
1 *2028:Q *1071:10 20.9116 
2 *1071:10 *1386:A0 16.0732 
3 *1071:10 *1893:B 10.5271 
*END

*D_NET *1072 0.00103981
*CONN
*I *1294:A I *D sky130_fd_sc_hd__inv_1
*I *1988:Q O *D sky130_fd_sc_hd__dfrtp_1
*CAP
1 *1294:A 0.000188431
2 *1988:Q 0.000188431
3 *1294:A *1988:RESET_B 1.4106e-05
4 *1467:A1 *1294:A 0.000367051
5 *1988:D *1294:A 0.00016182
6 *478:6 *1294:A 0.000119975
*RES
1 *1988:Q *1294:A 25.7262 
*END

*D_NET *1073 0.00184351
*CONN
*I *1340:B I *D sky130_fd_sc_hd__nand2_1
*I *1385:A0 I *D sky130_fd_sc_hd__mux2_1
*I *2029:Q O *D sky130_fd_sc_hd__dfrtp_1
*CAP
1 *1340:B 0
2 *1385:A0 0.000100057
3 *2029:Q 0.000300462
4 *1073:16 0.000400518
5 *1385:A0 *1340:A 0.000481861
6 *1385:A0 *1385:S 2.41483e-05
7 *1073:16 *1340:A 4.49957e-05
8 *1073:16 *1385:S 0
9 *1343:A2 *1073:16 1.00846e-05
10 *1385:A1 *1385:A0 6.92705e-05
11 *436:86 *1073:16 0.000134841
12 *436:88 *1073:16 8.62625e-06
13 *485:20 *1073:16 0.00020975
14 *548:22 *1073:16 5.88983e-05
*RES
1 *2029:Q *1073:16 25.7102 
2 *1073:16 *1385:A0 14.4094 
3 *1073:16 *1340:B 9.24915 
*END

*D_NET *1074 0.00270748
*CONN
*I *1336:B I *D sky130_fd_sc_hd__nand2_1
*I *1384:A0 I *D sky130_fd_sc_hd__mux2_1
*I *2030:Q O *D sky130_fd_sc_hd__dfrtp_1
*CAP
1 *1336:B 0.000615551
2 *1384:A0 0.000405415
3 *2030:Q 0
4 *1074:4 0.00102097
5 *1336:B *1112:286 3.67528e-06
6 *1336:B *1112:299 3.57155e-05
7 *1336:B *1119:55 9.01463e-05
8 *1384:A0 *1104:350 7.56859e-06
9 *1384:A0 *1119:55 0.000190099
10 *1995:RESET_B *1384:A0 6.09017e-05
11 *2030:RESET_B *1336:B 7.34802e-05
12 *548:10 *1336:B 0.00014705
13 *548:12 *1336:B 1.07248e-05
14 *684:16 *1384:A0 4.61908e-05
*RES
1 *2030:Q *1074:4 9.24915 
2 *1074:4 *1384:A0 26.0719 
3 *1074:4 *1336:B 29.3995 
*END

*D_NET *1075 0.000963493
*CONN
*I *1332:B I *D sky130_fd_sc_hd__nand2_1
*I *1383:A0 I *D sky130_fd_sc_hd__mux2_1
*I *2031:Q O *D sky130_fd_sc_hd__dfrtp_1
*CAP
1 *1332:B 0
2 *1383:A0 7.02656e-05
3 *2031:Q 0.000173402
4 *1075:14 0.000243668
5 *1383:A0 *1383:S 0.000117376
6 *1075:14 *1110:26 0.00011349
7 *1075:14 *1112:132 8.62625e-06
8 *1075:14 *1112:153 0.000114955
9 *1383:A1 *1383:A0 2.99287e-05
10 *1423:B *1075:14 0
11 *442:16 *1383:A0 6.88361e-05
12 *442:16 *1075:14 2.29454e-05
13 *691:22 *1075:14 0
*RES
1 *2031:Q *1075:14 22.4978 
2 *1075:14 *1383:A0 12.191 
3 *1075:14 *1332:B 9.24915 
*END

*D_NET *1076 0.000878773
*CONN
*I *1885:B I *D sky130_fd_sc_hd__nand2_1
*I *1382:A0 I *D sky130_fd_sc_hd__mux2_1
*I *2032:Q O *D sky130_fd_sc_hd__dfrtp_1
*CAP
1 *1885:B 4.69814e-05
2 *1382:A0 0.000216218
3 *2032:Q 8.71961e-05
4 *1076:8 0.000350395
5 *1382:A0 *1104:212 0.0001195
6 *1382:A0 *1112:157 3.00174e-06
7 *1382:A0 *1115:30 2.41274e-06
8 *1382:A1 *1382:A0 1.03403e-05
9 *475:8 *1885:B 2.44599e-05
10 *475:8 *1076:8 1.82679e-05
*RES
1 *2032:Q *1076:8 11.1059 
2 *1076:8 *1382:A0 22.329 
3 *1076:8 *1885:B 10.5271 
*END

*D_NET *1077 0.00155988
*CONN
*I *1288:A I *D sky130_fd_sc_hd__inv_1
*I *1989:Q O *D sky130_fd_sc_hd__dfrtp_1
*CAP
1 *1288:A 0.000337383
2 *1989:Q 0.000337383
3 *1288:A *1990:CLK 0.000376631
4 *1288:A *1114:14 3.44412e-06
5 *1288:A *1114:20 2.13488e-05
6 *1288:A *1114:24 1.30763e-05
7 *1257:A2 *1288:A 0.000169063
8 *473:6 *1288:A 5.86067e-05
9 *548:65 *1288:A 7.86982e-05
10 *1050:8 *1288:A 0.000164245
*RES
1 *1989:Q *1288:A 39.5999 
*END

*D_NET *1078 0.000118469
*CONN
*I *1250:A I *D sky130_fd_sc_hd__inv_1
*I *2010:Q O *D sky130_fd_sc_hd__dfrtp_1
*CAP
1 *1250:A 5.92345e-05
2 *2010:Q 5.92345e-05
*RES
1 *2010:Q *1250:A 20.0114 
*END

*D_NET *1079 0.000839773
*CONN
*I *1249:A I *D sky130_fd_sc_hd__inv_1
*I *2011:Q O *D sky130_fd_sc_hd__dfrtp_1
*CAP
1 *1249:A 0.000185317
2 *2011:Q 0.000185317
3 *1249:A *1861:A 0.000127179
4 *1253:C *1249:A 0
5 *434:10 *1249:A 1.13647e-05
6 *438:12 *1249:A 0.000330596
*RES
1 *2011:Q *1249:A 33.9473 
*END

*D_NET *1080 0.000620984
*CONN
*I *1255:A I *D sky130_fd_sc_hd__inv_1
*I *2012:Q O *D sky130_fd_sc_hd__dfrtp_1
*CAP
1 *1255:A 0.000174905
2 *2012:Q 0.000174905
3 *1255:A *1986:CLK 4.87439e-05
4 *1255:A *1109:78 8.62625e-06
5 *1255:A *1109:97 0.000146825
6 *1403:A1 *1255:A 3.48806e-05
7 *1472:B *1255:A 3.20984e-05
*RES
1 *2012:Q *1255:A 31.8186 
*END

*D_NET *1081 0.000829736
*CONN
*I *1262:A I *D sky130_fd_sc_hd__inv_1
*I *1908:Q O *D sky130_fd_sc_hd__dfrtp_1
*CAP
1 *1262:A 0.000289507
2 *1908:Q 0.000289507
3 *1262:A *1242:A 6.27782e-05
4 *1262:A *1264:C1 0
5 *1262:A *1110:904 0.000122541
6 *2487:A *1262:A 0
7 *447:6 *1262:A 6.54015e-05
*RES
1 *1908:Q *1262:A 35.1473 
*END

*D_NET *1082 0.00241635
*CONN
*I *1461:A I *D sky130_fd_sc_hd__inv_1
*I *1990:Q O *D sky130_fd_sc_hd__dfrtp_1
*CAP
1 *1461:A 0.00068541
2 *1990:Q 0.00068541
3 *1461:A *1420:A 0
4 *1461:A *1104:212 1.69932e-05
5 *1461:A *1110:178 0
6 *1461:A *1110:180 0
7 *1398:A0 *1461:A 0.000166137
8 *1398:A1 *1461:A 0
9 *1419:A *1461:A 0
10 *1421:A *1461:A 0.000663372
11 *1463:A1 *1461:A 1.13587e-05
12 *548:52 *1461:A 6.50727e-05
13 *688:16 *1461:A 5.33266e-05
14 *691:22 *1461:A 6.92705e-05
*RES
1 *1990:Q *1461:A 47.8741 
*END

*D_NET *1083 0.00152316
*CONN
*I *1352:A I *D sky130_fd_sc_hd__inv_1
*I *1991:Q O *D sky130_fd_sc_hd__dfrtp_1
*CAP
1 *1352:A 0.00048398
2 *1991:Q 0.00048398
3 *1352:A *2078:RESET_B 6.21456e-05
4 *1352:A *1107:288 8.21761e-06
5 *1352:A *1107:292 1.41976e-05
6 *1352:A *1113:20 0.000356327
7 *2046:D *1352:A 0
8 *522:24 *1352:A 7.12632e-06
9 *523:6 *1352:A 2.59857e-05
10 *525:8 *1352:A 8.11974e-05
*RES
1 *1991:Q *1352:A 41.3147 
*END

*D_NET *1084 0.00126916
*CONN
*I *1348:A I *D sky130_fd_sc_hd__inv_1
*I *1992:Q O *D sky130_fd_sc_hd__dfrtp_1
*CAP
1 *1348:A 0.000604251
2 *1992:Q 0.000604251
3 *1348:A *2502:A 1.59362e-06
4 *1348:A *1120:56 0
5 *1992:RESET_B *1348:A 0
6 *520:8 *1348:A 5.90681e-05
*RES
1 *1992:Q *1348:A 41.6632 
*END

*D_NET *1085 0.0022217
*CONN
*I *2494:A I *D sky130_fd_sc_hd__buf_4
*I *2057:Q O *D sky130_fd_sc_hd__dfrtp_1
*CAP
1 *2494:A 0.000468961
2 *2057:Q 0.000468961
3 *2494:A *1888:A1 6.77815e-05
4 *1333:B *2494:A 0.000247652
5 *1860:A *2494:A 0.000412594
6 *2073:D *2494:A 0.000211938
7 *436:120 *2494:A 7.9766e-05
8 *436:126 *2494:A 6.57318e-05
9 *1045:10 *2494:A 0.000198319
*RES
1 *2057:Q *2494:A 45.2815 
*END

*D_NET *1086 0.00177705
*CONN
*I *1368:B I *D sky130_fd_sc_hd__nand2_1
*I *1365:A I *D sky130_fd_sc_hd__inv_1
*I *1240:A1 I *D sky130_fd_sc_hd__o22ai_1
*I *2058:Q O *D sky130_fd_sc_hd__dfrtp_1
*CAP
1 *1368:B 0
2 *1365:A 2.29134e-05
3 *1240:A1 7.98098e-05
4 *2058:Q 0.000161404
5 *1086:29 0.000133452
6 *1086:10 0.000351752
7 *1240:A1 *1092:14 4.01301e-05
8 *1365:A *1369:A 5.30213e-05
9 *1086:10 *1092:14 4.64721e-05
10 *1086:10 *1105:62 0
11 *1086:29 *1359:B 1.09551e-05
12 *1086:29 *1369:A 0.000172668
13 *1086:29 *1105:62 7.68538e-06
14 *1359:A *1086:29 6.23875e-05
15 *1368:A *1086:29 6.08467e-05
16 *527:10 *1240:A1 6.3152e-05
17 *527:10 *1086:10 2.36813e-05
18 *528:14 *1086:29 0.000213725
19 *532:16 *1365:A 5.93083e-05
20 *534:10 *1365:A 0.000192077
21 *534:10 *1086:29 2.16052e-05
*RES
1 *2058:Q *1086:10 17.5503 
2 *1086:10 *1240:A1 16.4116 
3 *1086:10 *1086:29 10.2872 
4 *1086:29 *1365:A 11.3289 
5 *1086:29 *1368:B 9.24915 
*END

*D_NET *1087 0.00308292
*CONN
*I *1240:A2 I *D sky130_fd_sc_hd__o22ai_1
*I *1367:A2 I *D sky130_fd_sc_hd__a21oi_2
*I *1867:A I *D sky130_fd_sc_hd__xor2_1
*I *2059:Q O *D sky130_fd_sc_hd__dfrtp_1
*CAP
1 *1240:A2 0.000218459
2 *1367:A2 0.00011116
3 *1867:A 0.00014461
4 *2059:Q 0.000972289
5 *1087:8 0.0010096
6 *1240:A2 *1139:66 0.000115632
7 *1087:8 *2059:CLK 9.74725e-05
8 *1087:8 *1139:66 0.000120272
9 *1240:B2 *1240:A2 7.50872e-05
10 *1374:B *1367:A2 7.69814e-05
11 *1867:B *1367:A2 7.90164e-05
12 *1867:B *1867:A 2.98969e-05
13 *527:10 *1240:A2 1.79807e-05
14 *538:21 *1367:A2 1.44611e-05
*RES
1 *2059:Q *1087:8 25.01 
2 *1087:8 *1867:A 17.2744 
3 *1087:8 *1367:A2 18.0727 
4 *2059:Q *1240:A2 31.8568 
*END

*D_NET *1088 0.00177445
*CONN
*I *1408:A I *D sky130_fd_sc_hd__nor2_2
*I *1868:A I *D sky130_fd_sc_hd__nor2_1
*I *1372:A I *D sky130_fd_sc_hd__inv_1
*I *2060:Q O *D sky130_fd_sc_hd__dfrtp_1
*CAP
1 *1408:A 0
2 *1868:A 4.33806e-05
3 *1372:A 7.46177e-06
4 *2060:Q 0.000298141
5 *1088:25 0.000205064
6 *1088:8 0.000467286
7 *1372:A *1104:8 3.21692e-05
8 *1868:A *1104:8 0.000171273
9 *1088:8 *2060:RESET_B 0
10 *1088:8 *1110:613 0
11 *1088:25 *1104:8 2.18145e-05
12 *1374:A *1088:8 0.000349292
13 *1408:B *1372:A 3.21692e-05
14 *1408:B *1088:25 0.000134645
15 *1869:A *1088:25 0
16 *2486:A *1088:8 9.98029e-06
17 *2486:A *1088:25 1.77537e-06
18 *2491:A *1088:8 0
19 *2491:A *1088:25 0
*RES
1 *2060:Q *1088:8 22.6404 
2 *1088:8 *1372:A 14.1289 
3 *1088:8 *1088:25 8.87734 
4 *1088:25 *1868:A 11.0817 
5 *1088:25 *1408:A 9.24915 
*END

*D_NET *1089 0.00100916
*CONN
*I *1361:A I *D sky130_fd_sc_hd__inv_1
*I *2036:Q O *D sky130_fd_sc_hd__dfrtp_1
*CAP
1 *1361:A 0.000349588
2 *2036:Q 0.000349588
3 *1361:A *1872:A 0
4 *1361:A *1918:RESET_B 0
5 *1361:A *2036:RESET_B 5.98634e-05
6 *456:10 *1361:A 0.000186451
7 *529:6 *1361:A 6.36709e-05
*RES
1 *2036:Q *1361:A 36.5675 
*END

*D_NET *1090 0.0026966
*CONN
*I *1872:A I *D sky130_fd_sc_hd__nor2_1
*I *1785:B I *D sky130_fd_sc_hd__nand2_1
*I *1907:Q O *D sky130_fd_sc_hd__dfrtp_1
*CAP
1 *1872:A 0.000639044
2 *1785:B 0.000243204
3 *1907:Q 8.27242e-05
4 *1090:8 0.000964972
5 *1872:A *1362:A 1.0759e-05
6 *1872:A *1882:B 0
7 *1872:A *1918:RESET_B 0.000261007
8 *1872:A *1110:727 0
9 *1361:A *1872:A 0
10 *1363:A *1872:A 2.5971e-05
11 *1363:B *1872:A 3.91078e-05
12 *1364:B1 *1872:A 0.000114271
13 *1786:A2 *1872:A 0
14 *2036:D *1872:A 0
15 *456:10 *1872:A 0
16 *529:6 *1872:A 3.82887e-05
17 *530:14 *1872:A 0.00015589
18 *951:14 *1872:A 0
19 *957:10 *1785:B 0.00012136
*RES
1 *1907:Q *1090:8 15.5817 
2 *1090:8 *1785:B 20.1489 
3 *1090:8 *1872:A 31.9748 
*END

*D_NET *1091 0.00806082
*CONN
*I *1874:A I *D sky130_fd_sc_hd__xnor2_1
*I *1785:A I *D sky130_fd_sc_hd__nand2_1
*I *1786:A1 I *D sky130_fd_sc_hd__o21ai_0
*I *2061:Q O *D sky130_fd_sc_hd__dfrtp_1
*CAP
1 *1874:A 0.00101726
2 *1785:A 0.00018586
3 *1786:A1 0
4 *2061:Q 9.09767e-05
5 *1091:28 0.000200621
6 *1091:26 0.00146998
7 *1091:8 0.00256345
8 *1874:A *1916:CLK 8.39059e-05
9 *1874:A *1105:62 7.34948e-06
10 *1874:A *1154:10 0.000109615
11 *1091:8 *1154:10 0.000272175
12 *1091:26 *2049:CLK 2.12847e-05
13 *1091:26 *1110:731 0.000277304
14 *1091:26 *1110:733 8.62625e-06
15 *1245:A1 *1091:8 0.000101177
16 *1270:A *1091:26 7.14746e-05
17 *1271:A1 *1091:26 6.20228e-05
18 *1654:A1 *1091:8 1.22289e-05
19 *1664:A *1091:26 7.60041e-05
20 *1664:B *1091:26 2.04806e-05
21 *1786:A2 *1785:A 6.08467e-05
22 *1786:A2 *1091:28 6.08467e-05
23 *1786:B1 *1785:A 7.19887e-05
24 *1916:D *1874:A 0.000116986
25 *2061:D *1874:A 1.05294e-05
26 *425:14 *1091:26 0.000452266
27 *425:20 *1091:26 0.000295365
28 *446:10 *1091:26 0
29 *456:10 *1785:A 0.000116761
30 *456:10 *1091:28 6.08467e-05
31 *793:11 *1874:A 0.000121679
32 *793:11 *1091:8 4.09055e-05
*RES
1 *2061:Q *1091:8 18.4879 
2 *1091:8 *1091:26 49.5106 
3 *1091:26 *1091:28 0.723396 
4 *1091:28 *1786:A1 9.24915 
5 *1091:28 *1785:A 15.0363 
6 *1091:8 *1874:A 33.0504 
*END

*D_NET *1092 0.00276795
*CONN
*I *1240:B1 I *D sky130_fd_sc_hd__o22ai_1
*I *1356:A I *D sky130_fd_sc_hd__inv_1
*I *1875:B I *D sky130_fd_sc_hd__nand2_1
*I *1360:A I *D sky130_fd_sc_hd__xor2_1
*I *2062:Q O *D sky130_fd_sc_hd__dfrtp_1
*CAP
1 *1240:B1 0
2 *1356:A 0.000104287
3 *1875:B 3.18815e-05
4 *1360:A 8.08993e-05
5 *2062:Q 0.000445455
6 *1092:31 0.000314297
7 *1092:16 0.000327603
8 *1092:14 0.00051403
9 *1092:14 *1105:62 0
10 *1092:14 *1142:236 0
11 *1092:31 *2059:RESET_B 5.19453e-05
12 *1240:A1 *1092:14 4.01301e-05
13 *1240:B2 *1092:14 3.31882e-05
14 *1360:B *1360:A 6.4127e-05
15 *1360:B *1092:16 2.16355e-05
16 *1879:A3 *1092:31 8.36586e-06
17 *2062:D *1092:14 0.000168525
18 *425:14 *1360:A 0
19 *427:8 *1092:14 1.44764e-05
20 *527:10 *1092:14 0
21 *528:14 *1092:14 0.000130931
22 *528:14 *1092:16 4.56831e-05
23 *528:27 *1092:14 5.68225e-06
24 *528:27 *1092:31 0.000318333
25 *1086:10 *1092:14 4.64721e-05
*RES
1 *2062:Q *1092:14 29.9723 
2 *1092:14 *1092:16 1.8326 
3 *1092:16 *1360:A 11.5158 
4 *1092:16 *1092:31 14.9845 
5 *1092:31 *1875:B 9.97254 
6 *1092:31 *1356:A 12.0644 
7 *1092:14 *1240:B1 9.24915 
*END

*D_NET *1093 0.00129552
*CONN
*I *1239:A I *D sky130_fd_sc_hd__inv_1
*I *1878:B1 I *D sky130_fd_sc_hd__o21ai_0
*I *2063:Q O *D sky130_fd_sc_hd__dfrtp_1
*CAP
1 *1239:A 0.000146895
2 *1878:B1 0.000145373
3 *2063:Q 0
4 *1093:6 0.000292268
5 *1878:A2 *1878:B1 0.000126357
6 *1879:A1 *1878:B1 0
7 *1879:A3 *1239:A 0.000310067
8 *1879:A3 *1878:B1 5.41377e-05
9 *1879:B1 *1239:A 7.7979e-05
10 *1879:B1 *1878:B1 1.36691e-05
11 *1879:B2 *1878:B1 0.000127179
12 *2184:A *1878:B1 0
13 *424:10 *1239:A 1.59362e-06
14 *719:19 *1878:B1 0
*RES
1 *2063:Q *1093:6 13.7491 
2 *1093:6 *1878:B1 19.3917 
3 *1093:6 *1239:A 19.6982 
*END

*D_NET *1094 0.00194279
*CONN
*I *1362:A I *D sky130_fd_sc_hd__nor2_1
*I *1870:A I *D sky130_fd_sc_hd__inv_1
*I *1880:A I *D sky130_fd_sc_hd__nor2_1
*I *2064:Q O *D sky130_fd_sc_hd__dfrtp_1
*CAP
1 *1362:A 6.35377e-05
2 *1870:A 3.82098e-05
3 *1880:A 0.000216978
4 *2064:Q 0
5 *1094:25 0.000160795
6 *1094:4 0.000276025
7 *1265:A1 *1880:A 3.00174e-06
8 *1265:B1 *1880:A 0
9 *1278:B *1880:A 0
10 *1362:B *1362:A 3.06373e-05
11 *1362:B *1870:A 4.76161e-06
12 *1872:A *1362:A 1.0759e-05
13 *1881:A *1880:A 4.51913e-05
14 *2487:A *1880:A 9.10232e-06
15 *426:37 *1880:A 1.55642e-05
16 *427:74 *1362:A 1.88422e-05
17 *427:74 *1870:A 0.000124828
18 *462:28 *1362:A 8.57967e-05
19 *462:28 *1880:A 0.000260325
20 *462:28 *1094:25 0.000202726
21 *468:30 *1870:A 7.35231e-05
22 *468:30 *1880:A 0.000143839
23 *468:30 *1094:25 0.000139947
24 *530:14 *1362:A 1.83992e-05
*RES
1 *2064:Q *1094:4 9.24915 
2 *1094:4 *1880:A 25.5877 
3 *1094:4 *1094:25 2.96592 
4 *1094:25 *1870:A 11.2566 
5 *1094:25 *1362:A 12.2151 
*END

*D_NET *1095 0.00376288
*CONN
*I *1241:A2 I *D sky130_fd_sc_hd__a21oi_1
*I *1478:A I *D sky130_fd_sc_hd__inv_1
*I *1883:A1 I *D sky130_fd_sc_hd__o21ai_0
*I *1882:B I *D sky130_fd_sc_hd__nand2_1
*I *2065:Q O *D sky130_fd_sc_hd__dfrtp_1
*CAP
1 *1241:A2 0.000340728
2 *1478:A 0
3 *1883:A1 1.63938e-05
4 *1882:B 0.000262106
5 *2065:Q 0.000555469
6 *1095:20 0.000421629
7 *1095:14 0.000198831
8 *1095:8 0.000951899
9 *1241:A2 *2054:CLK 0.000104184
10 *1241:A2 *1136:22 5.43562e-05
11 *1095:8 *2036:RESET_B 1.5224e-05
12 *1095:14 *2054:CLK 0.00015324
13 *1238:A *1241:A2 3.21289e-05
14 *1266:A *1882:B 7.88183e-05
15 *1643:B1 *1241:A2 0.000212222
16 *1643:B1 *1095:14 0.000149628
17 *1872:A *1882:B 0
18 *1883:A2 *1095:20 6.50586e-05
19 *2065:D *1095:20 5.18899e-06
20 *451:8 *1882:B 4.13873e-06
21 *456:10 *1882:B 0.000141641
*RES
1 *2065:Q *1095:8 21.6824 
2 *1095:8 *1095:14 7.482 
3 *1095:14 *1095:20 3.53861 
4 *1095:20 *1882:B 24.4081 
5 *1095:20 *1883:A1 9.82786 
6 *1095:14 *1478:A 9.24915 
7 *1095:8 *1241:A2 21.7272 
*END

*D_NET *1096 0.00137666
*CONN
*I *1584:A1 I *D sky130_fd_sc_hd__a311oi_1
*I *2089:Q O *D sky130_fd_sc_hd__dfrtp_1
*CAP
1 *1584:A1 0.000320345
2 *2089:Q 0.000320345
3 *1583:B *1584:A1 4.8363e-06
4 *1584:A2 *1584:A1 0.000315461
5 *1749:B *1584:A1 0.000116986
6 *611:53 *1584:A1 0.000250224
7 *652:19 *1584:A1 4.84618e-05
*RES
1 *2089:Q *1584:A1 35.7335 
*END

*D_NET *1097 0.00131967
*CONN
*I *1578:A1 I *D sky130_fd_sc_hd__a311oi_1
*I *2090:Q O *D sky130_fd_sc_hd__dfrtp_1
*CAP
1 *1578:A1 0.000481215
2 *2090:Q 0.000481215
3 *1578:A1 *1922:RESET_B 0.000156314
4 *1578:A1 *2090:CLK 2.63427e-05
5 *1578:C1 *1578:A1 1.79672e-05
6 *1583:B *1578:A1 2.71366e-05
7 *1625:A1 *1578:A1 0
8 *1625:A2 *1578:A1 0
9 *1749:B *1578:A1 7.75472e-05
10 *652:19 *1578:A1 5.19347e-05
*RES
1 *2090:Q *1578:A1 38.5009 
*END

*D_NET *1098 0.000299616
*CONN
*I *1572:A1 I *D sky130_fd_sc_hd__a311oi_1
*I *2091:Q O *D sky130_fd_sc_hd__dfrtp_1
*CAP
1 *1572:A1 8.83678e-05
2 *2091:Q 8.83678e-05
3 *421:33 *1572:A1 6.27718e-05
4 *450:56 *1572:A1 3.17869e-05
5 *652:19 *1572:A1 2.8322e-05
*RES
1 *2091:Q *1572:A1 29.6384 
*END

*D_NET *1099 0.000826889
*CONN
*I *1565:A1 I *D sky130_fd_sc_hd__a31oi_1
*I *2092:Q O *D sky130_fd_sc_hd__dfrtp_1
*CAP
1 *1565:A1 0.000201117
2 *2092:Q 0.000201117
3 *1565:A1 *1955:CLK 3.94515e-05
4 *1538:A2 *1565:A1 1.37939e-05
5 *1565:B1 *1565:A1 0.000110458
6 *1769:A *1565:A1 4.9e-05
7 *650:10 *1565:A1 6.08467e-05
8 *652:19 *1565:A1 1.47716e-05
9 *778:22 *1565:A1 0.000110458
10 *831:19 *1565:A1 2.58757e-05
*RES
1 *2092:Q *1565:A1 32.8561 
*END

*D_NET *1100 0.000913249
*CONN
*I *2086:D I *D sky130_fd_sc_hd__dfrtp_4
*I *2087:Q O *D sky130_fd_sc_hd__dfrtp_1
*CAP
1 *2086:D 0.000323548
2 *2087:Q 0.000323548
3 *2087:RESET_B *2086:D 9.78191e-05
4 *675:10 *2086:D 0.000168334
*RES
1 *2087:Q *2086:D 36.2909 
*END
