*SPEF "ieee 1481-1999"
*DESIGN "gpio"
*DATE "00:05:14 Wednesday September 16, 2026"
*VENDOR "The OpenROAD Project"
*PROGRAM "OpenROAD"
*VERSION "26Q3-1305-gf552262465"
*DESIGN_FLOW "NAME_SCOPE LOCAL" "PIN_CAP NONE"
*DIVIDER /
*DELIMITER :
*BUS_DELIMITER []
*T_UNIT 1 NS
*C_UNIT 1 PF
*R_UNIT 1 OHM
*L_UNIT 1 HENRY

*NAME_MAP
*1 _000_
*2 _001_
*3 _002_
*4 _003_
*5 _004_
*6 _005_
*7 _006_
*8 _007_
*9 _008_
*10 _009_
*11 _010_
*12 _011_
*13 _012_
*14 _013_
*15 _014_
*16 _015_
*17 _016_
*18 _017_
*19 _018_
*20 _019_
*21 _020_
*22 _021_
*23 _022_
*24 _023_
*25 _024_
*26 _025_
*27 _026_
*28 _027_
*29 _028_
*30 _029_
*31 _030_
*32 _031_
*33 _032_
*34 _033_
*35 _034_
*36 _035_
*37 _036_
*38 _037_
*39 _038_
*40 _039_
*41 _040_
*42 _041_
*43 _042_
*44 _043_
*45 _044_
*46 _045_
*47 _046_
*48 _047_
*49 _048_
*50 _049_
*51 _050_
*52 _051_
*53 _052_
*54 _053_
*55 _054_
*56 _055_
*57 _056_
*58 _057_
*59 _058_
*60 _059_
*61 _060_
*62 _061_
*63 _062_
*64 _063_
*65 _064_
*66 _065_
*67 _066_
*68 _067_
*69 _068_
*70 _069_
*71 _070_
*72 _071_
*73 _072_
*74 _073_
*75 _074_
*76 _075_
*77 _076_
*78 _077_
*79 _078_
*80 _079_
*81 _080_
*82 _081_
*83 _082_
*85 _084_
*86 _085_
*87 _086_
*88 _087_
*89 _088_
*90 _089_
*91 _090_
*92 _091_
*93 _092_
*94 _093_
*95 _094_
*96 _095_
*98 _097_
*99 _098_
*100 _099_
*101 _100_
*102 _101_
*103 _102_
*104 _103_
*105 _104_
*106 _105_
*107 _106_
*108 _107_
*109 _108_
*110 _109_
*111 _110_
*112 _111_
*113 _112_
*114 _113_
*115 _114_
*116 _115_
*117 _116_
*118 _117_
*119 _118_
*120 _119_
*121 _120_
*122 _121_
*123 _122_
*124 _123_
*125 _124_
*126 _125_
*127 _126_
*128 _127_
*129 _128_
*130 _129_
*131 _130_
*132 _131_
*133 _132_
*134 _133_
*135 _134_
*136 _135_
*137 _136_
*138 _137_
*139 _138_
*140 _139_
*141 _140_
*142 _141_
*143 _142_
*144 _143_
*145 _144_
*146 _145_
*147 _146_
*148 _147_
*149 _148_
*150 _149_
*151 _150_
*152 _151_
*153 _152_
*154 _153_
*155 _154_
*156 _155_
*157 _156_
*158 _157_
*159 _158_
*160 _159_
*161 _160_
*162 _161_
*163 _162_
*164 _163_
*165 _164_
*166 _165_
*167 _166_
*168 _167_
*169 _168_
*170 _169_
*171 _170_
*172 _171_
*173 _172_
*174 _173_
*175 _174_
*176 _175_
*177 _176_
*178 _177_
*179 _178_
*180 _179_
*181 _180_
*182 _181_
*183 _182_
*184 _183_
*394 cio_gpio_en_o[0]
*393 cio_gpio_en_o[1]
*392 cio_gpio_en_o[2]
*391 cio_gpio_en_o[3]
*226 cio_gpio_i[0]
*225 cio_gpio_i[1]
*224 cio_gpio_i[2]
*223 cio_gpio_i[3]
*390 cio_gpio_o[0]
*389 cio_gpio_o[1]
*388 cio_gpio_o[2]
*387 cio_gpio_o[3]
*197 clk_i
*439 clknet_0_clk_i
*440 clknet_3_0__leaf_clk_i
*441 clknet_3_1__leaf_clk_i
*442 clknet_3_2__leaf_clk_i
*443 clknet_3_3__leaf_clk_i
*444 clknet_3_4__leaf_clk_i
*445 clknet_3_5__leaf_clk_i
*446 clknet_3_6__leaf_clk_i
*447 clknet_3_7__leaf_clk_i
*198 core_rst_ni
*200 hw2reg_10_
*201 hw2reg_11_
*202 hw2reg_12_
*210 hw2reg_9_
*386 intr_gpio_o[0]
*385 intr_gpio_o[1]
*406 intr_gpio_o[2]
*405 intr_gpio_o[3]
*215 net
*412 net13
*216 net14
*220 net15
*189 net17
*190 net18
*191 net19
*192 net20
*248 net21
*249 net22
*250 net23
*251 net24
*252 net25
*253 net26
*254 net27
*255 net28
*256 net29
*257 net30
*258 net31
*259 net32
*260 net33
*261 net34
*262 net35
*263 net36
*270 net37
*277 net38
*278 net39
*279 net40
*280 net41
*282 net42
*283 net43
*284 net44
*285 net45
*286 net46
*287 net47
*288 net48
*289 net49
*325 net50
*185 net51
*186 net52
*187 net53
*188 net54
*193 net55
*194 net56
*195 net57
*196 net58
*211 net59
*212 net60
*213 net61
*214 net62
*291 net63
*292 net64
*293 net65
*294 net66
*295 net67
*296 net68
*297 net69
*298 net70
*299 net71
*300 net72
*301 net73
*302 net74
*303 net75
*304 net76
*312 net77
*317 net78
*318 net79
*319 net80
*320 net81
*321 net82
*322 net83
*323 net84
*438 net86
*437 net87
*448 net88
*449 net89
*450 net90
*451 net91
*452 net92
*228 reg2hw_0_
*229 reg2hw_10_
*230 reg2hw_11_
*231 reg2hw_12_
*232 reg2hw_13_
*233 reg2hw_14_
*234 reg2hw_15_
*235 reg2hw_16_
*236 reg2hw_17_
*237 reg2hw_18_
*238 reg2hw_19_
*239 reg2hw_1_
*240 reg2hw_2_
*241 reg2hw_3_
*242 reg2hw_4_
*243 reg2hw_5_
*244 reg2hw_6_
*245 reg2hw_7_
*246 reg2hw_8_
*247 reg2hw_9_
*219 reg_req_i[0]
*218 reg_req_i[10]
*217 reg_req_i[11]
*227 reg_req_i[12]
*209 reg_req_i[13]
*208 reg_req_i[14]
*207 reg_req_i[15]
*206 reg_req_i[16]
*205 reg_req_i[17]
*204 reg_req_i[18]
*203 reg_req_i[19]
*199 reg_req_i[1]
*383 reg_req_i[20]
*382 reg_req_i[21]
*381 reg_req_i[22]
*380 reg_req_i[23]
*264 reg_req_i[24]
*265 reg_req_i[25]
*266 reg_req_i[26]
*267 reg_req_i[27]
*268 reg_req_i[28]
*269 reg_req_i[29]
*316 reg_req_i[2]
*271 reg_req_i[30]
*272 reg_req_i[31]
*273 reg_req_i[32]
*274 reg_req_i[33]
*275 reg_req_i[34]
*276 reg_req_i[35]
*315 reg_req_i[36]
*314 reg_req_i[37]
*313 reg_req_i[38]
*311 reg_req_i[39]
*281 reg_req_i[3]
*310 reg_req_i[40]
*309 reg_req_i[41]
*308 reg_req_i[4]
*307 reg_req_i[5]
*306 reg_req_i[6]
*305 reg_req_i[7]
*398 reg_req_i[8]
*397 reg_req_i[9]
*290 reg_rsp_o[0]
*404 reg_rsp_o[10]
*403 reg_rsp_o[11]
*402 reg_rsp_o[12]
*401 reg_rsp_o[13]
*400 reg_rsp_o[14]
*399 reg_rsp_o[15]
*395 reg_rsp_o[16]
*221 reg_rsp_o[17]
*97 reg_rsp_o[18]
*84 reg_rsp_o[19]
*414 reg_rsp_o[1]
*415 reg_rsp_o[20]
*416 reg_rsp_o[21]
*417 reg_rsp_o[22]
*418 reg_rsp_o[23]
*419 reg_rsp_o[24]
*420 reg_rsp_o[25]
*421 reg_rsp_o[26]
*422 reg_rsp_o[27]
*423 reg_rsp_o[28]
*424 reg_rsp_o[29]
*425 reg_rsp_o[2]
*426 reg_rsp_o[30]
*427 reg_rsp_o[31]
*428 reg_rsp_o[32]
*429 reg_rsp_o[33]
*430 reg_rsp_o[3]
*431 reg_rsp_o[4]
*432 reg_rsp_o[5]
*433 reg_rsp_o[6]
*434 reg_rsp_o[7]
*435 reg_rsp_o[8]
*436 reg_rsp_o[9]
*324 reg_rst_ni
*396 rst_ni
*326 u_core_reset_sync_intq
*327 u_gpio_core_data_in_q_0_
*328 u_gpio_core_data_in_q_1_
*329 u_gpio_core_data_in_q_2_
*330 u_gpio_core_data_in_q_3_
*331 u_gpio_core_filter_rst_ni
*332 u_gpio_core_gen_input_filter_0__u_filter_diff_ctr_d_0_
*333 u_gpio_core_gen_input_filter_0__u_filter_diff_ctr_d_1_
*334 u_gpio_core_gen_input_filter_0__u_filter_diff_ctr_d_2_
*335 u_gpio_core_gen_input_filter_0__u_filter_diff_ctr_d_3_
*336 u_gpio_core_gen_input_filter_0__u_filter_diff_ctr_q_0_
*337 u_gpio_core_gen_input_filter_0__u_filter_diff_ctr_q_1_
*338 u_gpio_core_gen_input_filter_0__u_filter_diff_ctr_q_2_
*339 u_gpio_core_gen_input_filter_0__u_filter_diff_ctr_q_3_
*340 u_gpio_core_gen_input_filter_0__u_filter_filter_q
*341 u_gpio_core_gen_input_filter_0__u_filter_filter_synced
*342 u_gpio_core_gen_input_filter_0__u_filter_gen_async_prim_flop_2sync_intq
*343 u_gpio_core_gen_input_filter_0__u_filter_stored_value_q
*344 u_gpio_core_gen_input_filter_1__u_filter_diff_ctr_d_0_
*345 u_gpio_core_gen_input_filter_1__u_filter_diff_ctr_d_1_
*346 u_gpio_core_gen_input_filter_1__u_filter_diff_ctr_d_2_
*347 u_gpio_core_gen_input_filter_1__u_filter_diff_ctr_d_3_
*348 u_gpio_core_gen_input_filter_1__u_filter_diff_ctr_q_0_
*349 u_gpio_core_gen_input_filter_1__u_filter_diff_ctr_q_1_
*350 u_gpio_core_gen_input_filter_1__u_filter_diff_ctr_q_2_
*351 u_gpio_core_gen_input_filter_1__u_filter_diff_ctr_q_3_
*352 u_gpio_core_gen_input_filter_1__u_filter_filter_q
*353 u_gpio_core_gen_input_filter_1__u_filter_filter_synced
*354 u_gpio_core_gen_input_filter_1__u_filter_gen_async_prim_flop_2sync_intq
*355 u_gpio_core_gen_input_filter_1__u_filter_stored_value_q
*356 u_gpio_core_gen_input_filter_2__u_filter_diff_ctr_d_0_
*357 u_gpio_core_gen_input_filter_2__u_filter_diff_ctr_d_1_
*358 u_gpio_core_gen_input_filter_2__u_filter_diff_ctr_d_2_
*359 u_gpio_core_gen_input_filter_2__u_filter_diff_ctr_d_3_
*360 u_gpio_core_gen_input_filter_2__u_filter_diff_ctr_q_0_
*361 u_gpio_core_gen_input_filter_2__u_filter_diff_ctr_q_1_
*362 u_gpio_core_gen_input_filter_2__u_filter_diff_ctr_q_2_
*363 u_gpio_core_gen_input_filter_2__u_filter_diff_ctr_q_3_
*364 u_gpio_core_gen_input_filter_2__u_filter_filter_q
*365 u_gpio_core_gen_input_filter_2__u_filter_filter_synced
*366 u_gpio_core_gen_input_filter_2__u_filter_gen_async_prim_flop_2sync_intq
*367 u_gpio_core_gen_input_filter_2__u_filter_stored_value_q
*368 u_gpio_core_gen_input_filter_3__u_filter_diff_ctr_d_0_
*369 u_gpio_core_gen_input_filter_3__u_filter_diff_ctr_d_1_
*370 u_gpio_core_gen_input_filter_3__u_filter_diff_ctr_d_2_
*371 u_gpio_core_gen_input_filter_3__u_filter_diff_ctr_d_3_
*372 u_gpio_core_gen_input_filter_3__u_filter_diff_ctr_q_0_
*373 u_gpio_core_gen_input_filter_3__u_filter_diff_ctr_q_1_
*374 u_gpio_core_gen_input_filter_3__u_filter_diff_ctr_q_2_
*375 u_gpio_core_gen_input_filter_3__u_filter_diff_ctr_q_3_
*376 u_gpio_core_gen_input_filter_3__u_filter_filter_q
*377 u_gpio_core_gen_input_filter_3__u_filter_filter_synced
*378 u_gpio_core_gen_input_filter_3__u_filter_gen_async_prim_flop_2sync_intq
*379 u_gpio_core_gen_input_filter_3__u_filter_stored_value_q
*384 u_gpio_core_state_rst_ni
*407 u_gpio_reg_u_reg_core_data_in_qs_0_
*408 u_gpio_reg_u_reg_core_data_in_qs_1_
*409 u_gpio_reg_u_reg_core_data_in_qs_2_
*410 u_gpio_reg_u_reg_core_data_in_qs_3_
*411 u_reg_reset_sync_intq
*938 FILLER_0_0
*952 FILLER_0_101
*953 FILLER_0_109
*954 FILLER_0_111
*955 FILLER_0_129
*956 FILLER_0_137
*957 FILLER_0_145
*958 FILLER_0_149
*959 FILLER_0_151
*960 FILLER_0_159
*940 FILLER_0_16
*961 FILLER_0_167
*962 FILLER_0_175
*963 FILLER_0_177
*941 FILLER_0_20
*942 FILLER_0_31
*943 FILLER_0_39
*944 FILLER_0_51
*945 FILLER_0_59
*946 FILLER_0_61
*947 FILLER_0_65
*948 FILLER_0_67
*939 FILLER_0_8
*949 FILLER_0_84
*950 FILLER_0_88
*951 FILLER_0_91
*1118 FILLER_10_0
*1132 FILLER_10_103
*1133 FILLER_10_129
*1134 FILLER_10_140
*1135 FILLER_10_148
*1136 FILLER_10_151
*1137 FILLER_10_153
*1138 FILLER_10_166
*1120 FILLER_10_49
*1121 FILLER_10_53
*1122 FILLER_10_55
*1123 FILLER_10_60
*1124 FILLER_10_62
*1125 FILLER_10_70
*1126 FILLER_10_72
*1127 FILLER_10_76
*1128 FILLER_10_84
*1129 FILLER_10_88
*1119 FILLER_10_9
*1130 FILLER_10_91
*1131 FILLER_10_93
*1139 FILLER_11_0
*1140 FILLER_11_10
*1149 FILLER_11_118
*1150 FILLER_11_125
*1151 FILLER_11_158
*1152 FILLER_11_167
*1153 FILLER_11_169
*1141 FILLER_11_21
*1142 FILLER_11_29
*1143 FILLER_11_39
*1144 FILLER_11_61
*1145 FILLER_11_78
*1146 FILLER_11_86
*1147 FILLER_11_90
*1148 FILLER_11_92
*1161 FILLER_12_122
*1162 FILLER_12_127
*1163 FILLER_12_132
*1164 FILLER_12_140
*1165 FILLER_12_148
*1166 FILLER_12_159
*1167 FILLER_12_176
*1155 FILLER_12_29
*1156 FILLER_12_54
*1157 FILLER_12_58
*1154 FILLER_12_8
*1158 FILLER_12_80
*1159 FILLER_12_84
*1160 FILLER_12_89
*1168 FILLER_13_0
*1170 FILLER_13_11
*1177 FILLER_13_121
*1178 FILLER_13_143
*1179 FILLER_13_147
*1180 FILLER_13_149
*1171 FILLER_13_15
*1181 FILLER_13_153
*1182 FILLER_13_163
*1183 FILLER_13_165
*1184 FILLER_13_174
*1172 FILLER_13_19
*1169 FILLER_13_2
*1173 FILLER_13_21
*1174 FILLER_13_52
*1175 FILLER_13_81
*1176 FILLER_13_89
*1186 FILLER_14_11
*1199 FILLER_14_115
*1200 FILLER_14_143
*1201 FILLER_14_147
*1202 FILLER_14_149
*1203 FILLER_14_151
*1204 FILLER_14_166
*1187 FILLER_14_19
*1188 FILLER_14_27
*1189 FILLER_14_29
*1185 FILLER_14_3
*1190 FILLER_14_31
*1191 FILLER_14_33
*1192 FILLER_14_45
*1193 FILLER_14_49
*1194 FILLER_14_51
*1195 FILLER_14_72
*1196 FILLER_14_78
*1197 FILLER_14_82
*1198 FILLER_14_91
*1205 FILLER_15_0
*1213 FILLER_15_113
*1214 FILLER_15_117
*1215 FILLER_15_119
*1216 FILLER_15_121
*1217 FILLER_15_125
*1218 FILLER_15_127
*1219 FILLER_15_151
*1220 FILLER_15_159
*1221 FILLER_15_161
*1207 FILLER_15_19
*1206 FILLER_15_2
*1208 FILLER_15_81
*1209 FILLER_15_89
*1210 FILLER_15_93
*1211 FILLER_15_95
*1212 FILLER_15_99
*1222 FILLER_16_0
*1233 FILLER_16_107
*1234 FILLER_16_112
*1235 FILLER_16_133
*1236 FILLER_16_145
*1237 FILLER_16_151
*1223 FILLER_16_16
*1238 FILLER_16_176
*1224 FILLER_16_24
*1225 FILLER_16_28
*1226 FILLER_16_31
*1227 FILLER_16_35
*1228 FILLER_16_63
*1229 FILLER_16_70
*1230 FILLER_16_74
*1231 FILLER_16_91
*1232 FILLER_16_93
*1240 FILLER_17_10
*1248 FILLER_17_113
*1249 FILLER_17_115
*1250 FILLER_17_119
*1251 FILLER_17_121
*1252 FILLER_17_129
*1253 FILLER_17_159
*1254 FILLER_17_163
*1255 FILLER_17_172
*1256 FILLER_17_176
*1241 FILLER_17_31
*1242 FILLER_17_39
*1243 FILLER_17_41
*1244 FILLER_17_49
*1245 FILLER_17_61
*1246 FILLER_17_69
*1247 FILLER_17_77
*1239 FILLER_17_8
*1257 FILLER_18_0
*1265 FILLER_18_106
*1266 FILLER_18_118
*1267 FILLER_18_126
*1268 FILLER_18_130
*1269 FILLER_18_135
*1270 FILLER_18_139
*1271 FILLER_18_141
*1272 FILLER_18_151
*1273 FILLER_18_155
*1274 FILLER_18_174
*1258 FILLER_18_2
*1259 FILLER_18_20
*1260 FILLER_18_28
*1261 FILLER_18_60
*1262 FILLER_18_82
*1263 FILLER_18_91
*1264 FILLER_18_96
*1275 FILLER_19_0
*1282 FILLER_19_114
*1283 FILLER_19_118
*1284 FILLER_19_121
*1285 FILLER_19_123
*1286 FILLER_19_163
*1287 FILLER_19_165
*1288 FILLER_19_174
*1277 FILLER_19_31
*1278 FILLER_19_51
*1279 FILLER_19_56
*1280 FILLER_19_81
*1281 FILLER_19_83
*1276 FILLER_19_9
*964 FILLER_1_0
*977 FILLER_1_103
*978 FILLER_1_111
*979 FILLER_1_119
*980 FILLER_1_127
*981 FILLER_1_135
*982 FILLER_1_143
*983 FILLER_1_151
*984 FILLER_1_159
*966 FILLER_1_16
*985 FILLER_1_167
*986 FILLER_1_175
*987 FILLER_1_177
*967 FILLER_1_32
*968 FILLER_1_34
*969 FILLER_1_47
*970 FILLER_1_55
*971 FILLER_1_59
*972 FILLER_1_61
*973 FILLER_1_65
*974 FILLER_1_75
*975 FILLER_1_79
*965 FILLER_1_8
*976 FILLER_1_88
*1302 FILLER_20_108
*1289 FILLER_20_11
*1303 FILLER_20_116
*1304 FILLER_20_124
*1305 FILLER_20_126
*1290 FILLER_20_13
*1306 FILLER_20_131
*1307 FILLER_20_133
*1308 FILLER_20_137
*1309 FILLER_20_141
*1310 FILLER_20_154
*1311 FILLER_20_162
*1312 FILLER_20_166
*1291 FILLER_20_17
*1313 FILLER_20_172
*1314 FILLER_20_176
*1292 FILLER_20_19
*1293 FILLER_20_23
*1294 FILLER_20_27
*1295 FILLER_20_29
*1296 FILLER_20_66
*1297 FILLER_20_68
*1298 FILLER_20_78
*1299 FILLER_20_86
*1300 FILLER_20_91
*1301 FILLER_20_99
*1315 FILLER_21_0
*1325 FILLER_21_104
*1326 FILLER_21_109
*1317 FILLER_21_11
*1327 FILLER_21_117
*1328 FILLER_21_119
*1329 FILLER_21_121
*1330 FILLER_21_127
*1331 FILLER_21_131
*1332 FILLER_21_143
*1333 FILLER_21_162
*1334 FILLER_21_174
*1316 FILLER_21_2
*1318 FILLER_21_21
*1319 FILLER_21_25
*1320 FILLER_21_46
*1321 FILLER_21_51
*1322 FILLER_21_59
*1323 FILLER_21_81
*1324 FILLER_21_83
*1335 FILLER_22_0
*1346 FILLER_22_103
*1347 FILLER_22_105
*1348 FILLER_22_136
*1349 FILLER_22_144
*1350 FILLER_22_148
*1351 FILLER_22_151
*1337 FILLER_22_16
*1352 FILLER_22_160
*1353 FILLER_22_170
*1338 FILLER_22_20
*1339 FILLER_22_22
*1340 FILLER_22_27
*1341 FILLER_22_29
*1342 FILLER_22_44
*1336 FILLER_22_8
*1343 FILLER_22_88
*1344 FILLER_22_91
*1345 FILLER_22_95
*1354 FILLER_23_0
*1362 FILLER_23_108
*1363 FILLER_23_116
*1364 FILLER_23_121
*1365 FILLER_23_129
*1366 FILLER_23_141
*1367 FILLER_23_150
*1368 FILLER_23_154
*1369 FILLER_23_158
*1356 FILLER_23_16
*1370 FILLER_23_170
*1357 FILLER_23_40
*1358 FILLER_23_44
*1359 FILLER_23_52
*1360 FILLER_23_61
*1361 FILLER_23_69
*1355 FILLER_23_8
*1371 FILLER_24_0
*1383 FILLER_24_108
*1384 FILLER_24_112
*1385 FILLER_24_114
*1386 FILLER_24_139
*1387 FILLER_24_147
*1388 FILLER_24_149
*1389 FILLER_24_151
*1390 FILLER_24_155
*1391 FILLER_24_157
*1373 FILLER_24_16
*1392 FILLER_24_174
*1374 FILLER_24_24
*1375 FILLER_24_28
*1376 FILLER_24_31
*1377 FILLER_24_35
*1378 FILLER_24_63
*1379 FILLER_24_67
*1380 FILLER_24_69
*1372 FILLER_24_8
*1381 FILLER_24_91
*1382 FILLER_24_93
*1393 FILLER_25_0
*1408 FILLER_25_141
*1409 FILLER_25_149
*1395 FILLER_25_16
*1410 FILLER_25_160
*1411 FILLER_25_165
*1412 FILLER_25_174
*1396 FILLER_25_24
*1397 FILLER_25_32
*1398 FILLER_25_53
*1399 FILLER_25_57
*1400 FILLER_25_59
*1401 FILLER_25_61
*1402 FILLER_25_66
*1403 FILLER_25_71
*1404 FILLER_25_76
*1394 FILLER_25_8
*1405 FILLER_25_80
*1406 FILLER_25_88
*1407 FILLER_25_92
*1413 FILLER_26_0
*1424 FILLER_26_104
*1425 FILLER_26_110
*1426 FILLER_26_118
*1427 FILLER_26_126
*1428 FILLER_26_130
*1429 FILLER_26_132
*1430 FILLER_26_145
*1431 FILLER_26_149
*1432 FILLER_26_151
*1433 FILLER_26_153
*1434 FILLER_26_157
*1415 FILLER_26_16
*1435 FILLER_26_161
*1436 FILLER_26_166
*1437 FILLER_26_176
*1416 FILLER_26_24
*1417 FILLER_26_28
*1418 FILLER_26_31
*1419 FILLER_26_33
*1420 FILLER_26_74
*1421 FILLER_26_78
*1414 FILLER_26_8
*1422 FILLER_26_91
*1423 FILLER_26_95
*1438 FILLER_27_0
*1451 FILLER_27_104
*1452 FILLER_27_109
*1453 FILLER_27_113
*1454 FILLER_27_115
*1455 FILLER_27_119
*1456 FILLER_27_125
*1457 FILLER_27_153
*1458 FILLER_27_157
*1440 FILLER_27_16
*1459 FILLER_27_169
*1441 FILLER_27_24
*1442 FILLER_27_32
*1443 FILLER_27_48
*1444 FILLER_27_58
*1445 FILLER_27_61
*1446 FILLER_27_69
*1447 FILLER_27_71
*1448 FILLER_27_75
*1439 FILLER_27_8
*1449 FILLER_27_83
*1450 FILLER_27_95
*1460 FILLER_28_0
*1473 FILLER_28_103
*1474 FILLER_28_129
*1475 FILLER_28_138
*1476 FILLER_28_146
*1477 FILLER_28_151
*1478 FILLER_28_159
*1462 FILLER_28_16
*1479 FILLER_28_161
*1480 FILLER_28_165
*1481 FILLER_28_173
*1482 FILLER_28_177
*1463 FILLER_28_24
*1464 FILLER_28_28
*1465 FILLER_28_31
*1466 FILLER_28_39
*1467 FILLER_28_41
*1468 FILLER_28_59
*1469 FILLER_28_61
*1470 FILLER_28_65
*1471 FILLER_28_74
*1461 FILLER_28_8
*1472 FILLER_28_99
*988 FILLER_2_0
*1002 FILLER_2_107
*1003 FILLER_2_135
*1004 FILLER_2_143
*1005 FILLER_2_147
*1006 FILLER_2_149
*1007 FILLER_2_151
*1008 FILLER_2_159
*1009 FILLER_2_161
*1010 FILLER_2_170
*991 FILLER_2_31
*992 FILLER_2_35
*993 FILLER_2_37
*989 FILLER_2_4
*994 FILLER_2_58
*990 FILLER_2_6
*995 FILLER_2_62
*996 FILLER_2_83
*997 FILLER_2_87
*998 FILLER_2_89
*999 FILLER_2_91
*1000 FILLER_2_95
*1001 FILLER_2_97
*1011 FILLER_3_0
*1015 FILLER_3_130
*1016 FILLER_3_134
*1017 FILLER_3_159
*1018 FILLER_3_163
*1019 FILLER_3_172
*1020 FILLER_3_176
*1012 FILLER_3_24
*1013 FILLER_3_69
*1014 FILLER_3_73
*1021 FILLER_4_0
*1030 FILLER_4_100
*1031 FILLER_4_108
*1032 FILLER_4_137
*1033 FILLER_4_151
*1034 FILLER_4_155
*1035 FILLER_4_157
*1036 FILLER_4_166
*1022 FILLER_4_25
*1023 FILLER_4_29
*1024 FILLER_4_48
*1025 FILLER_4_73
*1026 FILLER_4_81
*1027 FILLER_4_89
*1028 FILLER_4_91
*1029 FILLER_4_95
*1037 FILLER_5_0
*1047 FILLER_5_107
*1048 FILLER_5_112
*1049 FILLER_5_121
*1050 FILLER_5_134
*1051 FILLER_5_155
*1039 FILLER_5_16
*1052 FILLER_5_163
*1053 FILLER_5_165
*1054 FILLER_5_174
*1040 FILLER_5_52
*1041 FILLER_5_61
*1042 FILLER_5_73
*1043 FILLER_5_77
*1038 FILLER_5_8
*1044 FILLER_5_82
*1045 FILLER_5_90
*1046 FILLER_5_99
*1055 FILLER_6_0
*1066 FILLER_6_131
*1067 FILLER_6_133
*1068 FILLER_6_142
*1069 FILLER_6_151
*1070 FILLER_6_156
*1057 FILLER_6_16
*1071 FILLER_6_164
*1072 FILLER_6_174
*1058 FILLER_6_24
*1059 FILLER_6_28
*1060 FILLER_6_31
*1061 FILLER_6_58
*1056 FILLER_6_8
*1062 FILLER_6_80
*1063 FILLER_6_88
*1064 FILLER_6_91
*1065 FILLER_6_93
*1073 FILLER_7_0
*1079 FILLER_7_117
*1080 FILLER_7_119
*1081 FILLER_7_141
*1082 FILLER_7_162
*1083 FILLER_7_174
*1075 FILLER_7_32
*1076 FILLER_7_56
*1077 FILLER_7_61
*1078 FILLER_7_69
*1074 FILLER_7_8
*1084 FILLER_8_0
*1092 FILLER_8_113
*1093 FILLER_8_115
*1094 FILLER_8_142
*1095 FILLER_8_151
*1096 FILLER_8_161
*1097 FILLER_8_170
*1085 FILLER_8_21
*1086 FILLER_8_29
*1087 FILLER_8_31
*1088 FILLER_8_39
*1089 FILLER_8_43
*1090 FILLER_8_85
*1091 FILLER_8_89
*1098 FILLER_9_11
*1110 FILLER_9_115
*1111 FILLER_9_119
*1112 FILLER_9_121
*1113 FILLER_9_129
*1114 FILLER_9_142
*1099 FILLER_9_15
*1115 FILLER_9_152
*1116 FILLER_9_160
*1117 FILLER_9_168
*1100 FILLER_9_19
*1101 FILLER_9_23
*1102 FILLER_9_45
*1103 FILLER_9_49
*1104 FILLER_9_51
*1105 FILLER_9_56
*1106 FILLER_9_61
*1107 FILLER_9_65
*1108 FILLER_9_75
*1109 FILLER_9_77
*762 TAP_TAPCELL_ROW_0_0
*817 TAP_TAPCELL_ROW_0_1
*818 TAP_TAPCELL_ROW_0_2
*819 TAP_TAPCELL_ROW_0_3
*820 TAP_TAPCELL_ROW_0_4
*843 TAP_TAPCELL_ROW_10_27
*844 TAP_TAPCELL_ROW_10_28
*845 TAP_TAPCELL_ROW_10_29
*846 TAP_TAPCELL_ROW_11_30
*847 TAP_TAPCELL_ROW_11_31
*848 TAP_TAPCELL_ROW_12_32
*849 TAP_TAPCELL_ROW_12_33
*850 TAP_TAPCELL_ROW_12_34
*851 TAP_TAPCELL_ROW_13_35
*852 TAP_TAPCELL_ROW_13_36
*853 TAP_TAPCELL_ROW_14_37
*854 TAP_TAPCELL_ROW_14_38
*855 TAP_TAPCELL_ROW_14_39
*856 TAP_TAPCELL_ROW_15_40
*857 TAP_TAPCELL_ROW_15_41
*858 TAP_TAPCELL_ROW_16_42
*859 TAP_TAPCELL_ROW_16_43
*860 TAP_TAPCELL_ROW_16_44
*861 TAP_TAPCELL_ROW_17_45
*862 TAP_TAPCELL_ROW_17_46
*863 TAP_TAPCELL_ROW_18_47
*864 TAP_TAPCELL_ROW_18_48
*865 TAP_TAPCELL_ROW_18_49
*866 TAP_TAPCELL_ROW_19_50
*867 TAP_TAPCELL_ROW_19_51
*821 TAP_TAPCELL_ROW_1_5
*822 TAP_TAPCELL_ROW_1_6
*868 TAP_TAPCELL_ROW_20_52
*869 TAP_TAPCELL_ROW_20_53
*870 TAP_TAPCELL_ROW_20_54
*871 TAP_TAPCELL_ROW_21_55
*872 TAP_TAPCELL_ROW_21_56
*873 TAP_TAPCELL_ROW_22_57
*874 TAP_TAPCELL_ROW_22_58
*875 TAP_TAPCELL_ROW_22_59
*876 TAP_TAPCELL_ROW_23_60
*877 TAP_TAPCELL_ROW_23_61
*878 TAP_TAPCELL_ROW_24_62
*879 TAP_TAPCELL_ROW_24_63
*880 TAP_TAPCELL_ROW_24_64
*881 TAP_TAPCELL_ROW_25_65
*882 TAP_TAPCELL_ROW_25_66
*883 TAP_TAPCELL_ROW_26_67
*884 TAP_TAPCELL_ROW_26_68
*885 TAP_TAPCELL_ROW_26_69
*886 TAP_TAPCELL_ROW_27_70
*887 TAP_TAPCELL_ROW_27_71
*888 TAP_TAPCELL_ROW_28_72
*889 TAP_TAPCELL_ROW_28_73
*890 TAP_TAPCELL_ROW_28_74
*891 TAP_TAPCELL_ROW_28_75
*892 TAP_TAPCELL_ROW_28_76
*823 TAP_TAPCELL_ROW_2_7
*824 TAP_TAPCELL_ROW_2_8
*825 TAP_TAPCELL_ROW_2_9
*826 TAP_TAPCELL_ROW_3_10
*827 TAP_TAPCELL_ROW_3_11
*828 TAP_TAPCELL_ROW_4_12
*829 TAP_TAPCELL_ROW_4_13
*830 TAP_TAPCELL_ROW_4_14
*831 TAP_TAPCELL_ROW_5_15
*832 TAP_TAPCELL_ROW_5_16
*833 TAP_TAPCELL_ROW_6_17
*834 TAP_TAPCELL_ROW_6_18
*835 TAP_TAPCELL_ROW_6_19
*836 TAP_TAPCELL_ROW_7_20
*837 TAP_TAPCELL_ROW_7_21
*838 TAP_TAPCELL_ROW_8_22
*839 TAP_TAPCELL_ROW_8_23
*840 TAP_TAPCELL_ROW_8_24
*841 TAP_TAPCELL_ROW_9_25
*842 TAP_TAPCELL_ROW_9_26
*453 _185_
*454 _186_
*455 _187_
*456 _188_
*457 _189_
*458 _190_
*459 _191_
*460 _192_
*461 _193_
*462 _194_
*463 _195_
*464 _196_
*465 _197_
*466 _198_
*467 _199_
*468 _200_
*469 _201_
*470 _202_
*471 _203_
*472 _204_
*473 _205_
*474 _206_
*475 _207_
*476 _208_
*477 _209_
*478 _210_
*479 _211_
*480 _212_
*481 _213_
*482 _214_
*483 _215_
*484 _216_
*485 _217_
*486 _218_
*487 _219_
*488 _220_
*489 _221_
*490 _222_
*491 _223_
*492 _224_
*493 _225_
*494 _226_
*495 _227_
*496 _228_
*497 _229_
*498 _230_
*499 _231_
*500 _232_
*501 _233_
*502 _234_
*503 _235_
*504 _236_
*505 _237_
*506 _238_
*507 _239_
*508 _240_
*509 _241_
*510 _242_
*511 _243_
*512 _244_
*513 _245_
*514 _246_
*515 _247_
*516 _248_
*517 _249_
*518 _250_
*519 _251_
*520 _252_
*521 _253_
*522 _254_
*523 _255_
*524 _256_
*525 _257_
*526 _258_
*527 _259_
*529 _261_
*530 _262_
*531 _263_
*532 _264_
*533 _265_
*534 _266_
*535 _267_
*536 _268_
*537 _269_
*538 _270_
*539 _271_
*540 _272_
*541 _273_
*542 _274_
*543 _275_
*544 _276_
*545 _277_
*546 _278_
*547 _279_
*548 _280_
*549 _281_
*550 _282_
*551 _283_
*552 _284_
*553 _285_
*554 _286_
*555 _287_
*556 _288_
*558 _290_
*559 _291_
*560 _292_
*561 _293_
*562 _294_
*563 _295_
*564 _296_
*565 _297_
*566 _298_
*567 _299_
*568 _300_
*569 _301_
*570 _302_
*571 _303_
*572 _304_
*573 _305_
*574 _306_
*575 _307_
*576 _308_
*577 _309_
*578 _310_
*579 _311_
*580 _312_
*581 _313_
*582 _314_
*583 _315_
*584 _316_
*585 _317_
*586 _318_
*587 _319_
*588 _320_
*589 _321_
*590 _322_
*591 _323_
*592 _324_
*593 _325_
*594 _326_
*595 _327_
*596 _328_
*597 _329_
*598 _330_
*599 _331_
*600 _332_
*601 _333_
*602 _334_
*603 _335_
*604 _336_
*605 _337_
*606 _338_
*607 _339_
*608 _340_
*609 _341_
*610 _342_
*611 _343_
*612 _344_
*613 _345_
*614 _346_
*615 _347_
*616 _348_
*617 _349_
*618 _350_
*619 _351_
*620 _352_
*621 _353_
*622 _354_
*623 _355_
*624 _356_
*625 _357_
*626 _358_
*627 _359_
*628 _360_
*629 _361_
*630 _362_
*631 _363_
*632 _364_
*633 _365_
*634 _366_
*635 _367_
*636 _368_
*637 _369_
*638 _370_
*639 _371_
*640 _372_
*641 _373_
*642 _374_
*643 _375_
*644 _376_
*645 _377_
*646 _378_
*647 _379_
*648 _380_
*649 _381_
*650 _382_
*651 _383_
*652 _384_
*653 _385_
*654 _386_
*655 _387_
*656 _388_
*657 _389_
*658 _390_
*659 _391_
*660 _392_
*661 _393_
*662 _394_
*663 _395_
*664 _396_
*665 _397_
*666 _398_
*667 _399_
*668 _400_
*669 _401_
*670 _402_
*671 _403_
*672 _404_
*673 _405_
*674 _406_
*675 _407_
*676 _408_
*677 _409_
*678 _410_
*679 _411_
*680 _412_
*681 _413_
*682 _414_
*683 _415_
*684 _416_
*685 _417_
*686 _418_
*687 _419_
*688 _420_
*689 _421_
*690 _422_
*691 _423_
*692 _424_
*693 _425_
*694 _426_
*695 _427_
*696 _428_
*697 _429_
*698 _430_
*699 _431_
*700 _432_
*701 _433_
*702 _434_
*703 _435_
*704 _436_
*705 _437_
*706 _438_
*707 _439_
*708 _440_
*709 _441_
*710 _442_
*711 _443_
*712 _444_
*713 _445_
*714 _446_
*715 _447_
*716 _448_
*816 _448__2
*718 _449_
*719 _450_
*720 _451_
*721 _452_
*722 _453_
*717 _453__3
*724 _454_
*723 _454__4
*726 _455_
*727 _456_
*728 _457_
*729 _458_
*730 _459_
*731 _460_
*732 _461_
*733 _462_
*734 _463_
*735 _464_
*736 _465_
*737 _466_
*738 _467_
*739 _468_
*740 _469_
*741 _470_
*742 _471_
*743 _472_
*744 _473_
*745 _474_
*746 _475_
*747 _476_
*748 _477_
*749 _478_
*750 _479_
*751 _480_
*752 _481_
*753 _482_
*754 _483_
*755 _484_
*756 _485_
*757 _486_
*758 _487_
*759 _488_
*725 _488__5
*760 _490__6
*918 clkbuf_0_clk_i
*919 clkbuf_3_0__f_clk_i
*920 clkbuf_3_1__f_clk_i
*921 clkbuf_3_2__f_clk_i
*922 clkbuf_3_3__f_clk_i
*923 clkbuf_3_4__f_clk_i
*924 clkbuf_3_5__f_clk_i
*925 clkbuf_3_6__f_clk_i
*926 clkbuf_3_7__f_clk_i
*927 clkload0
*928 clkload1
*929 clkload2
*930 clkload3
*931 clkload4
*932 clkload5
*933 hold89
*934 hold90
*935 hold91
*936 hold92
*937 hold93
*812 input10
*811 input11
*810 input12
*809 input13
*808 input14
*807 input15
*806 input16
*805 input17
*804 input18
*803 input19
*802 input20
*801 input21
*800 input22
*799 input23
*798 input24
*797 input25
*796 input26
*795 input27
*794 input28
*793 input29
*792 input30
*791 input31
*790 input32
*789 input33
*788 input34
*787 input35
*786 input36
*785 input37
*784 input38
*783 input39
*782 input40
*815 input7
*814 input8
*813 input9
*781 output41
*780 output42
*779 output43
*778 output44
*777 output45
*776 output46
*775 output47
*774 output48
*773 output49
*772 output50
*771 output51
*770 output52
*769 output53
*768 output54
*767 output55
*766 output56
*765 output57
*764 output58
*763 output59
*761 output60
*557 output61
*528 output62
*893 output63
*894 output64
*895 output65
*896 output66
*897 output67
*898 output68
*899 output69
*900 output70
*901 output71
*902 output72
*903 output73
*904 output74
*905 output75
*906 output76
*907 output77
*908 output78
*909 output79
*910 output80
*911 output81
*912 output82
*913 output83
*914 output84
*915 output85
*917 place87
*916 place88

*PORTS
cio_gpio_en_o[0] O
cio_gpio_en_o[1] O
cio_gpio_en_o[2] O
cio_gpio_en_o[3] O
cio_gpio_i[0] I
cio_gpio_i[1] I
cio_gpio_i[2] I
cio_gpio_i[3] I
cio_gpio_o[0] O
cio_gpio_o[1] O
cio_gpio_o[2] O
cio_gpio_o[3] O
clk_i I
intr_gpio_o[0] O
intr_gpio_o[1] O
intr_gpio_o[2] O
intr_gpio_o[3] O
reg_req_i[0] I
reg_req_i[10] I
reg_req_i[11] I
reg_req_i[12] I
reg_req_i[13] I
reg_req_i[14] I
reg_req_i[15] I
reg_req_i[16] I
reg_req_i[17] I
reg_req_i[18] I
reg_req_i[19] I
reg_req_i[1] I
reg_req_i[20] I
reg_req_i[21] I
reg_req_i[22] I
reg_req_i[23] I
reg_req_i[24] I
reg_req_i[25] I
reg_req_i[26] I
reg_req_i[27] I
reg_req_i[28] I
reg_req_i[29] I
reg_req_i[2] I
reg_req_i[30] I
reg_req_i[31] I
reg_req_i[32] I
reg_req_i[33] I
reg_req_i[34] I
reg_req_i[35] I
reg_req_i[36] I
reg_req_i[37] I
reg_req_i[38] I
reg_req_i[39] I
reg_req_i[3] I
reg_req_i[40] I
reg_req_i[41] I
reg_req_i[4] I
reg_req_i[5] I
reg_req_i[6] I
reg_req_i[7] I
reg_req_i[8] I
reg_req_i[9] I
reg_rsp_o[0] O
reg_rsp_o[10] O
reg_rsp_o[11] O
reg_rsp_o[12] O
reg_rsp_o[13] O
reg_rsp_o[14] O
reg_rsp_o[15] O
reg_rsp_o[16] O
reg_rsp_o[17] O
reg_rsp_o[18] O
reg_rsp_o[19] O
reg_rsp_o[1] O
reg_rsp_o[20] O
reg_rsp_o[21] O
reg_rsp_o[22] O
reg_rsp_o[23] O
reg_rsp_o[24] O
reg_rsp_o[25] O
reg_rsp_o[26] O
reg_rsp_o[27] O
reg_rsp_o[28] O
reg_rsp_o[29] O
reg_rsp_o[2] O
reg_rsp_o[30] O
reg_rsp_o[31] O
reg_rsp_o[32] O
reg_rsp_o[33] O
reg_rsp_o[3] O
reg_rsp_o[4] O
reg_rsp_o[5] O
reg_rsp_o[6] O
reg_rsp_o[7] O
reg_rsp_o[8] O
reg_rsp_o[9] O
rst_ni I

*D_NET *1 0.00107951
*CONN
*I *713:D I *D sky130_fd_sc_hd__dfrtp_1
*I *530:Y O *D sky130_fd_sc_hd__o21ai_0
*CAP
1 *713:D 0.000357243
2 *530:Y 0.000357243
3 *713:D *530:A1 0.000160942
4 *713:D *713:RESET_B 0.000152857
5 *713:D *438:76 5.12229e-05
*RES
1 *530:Y *713:D 33.9359 
*END

*D_NET *2 0.00048813
*CONN
*I *712:D I *D sky130_fd_sc_hd__dfrtp_1
*I *533:Y O *D sky130_fd_sc_hd__o21ai_0
*CAP
1 *712:D 0.000100617
2 *533:Y 0.000100617
3 *712:D *533:B1 0.000183398
4 *712:D *212:20 3.17429e-05
5 *712:D *440:125 7.17549e-05
*RES
1 *533:Y *712:D 31.1629 
*END

*D_NET *3 0.000969297
*CONN
*I *711:D I *D sky130_fd_sc_hd__dfrtp_1
*I *536:Y O *D sky130_fd_sc_hd__o21ai_0
*CAP
1 *711:D 0.000433733
2 *536:Y 0.000433733
3 *711:D *535:B 3.2648e-05
4 *711:D *696:RESET_B 5.45757e-05
5 *711:D *68:10 1.46079e-05
*RES
1 *536:Y *711:D 37.6788 
*END

*D_NET *4 0.000562664
*CONN
*I *709:D I *D sky130_fd_sc_hd__dfrtp_1
*I *537:X O *D sky130_fd_sc_hd__mux2_1
*CAP
1 *709:D 0.000160256
2 *537:X 0.000160256
3 *709:D *537:A0 0.000167076
4 *709:D *709:RESET_B 1.07248e-05
5 *709:D *709:CLK 2.68928e-05
6 *709:D *54:164 3.74593e-05
*RES
1 *537:X *709:D 31.1629 
*END

*D_NET *5 0.000547678
*CONN
*I *708:D I *D sky130_fd_sc_hd__dfrtp_1
*I *538:X O *D sky130_fd_sc_hd__mux2_1
*CAP
1 *708:D 0.000173206
2 *538:X 0.000173206
3 *708:D *538:A0 0.000171273
4 *708:D *700:RESET_B 0
5 *708:D *232:28 2.99929e-05
*RES
1 *538:X *708:D 31.1629 
*END

*D_NET *6 0.000444735
*CONN
*I *707:D I *D sky130_fd_sc_hd__dfrtp_1
*I *539:X O *D sky130_fd_sc_hd__mux2_1
*CAP
1 *707:D 0.0002043
2 *539:X 0.0002043
3 *707:D *499:B 3.61346e-05
4 *707:D *539:A0 0
5 *707:D *438:294 0
*RES
1 *539:X *707:D 32.4086 
*END

*D_NET *7 0.00122225
*CONN
*I *705:D I *D sky130_fd_sc_hd__dfrtp_1
*I *540:X O *D sky130_fd_sc_hd__mux2_1
*CAP
1 *705:D 0.000447367
2 *540:X 0.000447367
3 *705:D *540:S 0.000239433
4 *705:D *705:RESET_B 8.50804e-05
5 *705:D *812:A 0
6 *705:D *438:86 3.00174e-06
*RES
1 *540:X *705:D 40.3012 
*END

*D_NET *8 0.000684371
*CONN
*I *704:D I *D sky130_fd_sc_hd__dfrtp_1
*I *541:X O *D sky130_fd_sc_hd__mux2_1
*CAP
1 *704:D 0.000316098
2 *541:X 0.000316098
3 *704:D *541:A1 3.66137e-05
4 *704:D *541:S 4.30017e-06
5 *704:D *247:25 1.12605e-05
*RES
1 *541:X *704:D 32.8267 
*END

*D_NET *9 0.00045164
*CONN
*I *703:D I *D sky130_fd_sc_hd__dfrtp_1
*I *542:X O *D sky130_fd_sc_hd__mux2_1
*CAP
1 *703:D 0.000143671
2 *542:X 0.000143671
3 *703:D *471:B1 6.27782e-05
4 *703:D *324:97 0
5 *703:D *438:282 0.00010152
*RES
1 *542:X *703:D 30.7771 
*END

*D_NET *10 0.000750418
*CONN
*I *701:D I *D sky130_fd_sc_hd__dfrtp_1
*I *543:X O *D sky130_fd_sc_hd__mux2_1
*CAP
1 *701:D 0.000284943
2 *543:X 0.000284943
3 *701:D reg_rsp_o[20] 0
4 *701:D *543:A0 2.84758e-05
5 *701:D *546:A 4.91493e-05
6 *701:D *54:164 5.85383e-05
7 *701:D *54:183 4.43681e-05
*RES
1 *543:X *701:D 33.9303 
*END

*D_NET *11 0.000325934
*CONN
*I *700:D I *D sky130_fd_sc_hd__dfrtp_1
*I *544:X O *D sky130_fd_sc_hd__mux2_1
*CAP
1 *700:D 0.000150531
2 *544:X 0.000150531
3 *700:D *544:A0 2.48716e-05
*RES
1 *544:X *700:D 30.4689 
*END

*D_NET *12 0.00205472
*CONN
*I *699:D I *D sky130_fd_sc_hd__dfrtp_1
*I *545:X O *D sky130_fd_sc_hd__mux2_1
*CAP
1 *699:D 0.000518373
2 *545:X 0.000518373
3 *699:D *545:A1 0.000123582
4 *699:D *649:A1 0.000138334
5 *699:D *683:D 5.26711e-05
6 *699:D *54:82 0
7 *699:D *163:18 0.000138468
8 *699:D *235:27 4.53418e-05
9 *699:D *235:29 0.000183556
10 *699:D *289:20 5.43261e-05
11 *699:D *438:306 0.0002817
*RES
1 *545:X *699:D 42.2382 
*END

*D_NET *13 0.000385605
*CONN
*I *697:D I *D sky130_fd_sc_hd__dfrtp_1
*I *548:Y O *D sky130_fd_sc_hd__o21ai_0
*CAP
1 *697:D 0.000172007
2 *548:Y 0.000172007
3 *697:D *697:RESET_B 0
4 *697:D *438:92 1.00937e-05
5 *697:D *438:98 3.14978e-05
*RES
1 *548:Y *697:D 31.0235 
*END

*D_NET *14 0.000957099
*CONN
*I *696:D I *D sky130_fd_sc_hd__dfrtp_1
*I *551:Y O *D sky130_fd_sc_hd__o21ai_0
*CAP
1 *696:D 0.000186948
2 *551:Y 0.000186948
3 *696:D *560:B 1.78514e-05
4 *696:D *687:CLK 0.000122378
5 *696:D *692:D 0.000130777
6 *696:D *243:10 0.000263114
7 *696:D *439:148 4.90829e-05
*RES
1 *551:Y *696:D 34.3456 
*END

*D_NET *15 0.00056018
*CONN
*I *695:D I *D sky130_fd_sc_hd__dfrtp_1
*I *554:Y O *D sky130_fd_sc_hd__o21ai_0
*CAP
1 *695:D 0.000123656
2 *554:Y 0.000123656
3 *695:D *472:A2 5.04829e-06
4 *695:D *554:B1 8.687e-05
5 *695:D *52:76 0.00015607
6 *695:D *242:6 5.90501e-05
7 *695:D *324:95 4.23614e-06
8 *695:D *324:97 1.59362e-06
*RES
1 *554:Y *695:D 31.1629 
*END

*D_NET *16 0.000847069
*CONN
*I *693:D I *D sky130_fd_sc_hd__dfrtp_1
*I *559:Y O *D sky130_fd_sc_hd__o21ai_0
*CAP
1 *693:D 0.000284026
2 *559:Y 0.000284026
3 *693:D *510:A2 7.18205e-05
4 *693:D *559:B1 0
5 *693:D *578:B 3.55179e-05
6 *693:D *726:RESET_B 0
7 *693:D *727:RESET_B 1.59362e-06
8 *693:D *728:CLK 0.000170084
*RES
1 *559:Y *693:D 35.0367 
*END

*D_NET *17 0.000595568
*CONN
*I *692:D I *D sky130_fd_sc_hd__dfrtp_1
*I *561:Y O *D sky130_fd_sc_hd__o21ai_0
*CAP
1 *692:D 0.000232396
2 *561:Y 0.000232396
3 *692:D *560:B 0
4 *696:D *692:D 0.000130777
*RES
1 *561:Y *692:D 33.3757 
*END

*D_NET *18 0.00071715
*CONN
*I *691:D I *D sky130_fd_sc_hd__dfrtp_1
*I *563:Y O *D sky130_fd_sc_hd__o21ai_0
*CAP
1 *691:D 0.000220298
2 *563:Y 0.000220298
3 *691:D *691:RESET_B 9.46208e-05
4 *691:D *94:18 0.000181934
5 *691:D *96:127 0
*RES
1 *563:Y *691:D 33.7938 
*END

*D_NET *19 0.0004236
*CONN
*I *689:D I *D sky130_fd_sc_hd__dfrtp_1
*I *565:Y O *D sky130_fd_sc_hd__o21ai_0
*CAP
1 *689:D 0.000105371
2 *565:Y 0.000105371
3 *689:D *756:RESET_B 2.85865e-05
4 *689:D *240:25 0.000121494
5 *689:D *438:68 6.27782e-05
*RES
1 *565:Y *689:D 30.4689 
*END

*D_NET *20 0.00163951
*CONN
*I *688:D I *D sky130_fd_sc_hd__dfrtp_1
*I *567:Y O *D sky130_fd_sc_hd__o21ai_0
*CAP
1 *688:D 0.000291611
2 *567:Y 0.000291611
3 *688:D *468:A2 1.1957e-05
4 *688:D *513:A2 0.000164829
5 *688:D *513:B2 0.000196638
6 *688:D *567:A2 6.08467e-05
7 *688:D *567:B1 5.04829e-06
8 *688:D *745:RESET_B 5.302e-05
9 *688:D *54:105 7.93892e-05
10 *688:D *189:14 0.000484559
*RES
1 *567:Y *688:D 38.9456 
*END

*D_NET *21 0.0005237
*CONN
*I *687:D I *D sky130_fd_sc_hd__dfrtp_1
*I *569:Y O *D sky130_fd_sc_hd__o21ai_0
*CAP
1 *687:D 0.000179812
2 *569:Y 0.000179812
3 *687:D *96:112 0.000132017
4 *687:D *288:18 3.20593e-05
*RES
1 *569:Y *687:D 33.0676 
*END

*D_NET *22 0.0006683
*CONN
*I *683:D I *D sky130_fd_sc_hd__dfrtp_1
*I *649:Y O *D sky130_fd_sc_hd__a21oi_1
*CAP
1 *683:D 0.000153774
2 *649:Y 0.000153774
3 *683:D *649:A1 2.83365e-05
4 *683:D *442:47 0.000116385
5 *683:D *442:71 0.000163359
6 *699:D *683:D 5.26711e-05
*RES
1 *649:Y *683:D 32.6523 
*END

*D_NET *23 0.000612535
*CONN
*I *684:D I *D sky130_fd_sc_hd__dfrtp_1
*I *653:Y O *D sky130_fd_sc_hd__a21oi_1
*CAP
1 *684:D 0.000234839
2 *653:Y 0.000234839
3 *684:D *455:A2 6.65668e-05
4 *684:D *653:B1 1.72399e-05
5 *684:D *684:CLK 5.90509e-05
*RES
1 *653:Y *684:D 32.0859 
*END

*D_NET *24 0.00131548
*CONN
*I *685:D I *D sky130_fd_sc_hd__dfrtp_1
*I *657:Y O *D sky130_fd_sc_hd__a21oi_1
*CAP
1 *685:D 0.000328204
2 *657:Y 0.000328204
3 *685:D *461:A2 0.000137222
4 *685:D *461:B1 8.36586e-06
5 *685:D *487:B 0.000114584
6 *685:D *543:A1 8.03393e-06
7 *685:D *559:A1 5.61389e-05
8 *685:D *37:10 2.44969e-05
9 *685:D *201:22 5.64475e-05
10 *685:D *213:24 8.23626e-05
11 *685:D *237:14 8.62219e-05
12 *685:D *237:36 8.51945e-05
*RES
1 *657:Y *685:D 47.1173 
*END

*D_NET *25 0.00115076
*CONN
*I *686:D I *D sky130_fd_sc_hd__dfrtp_1
*I *661:Y O *D sky130_fd_sc_hd__a21oi_1
*CAP
1 *686:D 0.000345592
2 *661:Y 0.000345592
3 *686:D *56:166 3.07542e-05
4 *686:D *68:61 0.000428826
*RES
1 *661:Y *686:D 34.3512 
*END

*D_NET *26 0.000515706
*CONN
*I *690:D I *D sky130_fd_sc_hd__dfrtp_1
*I *664:Y O *D sky130_fd_sc_hd__o21ai_0
*CAP
1 *690:D 0.000104843
2 *664:Y 0.000104843
3 *690:D *174:14 2.53347e-05
4 *690:D *324:217 0.000187693
5 *690:D *438:216 9.29919e-05
*RES
1 *664:Y *690:D 31.1629 
*END

*D_NET *27 0.000359061
*CONN
*I *694:D I *D sky130_fd_sc_hd__dfrtp_1
*I *667:Y O *D sky130_fd_sc_hd__o21ai_0
*CAP
1 *694:D 0.000110492
2 *667:Y 0.000110492
3 *694:D *666:A 1.61631e-05
4 *694:D *667:A2 2.15184e-05
5 *694:D *96:82 4.84618e-05
6 *694:D *384:158 5.19347e-05
*RES
1 *667:Y *694:D 30.4689 
*END

*D_NET *28 0.000505616
*CONN
*I *698:D I *D sky130_fd_sc_hd__dfrtp_1
*I *669:Y O *D sky130_fd_sc_hd__o21ai_0
*CAP
1 *698:D 0.000108994
2 *669:Y 0.000108994
3 *698:D *68:10 9.29919e-05
4 *698:D *245:8 0.00015901
5 *698:D *324:194 3.00174e-06
6 *698:D *324:217 3.26247e-05
*RES
1 *669:Y *698:D 31.1629 
*END

*D_NET *29 0.00075382
*CONN
*I *702:D I *D sky130_fd_sc_hd__dfrtp_1
*I *672:Y O *D sky130_fd_sc_hd__a21oi_1
*CAP
1 *702:D 0.000195228
2 *672:Y 0.000195228
3 *702:D *672:B1 0
4 *702:D *910:A 8.03724e-05
5 *702:D *932:A 5.85957e-05
6 *702:D *56:145 0.000224395
*RES
1 *672:Y *702:D 33.3785 
*END

*D_NET *30 0.000765685
*CONN
*I *706:D I *D sky130_fd_sc_hd__dfrtp_1
*I *674:Y O *D sky130_fd_sc_hd__a21oi_1
*CAP
1 *706:D 0.000231154
2 *674:Y 0.000231154
3 *706:D *480:A 3.07073e-05
4 *706:D *674:A1 0.000140758
5 *706:D *706:CLK 7.621e-05
6 *706:D *64:10 5.57012e-05
*RES
1 *674:Y *706:D 34.4849 
*END

*D_NET *31 0.000978663
*CONN
*I *710:D I *D sky130_fd_sc_hd__dfrtp_1
*I *675:X O *D sky130_fd_sc_hd__mux2_1
*CAP
1 *710:D 0.000264782
2 *675:X 0.000264782
3 *710:D *710:CLK 0
4 *710:D *56:139 0.000321919
5 *710:D *438:197 0.000127179
*RES
1 *675:X *710:D 33.242 
*END

*D_NET *32 0.00140136
*CONN
*I *714:D I *D sky130_fd_sc_hd__dfrtp_1
*I *677:Y O *D sky130_fd_sc_hd__o21ai_0
*CAP
1 *714:D 0.000587894
2 *677:Y 0.000587894
3 *714:D *677:A2 1.6732e-05
4 *714:D *677:B1 4.29314e-06
5 *714:D *714:RESET_B 0.000105959
6 *714:D *721:CLK 0
7 *714:D *757:D 0
8 *714:D *324:217 2.69064e-05
9 *714:D *447:118 7.16754e-05
*RES
1 *677:Y *714:D 40.7487 
*END

*D_NET *33 0.00122342
*CONN
*I *653:A1 I *D sky130_fd_sc_hd__a21oi_1
*I *455:A2 I *D sky130_fd_sc_hd__o21ai_1
*I *453:Y O *D sky130_fd_sc_hd__inv_1
*CAP
1 *653:A1 0
2 *455:A2 0.000323464
3 *453:Y 0.000156226
4 *33:10 0.00047969
5 *455:A2 *455:A1 3.25584e-05
6 *455:A2 *455:B1 0
7 *455:A2 *684:RESET_B 6.34773e-05
8 *33:10 *454:A 3.64243e-05
9 *33:10 *684:RESET_B 6.50088e-05
10 *684:D *455:A2 6.65668e-05
*RES
1 *453:Y *33:10 17.4123 
2 *33:10 *455:A2 21.151 
3 *33:10 *653:A1 13.7491 
*END

*D_NET *34 0.00125583
*CONN
*I *455:B1 I *D sky130_fd_sc_hd__o21ai_1
*I *454:Y O *D sky130_fd_sc_hd__nand2_1
*CAP
1 *455:B1 0.00027413
2 *454:Y 0.00027413
3 *455:B1 *454:A 2.16355e-05
4 *455:B1 *454:B 0.000143161
5 *455:B1 *684:RESET_B 8.36429e-06
6 *455:B1 *755:CLK 1.07248e-05
7 *455:B1 *355:10 0.000122992
8 *455:B1 *441:74 5.35029e-05
9 *455:B1 *441:78 0.000181635
10 *455:B1 *441:80 0.000165559
11 *455:A2 *455:B1 0
*RES
1 *454:Y *455:B1 37.113 
*END

*D_NET *35 0.00102734
*CONN
*I *458:A2 I *D sky130_fd_sc_hd__o21ai_1
*I *649:A1 I *D sky130_fd_sc_hd__a21oi_1
*I *456:Y O *D sky130_fd_sc_hd__inv_1
*CAP
1 *458:A2 0.000116227
2 *649:A1 8.87487e-05
3 *456:Y 0.000134305
4 *35:6 0.00033928
5 *458:A2 *699:RESET_B 3.03812e-05
6 *458:A2 *235:27 6.08467e-05
7 *649:A1 *442:71 1.60687e-05
8 *35:6 *699:RESET_B 7.4808e-05
9 *683:D *649:A1 2.83365e-05
10 *699:D *649:A1 0.000138334
*RES
1 *456:Y *35:6 11.3591 
2 *35:6 *649:A1 20.9116 
3 *35:6 *458:A2 11.0817 
*END

*D_NET *36 0.000433893
*CONN
*I *458:B1 I *D sky130_fd_sc_hd__o21ai_1
*I *457:Y O *D sky130_fd_sc_hd__nand2_1
*CAP
1 *458:B1 3.30476e-05
2 *457:Y 3.30476e-05
3 *458:B1 *648:A 0.000112361
4 *458:B1 *235:27 0.000211546
5 *458:B1 *442:41 4.38909e-05
*RES
1 *457:Y *458:B1 20.8855 
*END

*D_NET *37 0.00182936
*CONN
*I *461:A2 I *D sky130_fd_sc_hd__o21ai_1
*I *657:A1 I *D sky130_fd_sc_hd__a21oi_1
*I *459:Y O *D sky130_fd_sc_hd__inv_1
*CAP
1 *461:A2 0.000123325
2 *657:A1 0
3 *459:Y 0.000242714
4 *37:10 0.000366039
5 *461:A2 *461:B1 3.20264e-05
6 *461:A2 *464:B1 0.000218503
7 *461:A2 *559:A1 0.000157107
8 *461:A2 *923:A 2.41274e-06
9 *461:A2 *201:22 1.19705e-05
10 *37:10 *459:A 1.88333e-05
11 *37:10 *464:B1 0.000346563
12 *37:10 *444:89 0.000148144
13 *685:D *461:A2 0.000137222
14 *685:D *37:10 2.44969e-05
*RES
1 *459:Y *37:10 21.289 
2 *37:10 *657:A1 13.7491 
3 *37:10 *461:A2 19.49 
*END

*D_NET *38 0.0019709
*CONN
*I *461:B1 I *D sky130_fd_sc_hd__o21ai_1
*I *460:Y O *D sky130_fd_sc_hd__nand2_1
*CAP
1 *461:B1 0.000450494
2 *460:Y 0.000450494
3 *461:B1 *460:A 0.000237908
4 *461:B1 *460:B 6.98087e-05
5 *461:B1 *464:A1 0.000188544
6 *461:B1 *464:B1 0.000111703
7 *461:B1 *201:22 0.000347784
8 *461:B1 *445:73 7.37686e-05
9 *461:A2 *461:B1 3.20264e-05
10 *685:D *461:B1 8.36586e-06
*RES
1 *460:Y *461:B1 41.5442 
*END

*D_NET *39 0.000309175
*CONN
*I *463:A1 I *D sky130_fd_sc_hd__a21oi_1
*I *462:Y O *D sky130_fd_sc_hd__inv_1
*CAP
1 *463:A1 5.13635e-05
2 *462:Y 5.13635e-05
3 *463:A1 *465:A2 1.72971e-05
4 *463:A1 *481:B1 0.000189151
*RES
1 *462:Y *463:A1 20.6082 
*END

*D_NET *40 0.000844474
*CONN
*I *465:A2 I *D sky130_fd_sc_hd__a21oi_1
*I *463:Y O *D sky130_fd_sc_hd__a21oi_1
*CAP
1 *465:A2 0.000268662
2 *463:Y 0.000268662
3 *465:A2 *462:A 5.17299e-06
4 *465:A2 *464:A1 0.000111722
5 *465:A2 *465:A1 2.36813e-05
6 *465:A2 *481:B1 1.14872e-06
7 *465:A2 *438:86 0.000148129
8 *463:A1 *465:A2 1.72971e-05
*RES
1 *463:Y *465:A2 33.1026 
*END

*D_NET *41 0.000159846
*CONN
*I *465:B1 I *D sky130_fd_sc_hd__a21oi_1
*I *464:Y O *D sky130_fd_sc_hd__a211oi_1
*CAP
1 *465:B1 3.16917e-05
2 *464:Y 3.16917e-05
3 *465:B1 *720:CLK 2.65831e-05
4 *465:B1 *54:200 0
5 *465:B1 *201:44 6.9879e-05
6 *465:B1 *438:86 0
*RES
1 *464:Y *465:B1 19.8004 
*END

*D_NET *42 0.00114409
*CONN
*I *467:A1 I *D sky130_fd_sc_hd__a21oi_1
*I *466:Y O *D sky130_fd_sc_hd__inv_1
*CAP
1 *467:A1 0.000313305
2 *466:Y 0.000313305
3 *467:A1 *466:A 5.42866e-06
4 *467:A1 *468:A1 5.30015e-05
5 *467:A1 *468:A2 0.000160612
6 *467:A1 *532:B 2.58757e-05
7 *467:A1 *688:RESET_B 4.46802e-06
8 *467:A1 *239:18 2.30636e-05
9 *467:A1 *324:54 0.000245028
*RES
1 *466:Y *467:A1 35.0704 
*END

*D_NET *43 0.00236631
*CONN
*I *469:A2 I *D sky130_fd_sc_hd__a21oi_1
*I *467:Y O *D sky130_fd_sc_hd__a21oi_1
*CAP
1 *469:A2 0.000550342
2 *467:Y 0.000550342
3 *469:A2 *467:B1 5.04829e-06
4 *469:A2 *468:C1 0.000403461
5 *469:A2 *469:A1 0.000187883
6 *469:A2 *532:B 2.58757e-05
7 *469:A2 *719:RESET_B 0.000101133
8 *469:A2 *54:134 0
9 *469:A2 *239:18 8.15566e-05
10 *469:A2 *324:54 0.000460665
*RES
1 *467:Y *469:A2 45.8389 
*END

*D_NET *44 0.00248922
*CONN
*I *469:B1 I *D sky130_fd_sc_hd__a21oi_1
*I *468:Y O *D sky130_fd_sc_hd__a211oi_1
*CAP
1 *469:B1 0.000574476
2 *468:Y 0.000574476
3 *469:B1 *469:A1 0.000112361
4 *469:B1 *688:CLK 0.000408558
5 *469:B1 *745:D 4.39194e-05
6 *469:B1 *54:111 0.000111208
7 *469:B1 *212:20 0.000632184
8 *469:B1 *440:129 3.20407e-05
*RES
1 *468:Y *469:B1 47.5377 
*END

*D_NET *45 0.000637609
*CONN
*I *471:A1 I *D sky130_fd_sc_hd__a21oi_1
*I *470:Y O *D sky130_fd_sc_hd__inv_1
*CAP
1 *471:A1 0.000189762
2 *470:Y 0.000189762
3 *471:A1 *514:A 0.000179856
4 *471:A1 *438:276 1.41431e-05
5 *471:A1 *442:148 6.40849e-05
*RES
1 *470:Y *471:A1 31.0249 
*END

*D_NET *46 0.00125838
*CONN
*I *473:A2 I *D sky130_fd_sc_hd__a21oi_1
*I *471:Y O *D sky130_fd_sc_hd__a21oi_1
*CAP
1 *473:A2 0.000219896
2 *471:Y 0.000219896
3 *473:A2 *471:A2 1.08664e-05
4 *473:A2 *471:B1 0.0003515
5 *473:A2 *473:A1 6.27718e-05
6 *473:A2 *703:CLK 0.000188383
7 *473:A2 *718:D 0
8 *473:A2 *773:A 4.24629e-05
9 *473:A2 *442:148 0.000162606
*RES
1 *471:Y *473:A2 36.4218 
*END

*D_NET *47 0.000503889
*CONN
*I *473:B1 I *D sky130_fd_sc_hd__a21oi_1
*I *472:Y O *D sky130_fd_sc_hd__a211oi_1
*CAP
1 *473:B1 0.000120623
2 *472:Y 0.000120623
3 *473:B1 *471:B1 2.19092e-05
4 *473:B1 *472:B1 6.84737e-05
5 *473:B1 *473:A1 0.000135424
6 *473:B1 *773:A 5.04829e-06
7 *473:B1 *327:12 3.17869e-05
*RES
1 *472:Y *473:B1 31.9934 
*END

*D_NET *48 0.00062733
*CONN
*I *479:B I *D sky130_fd_sc_hd__nand3_1
*I *478:A I *D sky130_fd_sc_hd__nor2_4
*I *474:Y O *D sky130_fd_sc_hd__clkinv_1
*CAP
1 *479:B 3.58672e-05
2 *478:A 5.10069e-05
3 *474:Y 8.68741e-05
4 *478:A *53:23 0.000152123
5 *478:A *54:38 6.88027e-05
6 *479:B *478:B 6.27782e-05
7 *479:B *479:C 0.000111352
8 *479:B *53:8 1.88563e-05
9 *479:B *279:20 3.96696e-05
*RES
1 *474:Y *478:A 30.1608 
2 *474:Y *479:B 20.3309 
*END

*D_NET *49 0.00121411
*CONN
*I *477:A I *D sky130_fd_sc_hd__nand2_4
*I *479:A I *D sky130_fd_sc_hd__nand3_1
*I *475:Y O *D sky130_fd_sc_hd__nor2_2
*CAP
1 *477:A 0.000283596
2 *479:A 0.000106082
3 *475:Y 0.000155875
4 *49:6 0.000545553
5 *477:A cio_gpio_en_o[3] 0
6 *477:A *475:A 0
7 *477:A *477:B 0
8 *477:A *479:C 4.77472e-05
9 *477:A *791:A 1.58791e-05
10 *477:A *792:A 1.34768e-05
11 *477:A *794:A 2.42661e-05
12 *479:A *479:C 2.16355e-05
*RES
1 *475:Y *49:6 12.7456 
2 *49:6 *479:A 11.6605 
3 *49:6 *477:A 25.4794 
*END

*D_NET *50 0.000387155
*CONN
*I *477:B I *D sky130_fd_sc_hd__nand2_4
*I *476:Y O *D sky130_fd_sc_hd__inv_1
*CAP
1 *477:B 0.000174874
2 *476:Y 0.000174874
3 *477:B cio_gpio_o[3] 3.74074e-05
4 *477:B *56:28 0
5 *477:A *477:B 0
*RES
1 *476:Y *477:B 31.1615 
*END

*D_NET *51 0.00247451
*CONN
*I *478:B I *D sky130_fd_sc_hd__nor2_4
*I *509:B I *D sky130_fd_sc_hd__nor2_1
*I *482:B I *D sky130_fd_sc_hd__nand2_8
*I *477:Y O *D sky130_fd_sc_hd__nand2_4
*CAP
1 *478:B 0.000204869
2 *509:B 0
3 *482:B 0
4 *477:Y 0.000435208
5 *51:23 0.00033115
6 *51:10 0.000561489
7 *478:B cio_gpio_o[3] 1.00766e-05
8 *478:B *509:A 0.000107496
9 *478:B *53:23 0.000194121
10 *478:B *56:124 0.000194121
11 *478:B *96:14 6.46815e-05
12 *478:B *279:20 0.000157107
13 *51:10 cio_gpio_o[3] 1.69371e-05
14 *51:10 *52:60 2.74699e-05
15 *51:10 *96:82 0
16 *51:23 cio_gpio_o[3] 7.68134e-05
17 *51:23 *52:60 1.13359e-05
18 *51:23 *96:14 1.88563e-05
19 *479:B *478:B 6.27782e-05
*RES
1 *477:Y *51:10 21.0173 
2 *51:10 *482:B 13.7491 
3 *51:10 *51:23 8.30115 
4 *51:23 *509:B 9.24915 
5 *51:23 *478:B 26.3719 
*END

*D_NET *52 0.0236483
*CONN
*I *678:A2 I *D sky130_fd_sc_hd__a221o_1
*I *517:A I *D sky130_fd_sc_hd__nand2_1
*I *485:B2 I *D sky130_fd_sc_hd__a221o_1
*I *486:B2 I *D sky130_fd_sc_hd__a221o_1
*I *514:A I *D sky130_fd_sc_hd__nand2_1
*I *556:C_N I *D sky130_fd_sc_hd__or3b_1
*I *511:A I *D sky130_fd_sc_hd__nand2_1
*I *481:A1 I *D sky130_fd_sc_hd__a22oi_1
*I *681:A I *D sky130_fd_sc_hd__nand2_1
*I *478:Y O *D sky130_fd_sc_hd__nor2_4
*CAP
1 *678:A2 0.000140064
2 *517:A 3.58004e-05
3 *485:B2 1.01279e-05
4 *486:B2 6.04856e-06
5 *514:A 0.000683431
6 *556:C_N 0.00042013
7 *511:A 0.0001416
8 *481:A1 5.97236e-05
9 *681:A 0.000105046
10 *478:Y 4.34621e-05
11 *52:76 0.00164907
12 *52:68 0.00141491
13 *52:64 0.000532568
14 *52:62 0.000361452
15 *52:60 0.000809607
16 *52:25 0.00228176
17 *52:21 0.0027949
18 *52:10 0.000895633
19 *52:6 0.000962818
20 *481:A1 *481:A2 5.04829e-06
21 *481:A1 *481:B1 3.75603e-05
22 *481:A1 *558:B 2.65667e-05
23 *481:A1 *686:CLK 3.01683e-06
24 *485:B2 *485:C1 1.18677e-05
25 *485:B2 *186:25 3.27324e-05
26 *486:B2 *486:C1 5.22859e-06
27 *486:B2 *516:B2 5.22859e-06
28 *511:A *779:A 0.000326171
29 *511:A *56:166 0.000138941
30 *514:A *468:A2 0.000174906
31 *514:A *472:A1 0.000276994
32 *514:A *472:A2 7.35e-05
33 *514:A *566:A 8.67924e-06
34 *514:A *588:B 6.08467e-05
35 *514:A *648:A 6.08467e-05
36 *514:A *649:A2 6.08467e-05
37 *514:A *649:B1 7.93063e-05
38 *514:A *96:141 0.00244354
39 *514:A *243:30 0.000217139
40 *514:A *327:12 4.39063e-05
41 *556:C_N *643:A1 1.53563e-05
42 *556:C_N *230:8 5.04829e-06
43 *556:C_N *234:14 0.000337204
44 *678:A2 *666:B 1.82679e-05
45 *678:A2 *678:B2 3.24516e-05
46 *678:A2 *915:A 1.05504e-05
47 *678:A2 *188:12 3.66437e-05
48 *681:A *680:A2 1.65078e-05
49 *681:A *682:B 0.000213014
50 *681:A *682:C 0.000187856
51 *52:6 reg_rsp_o[5] 4.66492e-05
52 *52:10 reg_rsp_o[5] 6.08467e-05
53 *52:10 *682:A 2.23108e-05
54 *52:10 *911:A 3.0948e-05
55 *52:21 intr_gpio_o[3] 0
56 *52:21 *643:A1 3.27905e-05
57 *52:21 *680:A2 1.42919e-05
58 *52:21 *770:A 3.2059e-05
59 *52:21 *68:61 0
60 *52:21 *234:14 3.65454e-05
61 *52:21 *241:16 0
62 *52:25 *481:A2 9.0148e-07
63 *52:25 *639:A 5.99182e-05
64 *52:25 *641:A2 1.0138e-05
65 *52:25 *644:A1 1.61113e-05
66 *52:25 *644:A2 0.000162005
67 *52:25 *645:A2 0.000266846
68 *52:25 *686:RESET_B 1.43848e-05
69 *52:25 *686:CLK 0.000315549
70 *52:25 *202:43 0.000141918
71 *52:25 *379:12 1.4091e-06
72 *52:60 cio_gpio_o[3] 0.000144659
73 *52:60 *54:38 0.000966771
74 *52:60 *96:14 0.000217202
75 *52:60 *96:82 0
76 *52:62 *678:C1 0.00030476
77 *52:62 *54:38 4.6752e-05
78 *52:62 *54:46 0.000544571
79 *52:62 *96:88 0
80 *52:64 *517:B 2.39287e-05
81 *52:64 *518:C 6.14273e-05
82 *52:64 *780:A 9.2346e-06
83 *52:64 *54:46 0.000200236
84 *52:68 *518:A 0
85 *52:68 *518:C 5.1573e-05
86 *52:68 *687:RESET_B 0.000619673
87 *52:68 *780:A 2.29875e-05
88 *52:68 *54:57 0
89 *52:68 *56:32 8.62166e-05
90 *52:76 *472:A2 7.66391e-06
91 *52:76 *486:A1 0.000108794
92 *52:76 *486:B1 4.12533e-05
93 *52:76 *687:RESET_B 6.14128e-05
94 *52:76 *54:59 0
95 *52:76 *242:6 0.000174891
96 *471:A1 *514:A 0.000179856
97 *695:D *52:76 0.00015607
98 *51:10 *52:60 2.74699e-05
99 *51:23 *52:60 1.13359e-05
*RES
1 *478:Y *52:6 9.97254 
2 *52:6 *52:10 11.8786 
3 *52:10 *681:A 18.4879 
4 *52:10 *52:21 6.81502 
5 *52:21 *52:25 36.2812 
6 *52:25 *481:A1 10.5513 
7 *52:25 *511:A 24.2337 
8 *52:21 *556:C_N 25.4485 
9 *52:6 *52:60 21.6963 
10 *52:60 *52:62 10.5523 
11 *52:62 *52:64 3.90826 
12 *52:64 *52:68 14.1919 
13 *52:68 *52:76 23.5671 
14 *52:76 *514:A 41.0545 
15 *52:68 *486:B2 13.924 
16 *52:64 *485:B2 14.135 
17 *52:62 *517:A 14.4725 
18 *52:60 *678:A2 17.4927 
*END

*D_NET *53 0.00698051
*CONN
*I *524:B I *D sky130_fd_sc_hd__nor2_1
*I *502:A2 I *D sky130_fd_sc_hd__o21ai_0
*I *480:A I *D sky130_fd_sc_hd__inv_6
*I *679:A2 I *D sky130_fd_sc_hd__o21ai_0
*I *482:A I *D sky130_fd_sc_hd__nand2_8
*I *479:Y O *D sky130_fd_sc_hd__nand3_1
*CAP
1 *524:B 2.12792e-05
2 *502:A2 3.57452e-05
3 *480:A 0.000105602
4 *679:A2 0.000204708
5 *482:A 6.2929e-05
6 *479:Y 7.89303e-05
7 *53:27 0.000421036
8 *53:25 0.000640229
9 *53:23 0.00113091
10 *53:8 0.000757731
11 *482:A *54:38 3.62414e-05
12 *482:A *56:124 5.27799e-05
13 *502:A2 *56:141 0.000115471
14 *679:A2 *56:141 0.0004051
15 *679:A2 *56:145 0.000114271
16 *53:8 *479:C 6.27718e-05
17 *53:23 *524:A 0.000169684
18 *53:23 *527:C 2.1667e-05
19 *53:23 *555:B 0.000122858
20 *53:23 *790:A 0.00035986
21 *53:23 *54:38 0.00010083
22 *53:23 *56:124 0.000103074
23 *53:23 *56:133 8.3723e-05
24 *53:23 *56:139 1.4106e-05
25 *53:23 *80:8 4.24488e-05
26 *53:23 *96:14 0
27 *53:23 *279:20 1.75816e-05
28 *53:25 *501:A 3.20544e-05
29 *53:25 *675:A0 0.00016386
30 *53:25 *675:S 0.000144853
31 *53:25 *56:139 0.000240574
32 *53:25 *64:10 0.000463812
33 *53:27 *56:141 9.79405e-05
34 *53:27 *64:10 0.000160047
35 *478:A *53:23 0.000152123
36 *478:B *53:23 0.000194121
37 *479:B *53:8 1.88563e-05
38 *706:D *480:A 3.07073e-05
*RES
1 *479:Y *53:8 15.0271 
2 *53:8 *482:A 15.9964 
3 *53:8 *53:23 26.8509 
4 *53:23 *53:25 16.2523 
5 *53:25 *53:27 4.05102 
6 *53:27 *679:A2 16.2661 
7 *53:27 *480:A 20.9116 
8 *53:25 *502:A2 11.2867 
9 *53:23 *524:B 9.82786 
*END

*D_NET *54 0.0447421
*CONN
*I *678:B2 I *D sky130_fd_sc_hd__a221o_1
*I *486:A2 I *D sky130_fd_sc_hd__a221o_1
*I *516:B2 I *D sky130_fd_sc_hd__a22oi_1
*I *507:A I *D sky130_fd_sc_hd__nand2_1
*I *513:B2 I *D sky130_fd_sc_hd__a22oi_1
*I *489:A I *D sky130_fd_sc_hd__nand2_1
*I *481:B2 I *D sky130_fd_sc_hd__a22oi_1
*I *510:B2 I *D sky130_fd_sc_hd__a22oi_1
*I *503:A I *D sky130_fd_sc_hd__nand2_1
*I *487:A I *D sky130_fd_sc_hd__nand2_1
*I *495:A I *D sky130_fd_sc_hd__nand2_1
*I *497:A I *D sky130_fd_sc_hd__nand2_1
*I *505:A I *D sky130_fd_sc_hd__nand2_1
*I *491:A I *D sky130_fd_sc_hd__nand2_1
*I *499:A I *D sky130_fd_sc_hd__nand2_1
*I *485:A2 I *D sky130_fd_sc_hd__a221o_1
*I *493:A I *D sky130_fd_sc_hd__nand2_1
*I *680:B2 I *D sky130_fd_sc_hd__a22oi_1
*I *480:Y O *D sky130_fd_sc_hd__inv_6
*CAP
1 *678:B2 1.06105e-05
2 *486:A2 5.78645e-06
3 *516:B2 0.000885123
4 *507:A 0
5 *513:B2 8.29077e-05
6 *489:A 0
7 *481:B2 0.000107398
8 *510:B2 0
9 *503:A 0
10 *487:A 0
11 *495:A 2.62241e-05
12 *497:A 0.000607754
13 *505:A 0.000204414
14 *491:A 1.11632e-05
15 *499:A 0
16 *485:A2 0
17 *493:A 3.5247e-05
18 *680:B2 0.000130211
19 *480:Y 0.000672808
20 *54:200 0.00070471
21 *54:183 0.00195733
22 *54:164 0.00171092
23 *54:153 0.00100522
24 *54:136 0.00123585
25 *54:134 0.00177367
26 *54:111 0.00230678
27 *54:105 0.00172001
28 *54:82 0.00207776
29 *54:67 0.00138647
30 *54:61 0.000970183
31 *54:59 0.00124856
32 *54:57 0.000433308
33 *54:46 0.000714361
34 *54:38 0.000899586
35 *54:25 0.00104207
36 *54:10 0.00122924
37 *481:B2 *463:A2 9.55447e-05
38 *481:B2 *481:B1 0.000468339
39 *481:B2 *510:A2 1.67329e-05
40 *481:B2 *558:B 6.73351e-05
41 *486:A2 *486:C1 5.94977e-06
42 *491:A *491:B 7.82817e-05
43 *491:A *683:CLK 1.09551e-05
44 *491:A *747:CLK 6.41413e-05
45 *495:A *495:B 6.27782e-05
46 *497:A *453:A 0
47 *497:A *455:A1 8.77139e-05
48 *497:A *489:B 0.000187748
49 *497:A *700:RESET_B 4.14221e-05
50 *497:A *740:D 0
51 *497:A *236:27 7.21449e-05
52 *497:A *353:10 0
53 *497:A *441:28 0
54 *505:A *468:A1 8.94934e-06
55 *505:A *532:B 9.3134e-05
56 *505:A *755:RESET_B 0.000405756
57 *505:A *440:118 6.27782e-05
58 *513:B2 *688:RESET_B 6.08467e-05
59 *513:B2 *745:RESET_B 0.000191609
60 *516:B2 *486:C1 2.87925e-05
61 *516:B2 *516:A1 4.31539e-05
62 *516:B2 *516:A2 8.66189e-06
63 *516:B2 *518:A 4.60206e-05
64 *678:B2 *666:B 1.15389e-05
65 *680:B2 *644:A2 0.000137404
66 *680:B2 *676:B 6.08467e-05
67 *680:B2 *241:16 7.77309e-06
68 *680:B2 *330:14 0.000143032
69 *680:B2 *438:197 0.000310079
70 *54:10 *643:B1 0.000148136
71 *54:10 *645:A2 1.32845e-05
72 *54:10 *706:CLK 9.50523e-05
73 *54:10 *241:16 0.00015609
74 *54:10 *438:197 0.000337034
75 *54:25 *494:A 1.43983e-05
76 *54:25 *644:A2 6.08467e-05
77 *54:25 *645:A1 0.000205985
78 *54:25 *645:A2 1.00846e-05
79 *54:25 *770:A 0.000266846
80 *54:25 *202:43 0.000164843
81 *54:38 *494:A 1.43848e-05
82 *54:38 *56:28 0.0002243
83 *54:38 *96:14 0.000116135
84 *54:38 *279:20 5.23577e-05
85 *54:46 *485:A1 2.41483e-05
86 *54:46 *485:C1 4.94676e-05
87 *54:46 *678:B1 9.29919e-05
88 *54:46 *780:A 0.000203833
89 *54:46 *913:A 0
90 *54:46 *56:28 0.000121827
91 *54:46 *56:32 7.72654e-05
92 *54:46 *186:25 1.41976e-05
93 *54:57 *485:C1 4.48988e-05
94 *54:57 *518:A 0.000310562
95 *54:57 *777:A 9.43033e-05
96 *54:57 *904:A 0.000143878
97 *54:57 *913:A 1.41976e-05
98 *54:57 *56:32 0.000117454
99 *54:57 *56:40 0.000359958
100 *54:59 *486:A1 2.4562e-05
101 *54:59 *56:40 5.56367e-05
102 *54:61 *486:A1 0.000528572
103 *54:61 *56:40 0.000862319
104 *54:61 *56:48 1.07248e-05
105 *54:61 *246:21 1.72278e-05
106 *54:67 *56:48 0.0021061
107 *54:82 *492:A 0.00026818
108 *54:82 *500:A 0.000107496
109 *54:82 *545:A0 0
110 *54:82 *545:A1 0
111 *54:82 *783:A 0
112 *54:82 *56:48 0.000105847
113 *54:82 *56:58 0.00135006
114 *54:82 *56:67 3.01683e-06
115 *54:82 *341:8 1.79196e-05
116 *54:105 *588:B 0.000109951
117 *54:105 *589:A 1.94615e-05
118 *54:105 *590:B 6.08467e-05
119 *54:105 *745:RESET_B 5.77079e-05
120 *54:105 *749:D 0.000113295
121 *54:105 *331:12 2.23125e-05
122 *54:105 *341:8 6.39033e-05
123 *54:105 *341:21 8.66819e-05
124 *54:105 *350:10 1.99054e-05
125 *54:105 *384:48 0.000101966
126 *54:105 *442:47 0
127 *54:111 *468:A1 0.000110458
128 *54:111 *468:B1 6.49003e-05
129 *54:111 *745:D 2.16355e-05
130 *54:111 *331:12 0.000683876
131 *54:134 *468:A1 4.90829e-05
132 *54:134 *490:A 0
133 *54:134 *623:B 0.000130777
134 *54:134 *719:RESET_B 0
135 *54:134 *740:D 1.41181e-05
136 *54:134 *740:RESET_B 0.00031607
137 *54:134 *746:RESET_B 5.53934e-05
138 *54:134 *755:D 0
139 *54:134 *755:RESET_B 0.000219139
140 *54:134 *755:CLK 0
141 *54:134 *324:54 0
142 *54:134 *353:10 9.62034e-05
143 *54:134 *437:113 4.3116e-06
144 *54:134 *437:115 4.99935e-05
145 *54:134 *441:8 0
146 *54:134 *441:28 8.82569e-06
147 *54:134 *441:34 1.43983e-05
148 *54:134 *441:70 0
149 *54:134 *441:74 0
150 *54:134 *441:80 0
151 *54:153 *495:B 4.76794e-05
152 *54:153 *438:102 0
153 *54:164 *495:B 0.000270181
154 *54:164 *537:A1 6.43474e-05
155 *54:164 *701:CLK 0
156 *54:164 *709:RESET_B 0.000245619
157 *54:164 *438:100 0.000155226
158 *54:164 *438:102 3.1741e-05
159 *54:183 *503:B 8.62625e-06
160 *54:183 *543:A0 5.04829e-06
161 *54:183 *543:A1 0.000570328
162 *54:183 *685:RESET_B 0.000163192
163 *54:183 *685:CLK 9.52097e-05
164 *54:183 *56:180 4.0752e-05
165 *54:183 *192:20 4.55535e-05
166 *54:183 *367:8 2.85483e-06
167 *54:183 *438:86 9.99386e-06
168 *54:183 *438:98 2.95656e-05
169 *54:183 *438:100 8.22654e-05
170 *54:200 *463:A2 0.000164829
171 *54:200 *481:B1 0.000164829
172 *54:200 *504:A 1.80122e-05
173 *54:200 *510:A2 4.30017e-06
174 *54:200 *720:D 0.000155492
175 *54:200 *720:RESET_B 0
176 *54:200 *720:CLK 3.75382e-05
177 *54:200 *447:41 0.000222684
178 *465:B1 *54:200 0
179 *469:A2 *54:134 0
180 *469:B1 *54:111 0.000111208
181 *478:A *54:38 6.88027e-05
182 *482:A *54:38 3.62414e-05
183 *486:B2 *516:B2 5.22859e-06
184 *678:A2 *678:B2 3.24516e-05
185 *688:D *513:B2 0.000196638
186 *688:D *54:105 7.93892e-05
187 *699:D *54:82 0
188 *701:D *54:164 5.85383e-05
189 *701:D *54:183 4.43681e-05
190 *709:D *54:164 3.74593e-05
191 *52:60 *54:38 0.000966771
192 *52:62 *54:38 4.6752e-05
193 *52:62 *54:46 0.000544571
194 *52:64 *54:46 0.000200236
195 *52:68 *54:57 0
196 *52:76 *54:59 0
197 *53:23 *54:38 0.00010083
*RES
1 *480:Y *54:10 28.0822 
2 *54:10 *680:B2 20.0418 
3 *54:10 *54:25 16.3155 
4 *54:25 *493:A 10.2378 
5 *54:25 *54:38 28.2333 
6 *54:38 *54:46 19.4307 
7 *54:46 *485:A2 9.24915 
8 *54:46 *54:57 19.2069 
9 *54:57 *54:59 1.00149 
10 *54:59 *54:61 15.5353 
11 *54:61 *54:67 29.2311 
12 *54:67 *499:A 9.24915 
13 *54:67 *54:82 29.0035 
14 *54:82 *491:A 14.8222 
15 *54:82 *54:105 33.3419 
16 *54:105 *54:111 21.3701 
17 *54:111 *505:A 21.7028 
18 *54:111 *54:134 43.5727 
19 *54:134 *54:136 4.5 
20 *54:136 *497:A 30.7046 
21 *54:136 *54:153 18.8274 
22 *54:153 *495:A 9.97254 
23 *54:153 *54:164 17.9591 
24 *54:164 *487:A 13.7491 
25 *54:164 *54:183 37.8475 
26 *54:183 *503:A 9.24915 
27 *54:183 *54:200 26.5804 
28 *54:200 *510:B2 9.24915 
29 *54:200 *481:B2 14.4094 
30 *54:134 *489:A 9.24915 
31 *54:105 *513:B2 17.9655 
32 *54:61 *507:A 13.7491 
33 *54:59 *516:B2 26.6979 
34 *54:57 *486:A2 13.9481 
35 *54:38 *678:B2 14.135 
*END

*D_NET *55 0.00137105
*CONN
*I *483:A I *D sky130_fd_sc_hd__nand2_1
*I *481:Y O *D sky130_fd_sc_hd__a22oi_1
*CAP
1 *483:A 0.000367986
2 *481:Y 0.000367986
3 *483:A *779:A 0.000524947
4 *483:A *96:33 9.35753e-06
5 *483:A *96:44 8.63277e-05
6 *483:A *187:12 1.44467e-05
*RES
1 *481:Y *483:A 38.3681 
*END

*D_NET *56 0.0408075
*CONN
*I *521:B1 I *D sky130_fd_sc_hd__o21ai_0
*I *502:B1 I *D sky130_fd_sc_hd__o21ai_0
*I *679:B1 I *D sky130_fd_sc_hd__o21ai_0
*I *512:B I *D sky130_fd_sc_hd__nand3_1
*I *504:B I *D sky130_fd_sc_hd__nand2_1
*I *488:B I *D sky130_fd_sc_hd__nand2_1
*I *496:B I *D sky130_fd_sc_hd__nand2_1
*I *490:B I *D sky130_fd_sc_hd__nand2_1
*I *498:B I *D sky130_fd_sc_hd__nand2_1
*I *483:B I *D sky130_fd_sc_hd__nand2_1
*I *494:B I *D sky130_fd_sc_hd__nand2_1
*I *484:A I *D sky130_fd_sc_hd__inv_4
*I *518:B I *D sky130_fd_sc_hd__nand3_1
*I *508:B I *D sky130_fd_sc_hd__nand2_1
*I *500:B I *D sky130_fd_sc_hd__nand2_1
*I *515:B I *D sky130_fd_sc_hd__nand3_1
*I *506:B I *D sky130_fd_sc_hd__nand2_1
*I *492:B I *D sky130_fd_sc_hd__nand2_1
*I *682:B I *D sky130_fd_sc_hd__nand3_1
*I *482:Y O *D sky130_fd_sc_hd__nand2_8
*CAP
1 *521:B1 0.000236182
2 *502:B1 0
3 *679:B1 0
4 *512:B 1.39384e-05
5 *504:B 0
6 *488:B 0
7 *496:B 5.91407e-05
8 *490:B 5.02418e-05
9 *498:B 0.000316591
10 *483:B 0.000112321
11 *494:B 0
12 *484:A 0
13 *518:B 0
14 *508:B 2.19663e-05
15 *500:B 0
16 *515:B 0.000269116
17 *506:B 0.000829461
18 *492:B 0
19 *682:B 0.000347389
20 *482:Y 0.00124358
21 *56:184 0.000772356
22 *56:182 0.000880206
23 *56:180 0.00198302
24 *56:166 0.00340589
25 *56:158 0.0019756
26 *56:145 0.000644152
27 *56:141 0.000688245
28 *56:139 0.000928649
29 *56:133 0.00118287
30 *56:124 0.000659346
31 *56:67 0.00144051
32 *56:58 0.000803125
33 *56:48 0.00120224
34 *56:40 0.00148064
35 *56:32 0.00112079
36 *56:28 0.000937727
37 *483:B *702:RESET_B 0.000304859
38 *483:B *914:A 1.34231e-05
39 *490:B *528:A 0.000432613
40 *490:B *441:34 0.000379505
41 *498:B reg_rsp_o[15] 0.000545003
42 *498:B *700:CLK 0.000369742
43 *498:B *709:RESET_B 0
44 *498:B *798:A 0
45 *498:B *441:34 0.00019819
46 *506:B *531:A 6.22868e-05
47 *506:B *541:S 0.000195605
48 *506:B *768:A 0.00011818
49 *506:B *787:A 0.000217923
50 *508:B *508:A 6.50727e-05
51 *512:B *195:14 2.57986e-05
52 *512:B *438:68 6.3657e-05
53 *515:B *515:C 5.03545e-06
54 *515:B *909:A 0.00048095
55 *515:B *451:10 0
56 *521:B1 *521:A1 0.000113968
57 *521:B1 *522:A 6.08467e-05
58 *521:B1 *527:A 7.73022e-05
59 *521:B1 *527:B 1.58551e-05
60 *521:B1 *527:C 9.50655e-05
61 *682:B *96:82 3.54409e-05
62 *682:B *196:12 0.000139759
63 *56:28 *678:B1 9.29919e-05
64 *56:28 *188:12 9.35032e-05
65 *56:32 cio_gpio_en_o[1] 0
66 *56:32 *518:A 1.03594e-05
67 *56:32 *777:A 9.43033e-05
68 *56:32 *780:A 0.000241707
69 *56:40 *777:A 2.63971e-05
70 *56:40 *781:A 0.000163768
71 *56:40 *904:A 1.22085e-05
72 *56:40 *185:10 2.51446e-05
73 *56:40 *304:49 0
74 *56:40 *304:51 0
75 *56:40 *304:53 0
76 *56:48 *765:A 2.65831e-05
77 *56:48 *781:A 7.15348e-05
78 *56:58 reg_rsp_o[3] 2.41274e-06
79 *56:67 reg_rsp_o[3] 4.09938e-05
80 *56:124 cio_gpio_o[3] 6.46815e-05
81 *56:124 *761:A 3.50534e-05
82 *56:124 *789:A 1.70638e-05
83 *56:124 *790:A 0.000191215
84 *56:124 *792:A 9.12065e-05
85 *56:124 *279:20 0.000285162
86 *56:133 *527:A 3.49029e-05
87 *56:133 *527:C 9.54972e-05
88 *56:133 *555:A 4.92721e-05
89 *56:133 *555:B 0.0001195
90 *56:133 *789:A 3.67528e-06
91 *56:133 *790:A 0.000163969
92 *56:133 *893:A 0.000148136
93 *56:133 *283:10 0
94 *56:139 *501:A 1.15863e-05
95 *56:139 *675:A0 7.20028e-05
96 *56:139 *675:S 0.000321918
97 *56:139 *80:8 0.000217923
98 *56:145 cio_gpio_en_o[2] 5.36612e-05
99 *56:145 *672:A1 8.85947e-05
100 *56:145 *672:B1 6.46815e-05
101 *56:145 *702:RESET_B 0.000173757
102 *56:145 *895:A 0.000103943
103 *56:158 *779:A 2.45185e-05
104 *56:158 *69:18 2.81678e-06
105 *56:166 *685:RESET_B 9.81288e-06
106 *56:166 *726:D 1.43698e-05
107 *56:166 *726:CLK 3.50336e-05
108 *56:166 *728:RESET_B 0.000415408
109 *56:166 *728:CLK 6.73207e-05
110 *56:166 *767:A 0.000107496
111 *56:166 *779:A 1.64708e-05
112 *56:166 *69:18 0.000103736
113 *56:166 *96:33 0
114 *56:166 *187:12 7.58595e-05
115 *56:166 *384:78 2.69064e-05
116 *56:180 reg_rsp_o[20] 0.000155811
117 *56:180 *460:B 7.27914e-05
118 *56:180 *543:A0 2.18679e-05
119 *56:180 *546:A 1.00492e-05
120 *56:180 *656:A 0
121 *56:180 *685:RESET_B 0.000252434
122 *56:180 *726:CLK 1.86674e-05
123 *56:180 *894:A 1.91246e-05
124 *56:180 *192:20 1.19513e-05
125 *56:180 *367:8 1.00901e-05
126 *56:180 *439:69 1.60839e-05
127 *56:182 intr_gpio_o[2] 0
128 *56:182 *537:A0 0.000326234
129 *56:182 *546:A 0.00011136
130 *56:182 *701:CLK 2.31017e-05
131 *56:182 *709:RESET_B 0
132 *56:182 *709:CLK 8.92568e-06
133 *56:182 *797:A 0
134 *56:182 *810:A 0
135 *56:182 *813:A 0
136 *56:182 *937:A 0
137 *56:184 reg_rsp_o[0] 0
138 *56:184 reg_rsp_o[19] 1.51914e-05
139 *56:184 *709:RESET_B 0
140 *56:184 *763:A 3.17114e-05
141 *56:184 *810:A 0
142 *477:B *56:28 0
143 *478:B *56:124 0.000194121
144 *482:A *56:124 5.27799e-05
145 *502:A2 *56:141 0.000115471
146 *511:A *56:166 0.000138941
147 *679:A2 *56:141 0.0004051
148 *679:A2 *56:145 0.000114271
149 *681:A *682:B 0.000213014
150 *686:D *56:166 3.07542e-05
151 *702:D *56:145 0.000224395
152 *710:D *56:139 0.000321919
153 *52:68 *56:32 8.62166e-05
154 *53:23 *56:124 0.000103074
155 *53:23 *56:133 8.3723e-05
156 *53:23 *56:139 1.4106e-05
157 *53:25 *56:139 0.000240574
158 *53:27 *56:141 9.79405e-05
159 *54:38 *56:28 0.0002243
160 *54:46 *56:28 0.000121827
161 *54:46 *56:32 7.72654e-05
162 *54:57 *56:32 0.000117454
163 *54:57 *56:40 0.000359958
164 *54:59 *56:40 5.56367e-05
165 *54:61 *56:40 0.000862319
166 *54:61 *56:48 1.07248e-05
167 *54:67 *56:48 0.0021061
168 *54:82 *56:48 0.000105847
169 *54:82 *56:58 0.00135006
170 *54:82 *56:67 3.01683e-06
171 *54:183 *56:180 4.0752e-05
*RES
1 *482:Y *682:B 37.6945 
2 *482:Y *56:28 29.6997 
3 *56:28 *56:32 17.9591 
4 *56:32 *56:40 29.5059 
5 *56:40 *56:48 33.5527 
6 *56:48 *56:58 17.7473 
7 *56:58 *492:B 9.24915 
8 *56:58 *56:67 7.95736 
9 *56:67 *506:B 29.4078 
10 *56:67 *515:B 27.1404 
11 *56:48 *500:B 9.24915 
12 *56:40 *508:B 14.4725 
13 *56:32 *518:B 9.24915 
14 *56:28 *484:A 13.7491 
15 *482:Y *56:124 27.9316 
16 *56:124 *494:B 13.7491 
17 *56:124 *56:133 10.5523 
18 *56:133 *56:139 24.104 
19 *56:139 *56:141 9.04245 
20 *56:141 *56:145 14.4679 
21 *56:145 *483:B 13.3243 
22 *56:145 *56:158 7.1625 
23 *56:158 *56:166 38.8063 
24 *56:166 *56:180 20.5076 
25 *56:180 *56:182 13.4591 
26 *56:182 *56:184 9.72179 
27 *56:184 *498:B 27.2082 
28 *56:184 *490:B 18.3548 
29 *56:182 *496:B 15.0271 
30 *56:180 *488:B 13.7491 
31 *56:166 *504:B 9.24915 
32 *56:158 *512:B 14.4725 
33 *56:141 *679:B1 9.24915 
34 *56:139 *502:B1 9.24915 
35 *56:133 *521:B1 20.4207 
*END

*D_NET *57 0.000458983
*CONN
*I *488:A I *D sky130_fd_sc_hd__nand2_1
*I *487:Y O *D sky130_fd_sc_hd__nand2_1
*CAP
1 *488:A 0.00011224
2 *487:Y 0.00011224
3 *488:A *487:B 2.58757e-05
4 *488:A *546:A 0.000208627
*RES
1 *487:Y *488:A 22.0188 
*END

*D_NET *58 0.000367864
*CONN
*I *490:A I *D sky130_fd_sc_hd__nand2_1
*I *489:Y O *D sky130_fd_sc_hd__nand2_1
*CAP
1 *490:A 0.000126116
2 *489:Y 0.000126116
3 *490:A *441:34 0.000115632
4 *54:134 *490:A 0
*RES
1 *489:Y *490:A 22.0188 
*END

*D_NET *59 0.00077548
*CONN
*I *492:A I *D sky130_fd_sc_hd__nand2_1
*I *491:Y O *D sky130_fd_sc_hd__nand2_1
*CAP
1 *492:A 0.000193065
2 *491:Y 0.000193065
3 *492:A *491:B 2.16355e-05
4 *492:A *783:A 8.88083e-05
5 *492:A *799:A 1.07248e-05
6 *54:82 *492:A 0.00026818
*RES
1 *491:Y *492:A 33.791 
*END

*D_NET *60 0.000592198
*CONN
*I *494:A I *D sky130_fd_sc_hd__nand2_1
*I *493:Y O *D sky130_fd_sc_hd__nand2_1
*CAP
1 *494:A 0.000275124
2 *493:Y 0.000275124
3 *494:A *761:A 1.31657e-05
4 *54:25 *494:A 1.43983e-05
5 *54:38 *494:A 1.43848e-05
*RES
1 *493:Y *494:A 24.2372 
*END

*D_NET *61 0.000166599
*CONN
*I *496:A I *D sky130_fd_sc_hd__nand2_1
*I *495:Y O *D sky130_fd_sc_hd__nand2_1
*CAP
1 *496:A 6.31448e-05
2 *495:Y 6.31448e-05
3 *496:A *495:B 4.03096e-05
*RES
1 *495:Y *496:A 20.355 
*END

*D_NET *62 0.000454006
*CONN
*I *498:A I *D sky130_fd_sc_hd__nand2_1
*I *497:Y O *D sky130_fd_sc_hd__nand2_1
*CAP
1 *498:A 0.000194662
2 *497:Y 0.000194662
3 *498:A *497:B 6.46815e-05
*RES
1 *497:Y *498:A 23.128 
*END

*D_NET *63 0.000392887
*CONN
*I *500:A I *D sky130_fd_sc_hd__nand2_1
*I *499:Y O *D sky130_fd_sc_hd__nand2_1
*CAP
1 *500:A 0.000115634
2 *499:Y 0.000115634
3 *500:A *499:B 5.41227e-05
4 *54:82 *500:A 0.000107496
*RES
1 *499:Y *500:A 29.7778 
*END

*D_NET *64 0.00210741
*CONN
*I *674:A1 I *D sky130_fd_sc_hd__a21oi_1
*I *502:A1 I *D sky130_fd_sc_hd__o21ai_0
*I *501:Y O *D sky130_fd_sc_hd__inv_1
*CAP
1 *674:A1 0.000124103
2 *502:A1 0
3 *501:Y 0.000438187
4 *64:10 0.00056229
5 *674:A1 *710:CLK 2.17819e-05
6 *674:A1 *766:A 6.31665e-05
7 *674:A1 *438:34 6.50727e-05
8 *64:10 *710:CLK 1.2495e-05
9 *706:D *674:A1 0.000140758
10 *706:D *64:10 5.57012e-05
11 *53:25 *64:10 0.000463812
12 *53:27 *64:10 0.000160047
*RES
1 *501:Y *64:10 21.852 
2 *64:10 *502:A1 13.7491 
3 *64:10 *674:A1 18.3808 
*END

*D_NET *65 0.000648186
*CONN
*I *504:A I *D sky130_fd_sc_hd__nand2_1
*I *503:Y O *D sky130_fd_sc_hd__nand2_1
*CAP
1 *504:A 0.000183287
2 *503:Y 0.000183287
3 *504:A *720:CLK 6.50727e-05
4 *504:A *767:A 9.24241e-05
5 *504:A *192:20 0.000106104
6 *54:200 *504:A 1.80122e-05
*RES
1 *503:Y *504:A 31.5781 
*END

*D_NET *66 0.000868911
*CONN
*I *506:A I *D sky130_fd_sc_hd__nand2_1
*I *505:Y O *D sky130_fd_sc_hd__nand2_1
*CAP
1 *506:A 0.000243205
2 *505:Y 0.000243205
3 *506:A *532:A 0
4 *506:A *541:A1 3.58185e-05
5 *506:A *541:S 0
6 *506:A *755:RESET_B 7.73661e-05
7 *506:A *768:A 0.000149965
8 *506:A *247:25 0.00011935
*RES
1 *505:Y *506:A 36.3896 
*END

*D_NET *67 0.000398105
*CONN
*I *508:A I *D sky130_fd_sc_hd__nand2_1
*I *507:Y O *D sky130_fd_sc_hd__nand2_1
*CAP
1 *508:A 0.000159417
2 *507:Y 0.000159417
3 *508:A *507:B 0
4 *508:A *769:A 1.41976e-05
5 *508:B *508:A 6.50727e-05
*RES
1 *507:Y *508:A 22.0188 
*END

*D_NET *68 0.0175266
*CONN
*I *510:A1 I *D sky130_fd_sc_hd__a22oi_1
*I *680:A1 I *D sky130_fd_sc_hd__a22oi_1
*I *516:A1 I *D sky130_fd_sc_hd__a22oi_1
*I *513:A1 I *D sky130_fd_sc_hd__a22oi_1
*I *509:Y O *D sky130_fd_sc_hd__nor2_1
*CAP
1 *510:A1 7.03773e-05
2 *680:A1 0
3 *516:A1 6.80925e-05
4 *513:A1 0
5 *509:Y 0.00049384
6 *68:61 0.00179715
7 *68:38 0.00180893
8 *68:20 0.00235483
9 *68:10 0.00377384
10 *68:8 0.00192692
11 *510:A1 *510:A2 0.000153225
12 *510:A1 *69:18 1.1246e-05
13 *510:A1 *240:25 8.62625e-06
14 *510:A1 *447:41 0
15 *516:A1 *518:A 4.31539e-05
16 *68:8 *96:14 0.000368403
17 *68:8 *96:16 0.000399194
18 *68:8 *96:18 1.41976e-05
19 *68:10 *534:A 0.000145508
20 *68:10 *535:B 0.000139428
21 *68:10 *644:A1 3.60561e-05
22 *68:10 *665:A 6.63276e-05
23 *68:10 *669:A2 5.34989e-05
24 *68:10 *682:C 1.24817e-05
25 *68:10 *690:RESET_B 0.00038846
26 *68:10 *696:RESET_B 0
27 *68:10 *785:A 0
28 *68:10 *788:A 0.000182657
29 *68:10 *88:12 5.12484e-05
30 *68:10 *96:82 0
31 *68:10 *96:112 8.41829e-05
32 *68:10 *228:21 3.49128e-05
33 *68:10 *324:194 0.000123738
34 *68:10 *324:217 3.54379e-05
35 *68:10 *330:14 0.000149136
36 *68:10 *384:142 0
37 *68:10 *438:231 0
38 *68:10 *438:274 2.05237e-05
39 *68:20 *471:A2 2.69064e-05
40 *68:20 *513:A2 1.59885e-05
41 *68:20 *513:B1 5.5525e-06
42 *68:20 *688:RESET_B 3.75603e-05
43 *68:20 *691:CLK 1.93349e-05
44 *68:20 *696:RESET_B 0
45 *68:20 *718:D 7.26408e-05
46 *68:20 *718:RESET_B 0
47 *68:20 *749:D 0.000165214
48 *68:20 *749:CLK 7.22577e-06
49 *68:20 *752:RESET_B 0.000614699
50 *68:20 *228:21 5.2504e-06
51 *68:20 *338:14 1.4091e-06
52 *68:20 *442:16 6.79691e-06
53 *68:20 *442:20 0.000106797
54 *68:38 *680:A2 3.67708e-05
55 *68:38 *682:C 3.36752e-05
56 *68:38 *330:14 7.22695e-05
57 *68:61 *510:A2 3.28416e-06
58 *68:61 *640:B 9.14669e-05
59 *68:61 *641:B1 0.000275256
60 *68:61 *642:A 3.19445e-05
61 *68:61 *643:A1 3.75066e-05
62 *68:61 *660:B 2.65831e-05
63 *68:61 *661:A1 3.95711e-05
64 *68:61 *661:B1 2.01874e-05
65 *68:61 *680:A2 0.000136028
66 *68:61 *721:D 2.57986e-05
67 *68:61 *187:12 0.00010293
68 *68:61 *202:27 5.05248e-05
69 *68:61 *241:16 5.96936e-05
70 *68:61 *330:14 2.53624e-06
71 *516:B2 *516:A1 4.31539e-05
72 *686:D *68:61 0.000428826
73 *698:D *68:10 9.29919e-05
74 *711:D *68:10 1.46079e-05
75 *52:21 *68:61 0
*RES
1 *509:Y *68:8 22.237 
2 *68:8 *68:10 41.281 
3 *68:10 *68:20 42.0584 
4 *68:20 *513:A1 9.24915 
5 *68:10 *516:A1 15.7599 
6 *68:8 *68:38 3.07775 
7 *68:38 *680:A1 13.7491 
8 *68:38 *68:61 48.6816 
9 *68:61 *510:A1 16.4116 
*END

*D_NET *69 0.00227007
*CONN
*I *512:A I *D sky130_fd_sc_hd__nand3_1
*I *510:Y O *D sky130_fd_sc_hd__a22oi_1
*CAP
1 *512:A 0
2 *510:Y 0.000933051
3 *69:18 0.000933051
4 *69:18 *686:CLK 0
5 *69:18 *689:RESET_B 0.000103359
6 *69:18 *240:25 0.00011231
7 *69:18 *447:33 3.71816e-05
8 *69:18 *447:41 3.33235e-05
9 *510:A1 *69:18 1.1246e-05
10 *56:158 *69:18 2.81678e-06
11 *56:166 *69:18 0.000103736
*RES
1 *510:Y *69:18 43.6929 
2 *69:18 *512:A 9.24915 
*END

*D_NET *70 0.000198765
*CONN
*I *512:C I *D sky130_fd_sc_hd__nand3_1
*I *511:Y O *D sky130_fd_sc_hd__nand2_1
*CAP
1 *512:C 3.45641e-05
2 *511:Y 3.45641e-05
3 *512:C *195:14 0.000112367
4 *512:C *438:68 1.7269e-05
*RES
1 *511:Y *512:C 19.7763 
*END

*D_NET *71 0.00193459
*CONN
*I *515:A I *D sky130_fd_sc_hd__nand3_1
*I *513:Y O *D sky130_fd_sc_hd__a22oi_1
*CAP
1 *515:A 0.000370323
2 *513:Y 0.000370323
3 *515:A *699:RESET_B 0.000304866
4 *515:A *776:A 0.000197112
5 *515:A *189:14 0.000142452
6 *515:A *194:27 1.66771e-05
7 *515:A *451:10 0.000532836
*RES
1 *513:Y *515:A 41.1317 
*END

*D_NET *72 0.000723498
*CONN
*I *515:C I *D sky130_fd_sc_hd__nand3_1
*I *514:Y O *D sky130_fd_sc_hd__nand2_1
*CAP
1 *515:C 0.000220666
2 *514:Y 0.000220666
3 *515:C *468:A2 0.000161956
4 *515:C *513:B1 8.36586e-06
5 *515:C *239:10 6.93171e-05
6 *515:C *451:10 3.74918e-05
7 *515:B *515:C 5.03545e-06
*RES
1 *514:Y *515:C 32.4086 
*END

*D_NET *73 0.00257761
*CONN
*I *518:A I *D sky130_fd_sc_hd__nand3_1
*I *516:Y O *D sky130_fd_sc_hd__a22oi_1
*CAP
1 *518:A 0.000912041
2 *516:Y 0.000912041
3 *518:A *486:C1 0.000224395
4 *518:A *516:A2 5.06806e-06
5 *518:A *228:21 0.000113968
6 *516:A1 *518:A 4.31539e-05
7 *516:B2 *518:A 4.60206e-05
8 *52:68 *518:A 0
9 *54:57 *518:A 0.000310562
10 *56:32 *518:A 1.03594e-05
*RES
1 *516:Y *518:A 45.6305 
*END

*D_NET *74 0.00152722
*CONN
*I *518:C I *D sky130_fd_sc_hd__nand3_1
*I *517:Y O *D sky130_fd_sc_hd__nand2_1
*CAP
1 *518:C 0.000338862
2 *517:Y 0.000338862
3 *518:C *517:B 0.000243726
4 *518:C *568:B 0.000253414
5 *518:C *687:RESET_B 0.000239354
6 *52:64 *518:C 6.14273e-05
7 *52:68 *518:C 5.1573e-05
*RES
1 *517:Y *518:C 38.6374 
*END

*D_NET *75 0.00161836
*CONN
*I *530:A1 I *D sky130_fd_sc_hd__o21ai_0
*I *565:A1 I *D sky130_fd_sc_hd__o21ai_0
*I *519:Y O *D sky130_fd_sc_hd__inv_1
*CAP
1 *530:A1 0.000198778
2 *565:A1 0
3 *519:Y 0.000290058
4 *75:12 0.000488837
5 *530:A1 *529:A 4.76161e-06
6 *530:A1 *530:B1 9.28161e-05
7 *530:A1 *565:A2 3.5063e-05
8 *530:A1 *756:RESET_B 6.27718e-05
9 *530:A1 *438:68 2.84758e-05
10 *530:A1 *438:72 3.58894e-05
11 *530:A1 *438:76 2.58616e-05
12 *75:12 *519:A 8.13961e-06
13 *75:12 *756:RESET_B 6.93171e-05
14 *75:12 *914:A 0
15 *75:12 *240:10 0.000116652
16 *713:D *530:A1 0.000160942
*RES
1 *519:Y *75:12 24.8191 
2 *75:12 *565:A1 9.24915 
3 *75:12 *530:A1 16.1214 
*END

*D_NET *76 0.00029712
*CONN
*I *521:A2 I *D sky130_fd_sc_hd__o21ai_0
*I *520:Y O *D sky130_fd_sc_hd__inv_1
*CAP
1 *521:A2 0.00010681
2 *520:Y 0.00010681
3 *521:A2 *520:A 5.03275e-05
4 *521:A2 *527:B 3.31733e-05
*RES
1 *520:Y *521:A2 30.1916 
*END

*D_NET *77 0.000511777
*CONN
*I *522:A I *D sky130_fd_sc_hd__nand2_1
*I *521:Y O *D sky130_fd_sc_hd__o21ai_0
*CAP
1 *522:A 0.000100985
2 *521:Y 0.000100985
3 *522:A *520:A 0.00014749
4 *522:A *521:A1 7.14746e-05
5 *522:A *522:B 8.36586e-06
6 *522:A *527:B 2.16297e-05
7 *521:B1 *522:A 6.08467e-05
*RES
1 *521:Y *522:A 30.8842 
*END

*D_NET *78 0.00142521
*CONN
*I *527:A I *D sky130_fd_sc_hd__nand3_1
*I *555:A I *D sky130_fd_sc_hd__nand2_1
*I *522:Y O *D sky130_fd_sc_hd__nand2_1
*CAP
1 *527:A 0.000121591
2 *555:A 0.000126624
3 *522:Y 0.000107445
4 *78:8 0.000355659
5 *527:A *522:B 7.74044e-06
6 *527:A *527:B 0.000225852
7 *527:A *527:C 1.65078e-05
8 *555:A *522:B 2.83033e-05
9 *555:A *79:6 0.000112367
10 *555:A *283:10 1.59362e-06
11 *78:8 *526:B 0.000160047
12 *521:B1 *527:A 7.73022e-05
13 *56:133 *527:A 3.49029e-05
14 *56:133 *555:A 4.92721e-05
*RES
1 *522:Y *78:8 15.5817 
2 *78:8 *555:A 17.2744 
3 *78:8 *527:A 18.4879 
*END

*D_NET *79 0.00122679
*CONN
*I *524:A I *D sky130_fd_sc_hd__nor2_1
*I *556:A I *D sky130_fd_sc_hd__or3b_1
*I *523:Y O *D sky130_fd_sc_hd__nand2_1
*CAP
1 *524:A 0.000107424
2 *556:A 4.98777e-05
3 *523:Y 0.000115483
4 *79:6 0.000272785
5 *524:A *527:C 1.07549e-05
6 *556:A *556:B 0.00016386
7 *79:6 *523:B 3.00829e-05
8 *79:6 *555:B 6.27782e-05
9 *79:6 *556:B 9.626e-05
10 *79:6 *893:A 3.54295e-05
11 *555:A *79:6 0.000112367
12 *53:23 *524:A 0.000169684
*RES
1 *523:Y *79:6 13.3002 
2 *79:6 *556:A 11.0817 
3 *79:6 *524:A 21.7421 
*END

*D_NET *80 0.00135447
*CONN
*I *527:B I *D sky130_fd_sc_hd__nand3_1
*I *526:A I *D sky130_fd_sc_hd__nand2_1
*I *524:Y O *D sky130_fd_sc_hd__nor2_1
*CAP
1 *527:B 0.000201046
2 *526:A 0
3 *524:Y 9.27076e-05
4 *80:8 0.000293753
5 *527:B *520:A 0
6 *527:B *521:A1 5.55217e-05
7 *527:B *522:B 3.00174e-06
8 *527:B *526:B 0.000111352
9 *80:8 *526:B 4.02052e-05
10 *521:A2 *527:B 3.31733e-05
11 *521:B1 *527:B 1.58551e-05
12 *522:A *527:B 2.16297e-05
13 *527:A *527:B 0.000225852
14 *53:23 *80:8 4.24488e-05
15 *56:139 *80:8 0.000217923
*RES
1 *524:Y *80:8 12.7697 
2 *80:8 *526:A 9.24915 
3 *80:8 *527:B 25.1287 
*END

*D_NET *81 0.00128401
*CONN
*I *526:B I *D sky130_fd_sc_hd__nand2_1
*I *525:Y O *D sky130_fd_sc_hd__nand2_1
*CAP
1 *526:B 0.000242378
2 *525:Y 0.000242378
3 *526:B *520:A 0.000172784
4 *526:B *521:A1 1.84673e-05
5 *526:B *522:B 6.27718e-05
6 *526:B *525:A 0.000172784
7 *526:B *82:8 6.08467e-05
8 *527:B *526:B 0.000111352
9 *78:8 *526:B 0.000160047
10 *80:8 *526:B 4.02052e-05
*RES
1 *525:Y *526:B 36.315 
*END

*D_NET *82 0.00114838
*CONN
*I *527:C I *D sky130_fd_sc_hd__nand3_1
*I *555:B I *D sky130_fd_sc_hd__nand2_1
*I *526:Y O *D sky130_fd_sc_hd__nand2_1
*CAP
1 *527:C 0.000155113
2 *555:B 7.11536e-05
3 *526:Y 4.51842e-05
4 *82:8 0.000271451
5 *521:B1 *527:C 9.50655e-05
6 *524:A *527:C 1.07549e-05
7 *526:B *82:8 6.08467e-05
8 *527:A *527:C 1.65078e-05
9 *53:23 *527:C 2.1667e-05
10 *53:23 *555:B 0.000122858
11 *56:133 *527:C 9.54972e-05
12 *56:133 *555:B 0.0001195
13 *79:6 *555:B 6.27782e-05
*RES
1 *526:Y *82:8 14.4725 
2 *82:8 *555:B 16.7198 
3 *82:8 *527:C 18.4879 
*END

*D_NET *83 0.000728111
*CONN
*I *917:A I *D sky130_fd_sc_hd__buf_4
*I *527:Y O *D sky130_fd_sc_hd__nand3_1
*CAP
1 *917:A 0.000350817
2 *527:Y 0.000350817
3 *917:A *438:26 2.64757e-05
*RES
1 *527:Y *917:A 26.311 
*END

*D_NET *85 0.000374864
*CONN
*I *530:B1 I *D sky130_fd_sc_hd__o21ai_0
*I *529:Y O *D sky130_fd_sc_hd__nand2_1
*CAP
1 *530:B1 3.42993e-05
2 *529:Y 3.42993e-05
3 *530:B1 *438:72 0.000213449
4 *530:A1 *530:B1 9.28161e-05
*RES
1 *529:Y *530:B1 20.8855 
*END

*D_NET *86 0.00159151
*CONN
*I *567:A1 I *D sky130_fd_sc_hd__o21ai_0
*I *533:A1 I *D sky130_fd_sc_hd__o21ai_0
*I *531:Y O *D sky130_fd_sc_hd__inv_1
*CAP
1 *567:A1 0.000261804
2 *533:A1 0.000369824
3 *531:Y 6.85949e-05
4 *86:6 0.000700222
5 *533:A1 intr_gpio_o[1] 2.93863e-05
6 *533:A1 *533:A2 1.41307e-05
7 *533:A1 *533:B1 2.57986e-05
8 *533:A1 *438:310 2.41274e-06
9 *567:A1 *748:CLK 0
10 *567:A1 *189:14 8.71715e-05
11 *86:6 *531:A 3.21692e-05
*RES
1 *531:Y *86:6 10.8044 
2 *86:6 *533:A1 17.2065 
3 *86:6 *567:A1 24.2337 
*END

*D_NET *87 0.00102328
*CONN
*I *533:B1 I *D sky130_fd_sc_hd__o21ai_0
*I *532:Y O *D sky130_fd_sc_hd__nand2_1
*CAP
1 *533:B1 0.000354055
2 *532:Y 0.000354055
3 *533:B1 *212:20 1.13359e-05
4 *533:B1 *324:26 0
5 *533:B1 *440:118 6.27782e-05
6 *533:B1 *440:125 3.186e-05
7 *533:A1 *533:B1 2.57986e-05
8 *712:D *533:B1 0.000183398
*RES
1 *532:Y *533:B1 34.3806 
*END

*D_NET *88 0.000922533
*CONN
*I *536:A1 I *D sky130_fd_sc_hd__o21ai_0
*I *569:A1 I *D sky130_fd_sc_hd__o21ai_0
*I *534:Y O *D sky130_fd_sc_hd__inv_1
*CAP
1 *536:A1 0.000190334
2 *569:A1 0
3 *534:Y 0.000102356
4 *88:12 0.00029269
5 *536:A1 *535:A 1.02267e-05
6 *536:A1 *536:B1 4.24488e-05
7 *536:A1 *96:121 3.5063e-05
8 *536:A1 *438:257 2.58757e-05
9 *536:A1 *438:261 3.58894e-05
10 *536:A1 *438:274 1.83992e-05
11 *88:12 *96:112 0.000118002
12 *68:10 *88:12 5.12484e-05
*RES
1 *534:Y *88:12 20.9425 
2 *88:12 *569:A1 9.24915 
3 *88:12 *536:A1 14.4576 
*END

*D_NET *89 0.000210766
*CONN
*I *536:B1 I *D sky130_fd_sc_hd__o21ai_0
*I *535:Y O *D sky130_fd_sc_hd__nand2_1
*CAP
1 *536:B1 2.94481e-05
2 *535:Y 2.94481e-05
3 *536:B1 *438:261 0.000109421
4 *536:A1 *536:B1 4.24488e-05
*RES
1 *535:Y *536:B1 19.7763 
*END

*D_NET *90 0.0049242
*CONN
*I *559:A1 I *D sky130_fd_sc_hd__o21ai_0
*I *548:A1 I *D sky130_fd_sc_hd__o21ai_0
*I *546:Y O *D sky130_fd_sc_hd__inv_1
*CAP
1 *559:A1 0.00162812
2 *548:A1 0.00018746
3 *546:Y 7.04572e-05
4 *90:6 0.00188604
5 *548:A1 *697:RESET_B 0.000249794
6 *548:A1 *213:24 2.22923e-05
7 *548:A1 *438:98 0
8 *559:A1 *487:B 5.5577e-05
9 *559:A1 *559:A2 3.5063e-05
10 *559:A1 *727:RESET_B 7.06774e-05
11 *559:A1 *923:A 1.95082e-05
12 *559:A1 *444:10 0.000352072
13 *559:A1 *445:22 0.000121466
14 *90:6 *487:B 1.24274e-05
15 *461:A2 *559:A1 0.000157107
16 *685:D *559:A1 5.61389e-05
*RES
1 *546:Y *90:6 10.2498 
2 *90:6 *548:A1 23.8184 
3 *90:6 *559:A1 35.9183 
*END

*D_NET *91 0.000418543
*CONN
*I *548:B1 I *D sky130_fd_sc_hd__o21ai_0
*I *547:Y O *D sky130_fd_sc_hd__nand2_1
*CAP
1 *548:B1 0.000100258
2 *547:Y 0.000100258
3 *548:B1 *213:24 0.00010072
4 *548:B1 *438:92 0.000117307
*RES
1 *547:Y *548:B1 21.9947 
*END

*D_NET *92 0.00361103
*CONN
*I *561:A1 I *D sky130_fd_sc_hd__o21ai_0
*I *551:A1 I *D sky130_fd_sc_hd__o21ai_0
*I *549:Y O *D sky130_fd_sc_hd__inv_1
*CAP
1 *561:A1 0.000127951
2 *551:A1 0
3 *549:Y 0.000971712
4 *92:10 0.00109966
5 *561:A1 *439:148 0.000134041
6 *561:A1 *443:8 0.000117626
7 *561:A1 *443:14 4.47968e-05
8 *561:A1 *443:103 3.39219e-05
9 *92:10 *472:B1 0
10 *92:10 *587:B1 0
11 *92:10 *707:CLK 0
12 *92:10 *711:CLK 0
13 *92:10 *754:RESET_B 0.000442911
14 *92:10 *438:294 2.75705e-05
15 *92:10 *439:148 0.000421126
16 *92:10 *442:22 0
17 *92:10 *443:14 0.00018971
*RES
1 *549:Y *92:10 40.8058 
2 *92:10 *551:A1 13.7491 
3 *92:10 *561:A1 18.5201 
*END

*D_NET *93 0.000376894
*CONN
*I *551:B1 I *D sky130_fd_sc_hd__o21ai_0
*I *550:Y O *D sky130_fd_sc_hd__nand2_1
*CAP
1 *551:B1 3.67736e-05
2 *550:Y 3.67736e-05
3 *551:B1 *551:A2 0.000210531
4 *551:B1 *687:CLK 9.28161e-05
*RES
1 *550:Y *551:B1 20.8855 
*END

*D_NET *94 0.00236829
*CONN
*I *563:A1 I *D sky130_fd_sc_hd__o21ai_0
*I *554:A1 I *D sky130_fd_sc_hd__o21ai_0
*I *552:Y O *D sky130_fd_sc_hd__inv_1
*CAP
1 *563:A1 0
2 *554:A1 0.000157668
3 *552:Y 0.000485911
4 *94:18 0.000643579
5 *554:A1 *563:A2 1.05106e-05
6 *554:A1 *691:RESET_B 4.31539e-05
7 *554:A1 *96:141 0.000197447
8 *554:A1 *96:167 0.00016419
9 *94:18 *562:A 5.99828e-05
10 *94:18 *563:A2 1.05106e-05
11 *94:18 *563:B1 6.08467e-05
12 *94:18 *568:A 6.02028e-05
13 *94:18 *569:B1 0.000140053
14 *94:18 *687:RESET_B 0.000129359
15 *94:18 *96:127 0
16 *94:18 *96:167 2.29454e-05
17 *691:D *94:18 0.000181934
*RES
1 *552:Y *94:18 33.0762 
2 *94:18 *554:A1 15.181 
3 *94:18 *563:A1 9.24915 
*END

*D_NET *95 0.00103344
*CONN
*I *554:B1 I *D sky130_fd_sc_hd__o21ai_0
*I *553:Y O *D sky130_fd_sc_hd__nand2_1
*CAP
1 *554:B1 0.000276448
2 *553:Y 0.000276448
3 *554:B1 *773:A 6.27782e-05
4 *554:B1 *96:127 9.66049e-06
5 *554:B1 *438:274 3.25494e-05
6 *554:B1 *438:276 0.000288688
7 *695:D *554:B1 8.687e-05
*RES
1 *553:Y *554:B1 34.939 
*END

*D_NET *96 0.0271404
*CONN
*I *666:A I *D sky130_fd_sc_hd__nand2_1
*I *667:A2 I *D sky130_fd_sc_hd__o21ai_0
*I *568:A I *D sky130_fd_sc_hd__nand2_1
*I *563:A2 I *D sky130_fd_sc_hd__o21ai_0
*I *562:A I *D sky130_fd_sc_hd__nand2_1
*I *566:A I *D sky130_fd_sc_hd__nand2_1
*I *567:A2 I *D sky130_fd_sc_hd__o21ai_0
*I *569:A2 I *D sky130_fd_sc_hd__o21ai_0
*I *560:A I *D sky130_fd_sc_hd__nand2_1
*I *561:A2 I *D sky130_fd_sc_hd__o21ai_0
*I *663:A I *D sky130_fd_sc_hd__nand2_1
*I *664:A2 I *D sky130_fd_sc_hd__o21ai_0
*I *564:A I *D sky130_fd_sc_hd__nand2_1
*I *565:A2 I *D sky130_fd_sc_hd__o21ai_0
*I *558:A I *D sky130_fd_sc_hd__nand2_1
*I *559:A2 I *D sky130_fd_sc_hd__o21ai_0
*I *556:X O *D sky130_fd_sc_hd__or3b_1
*CAP
1 *666:A 0.000173035
2 *667:A2 2.33205e-05
3 *568:A 0.000198315
4 *563:A2 1.67477e-05
5 *562:A 0.000344951
6 *566:A 5.3504e-05
7 *567:A2 0.000328609
8 *569:A2 0
9 *560:A 0
10 *561:A2 0.000211143
11 *663:A 3.31381e-05
12 *664:A2 2.12792e-05
13 *564:A 1.57087e-05
14 *565:A2 8.12299e-05
15 *558:A 0
16 *559:A2 0.000194873
17 *556:X 0.000813034
18 *96:196 0.000196356
19 *96:167 0.000442086
20 *96:141 0.00253378
21 *96:127 0.00269457
22 *96:121 0.000781784
23 *96:112 0.000381663
24 *96:90 0.000418179
25 *96:88 0.00101987
26 *96:82 0.00111345
27 *96:44 0.000354576
28 *96:33 0.000554531
29 *96:20 0.00180418
30 *96:18 0.00151104
31 *96:16 0.000320189
32 *96:14 0.00148406
33 *559:A2 *559:B1 0.000256285
34 *559:A2 *578:A 2.30636e-05
35 *561:A2 *561:B1 8.65358e-05
36 *562:A *562:B 2.24255e-05
37 *562:A *563:B1 3.07649e-05
38 *564:A *564:B 2.08274e-05
39 *564:A *565:B1 1.41976e-05
40 *564:A *438:68 1.19705e-05
41 *565:A2 *511:B 1.0759e-05
42 *565:A2 *564:B 6.27782e-05
43 *565:A2 *565:B1 6.04829e-05
44 *565:A2 *756:RESET_B 0.000160047
45 *565:A2 *438:68 2.8212e-05
46 *566:A *468:A2 4.95705e-05
47 *567:A2 *468:A2 2.95749e-05
48 *567:A2 *566:B 2.16355e-05
49 *567:A2 *567:B1 1.34424e-05
50 *568:A *569:B1 1.88612e-05
51 *568:A *288:18 0.000133972
52 *663:A *663:B 4.76161e-06
53 *663:A *681:B 4.76161e-06
54 *666:A *666:B 1.32133e-05
55 *666:A *667:B1 0.000216467
56 *96:14 cio_gpio_o[3] 7.4244e-06
57 *96:14 intr_gpio_o[3] 4.26145e-05
58 *96:14 *493:B 2.02035e-05
59 *96:14 *556:B 0.000211546
60 *96:14 *770:A 0
61 *96:16 *663:B 2.60765e-05
62 *96:16 *196:16 5.05094e-05
63 *96:18 *663:B 1.00766e-05
64 *96:18 *664:B1 0.00025718
65 *96:18 *174:14 3.26503e-05
66 *96:20 *578:A 6.49694e-05
67 *96:20 *605:A 1.96819e-05
68 *96:20 *677:A1 8.859e-05
69 *96:20 *174:14 3.00829e-05
70 *96:33 *559:B1 0.000471855
71 *96:33 *187:12 0
72 *96:33 *384:78 0
73 *96:33 *384:102 3.31736e-05
74 *96:44 *564:B 1.03594e-05
75 *96:44 *756:RESET_B 9.39718e-05
76 *96:44 *384:102 4.67927e-05
77 *96:82 *785:A 6.95223e-05
78 *96:82 *196:12 4.7798e-05
79 *96:82 *384:158 0
80 *96:88 *485:A1 0
81 *96:88 *517:B 0
82 *96:88 *186:25 0.00040673
83 *96:88 *384:142 3.87022e-06
84 *96:88 *384:158 0.000124143
85 *96:112 *534:A 5.78167e-05
86 *96:112 *384:142 0.000153225
87 *96:121 *569:B1 2.84758e-05
88 *96:121 *438:274 2.41274e-06
89 *96:127 *516:A2 8.36615e-05
90 *96:127 *691:RESET_B 2.61857e-05
91 *96:127 *288:18 3.20264e-05
92 *96:127 *438:274 0
93 *96:141 *468:A2 2.8232e-05
94 *96:141 *471:B1 8.20888e-05
95 *96:141 *691:RESET_B 2.59905e-05
96 *96:141 *718:D 6.74426e-05
97 *96:141 *442:148 6.54061e-05
98 *478:B *96:14 6.46815e-05
99 *483:A *96:33 9.35753e-06
100 *483:A *96:44 8.63277e-05
101 *514:A *566:A 8.67924e-06
102 *514:A *96:141 0.00244354
103 *530:A1 *565:A2 3.5063e-05
104 *536:A1 *96:121 3.5063e-05
105 *554:A1 *563:A2 1.05106e-05
106 *554:A1 *96:141 0.000197447
107 *554:A1 *96:167 0.00016419
108 *554:B1 *96:127 9.66049e-06
109 *559:A1 *559:A2 3.5063e-05
110 *682:B *96:82 3.54409e-05
111 *687:D *96:112 0.000132017
112 *688:D *567:A2 6.08467e-05
113 *691:D *96:127 0
114 *694:D *666:A 1.61631e-05
115 *694:D *667:A2 2.15184e-05
116 *694:D *96:82 4.84618e-05
117 *51:10 *96:82 0
118 *51:23 *96:14 1.88563e-05
119 *52:60 *96:14 0.000217202
120 *52:60 *96:82 0
121 *52:62 *96:88 0
122 *53:23 *96:14 0
123 *54:38 *96:14 0.000116135
124 *56:166 *96:33 0
125 *68:8 *96:14 0.000368403
126 *68:8 *96:16 0.000399194
127 *68:8 *96:18 1.41976e-05
128 *68:10 *96:82 0
129 *68:10 *96:112 8.41829e-05
130 *88:12 *96:112 0.000118002
131 *94:18 *562:A 5.99828e-05
132 *94:18 *563:A2 1.05106e-05
133 *94:18 *568:A 6.02028e-05
134 *94:18 *96:127 0
135 *94:18 *96:167 2.29454e-05
*RES
1 *556:X *96:14 40.362 
2 *96:14 *96:16 4.60562 
3 *96:16 *96:18 4.60562 
4 *96:18 *96:20 27.899 
5 *96:20 *559:A2 14.4335 
6 *96:20 *96:33 14.2218 
7 *96:33 *558:A 13.7491 
8 *96:33 *96:44 11.315 
9 *96:44 *565:A2 13.3484 
10 *96:44 *564:A 9.97254 
11 *96:18 *664:A2 9.82786 
12 *96:16 *663:A 10.2378 
13 *96:14 *96:82 19.1071 
14 *96:82 *96:88 20.7615 
15 *96:88 *96:90 4.60562 
16 *96:90 *561:A2 14.4576 
17 *96:90 *560:A 9.24915 
18 *96:88 *96:112 18.7218 
19 *96:112 *569:A2 9.24915 
20 *96:112 *96:121 2.96592 
21 *96:121 *96:127 20.3828 
22 *96:127 *96:141 47.5511 
23 *96:141 *567:A2 14.8434 
24 *96:141 *566:A 12.0463 
25 *96:127 *96:167 2.38721 
26 *96:167 *562:A 15.4221 
27 *96:167 *563:A2 9.82786 
28 *96:121 *568:A 14.4335 
29 *96:82 *96:196 4.5 
30 *96:196 *667:A2 9.97254 
31 *96:196 *666:A 14.3129 
*END

*D_NET *98 0.00174201
*CONN
*I *559:B1 I *D sky130_fd_sc_hd__o21ai_0
*I *558:Y O *D sky130_fd_sc_hd__nand2_1
*CAP
1 *559:B1 0.000264923
2 *558:Y 0.000264923
3 *559:B1 *510:A2 5.68225e-06
4 *559:B1 *578:A 0.000111352
5 *559:B1 *726:RESET_B 0.00018922
6 *559:B1 *384:102 0.000177772
7 *559:A2 *559:B1 0.000256285
8 *693:D *559:B1 0
9 *96:33 *559:B1 0.000471855
*RES
1 *558:Y *559:B1 39.3314 
*END

*D_NET *99 0.000272999
*CONN
*I *561:B1 I *D sky130_fd_sc_hd__o21ai_0
*I *560:Y O *D sky130_fd_sc_hd__nand2_1
*CAP
1 *561:B1 9.32317e-05
2 *560:Y 9.32317e-05
3 *561:A2 *561:B1 8.65358e-05
*RES
1 *560:Y *561:B1 20.8855 
*END

*D_NET *100 0.000523329
*CONN
*I *563:B1 I *D sky130_fd_sc_hd__o21ai_0
*I *562:Y O *D sky130_fd_sc_hd__nand2_1
*CAP
1 *563:B1 0.000164549
2 *562:Y 0.000164549
3 *563:B1 *562:B 0.000102619
4 *562:A *563:B1 3.07649e-05
5 *94:18 *563:B1 6.08467e-05
*RES
1 *562:Y *563:B1 22.5975 
*END

*D_NET *101 0.000327987
*CONN
*I *565:B1 I *D sky130_fd_sc_hd__o21ai_0
*I *564:Y O *D sky130_fd_sc_hd__nand2_1
*CAP
1 *565:B1 5.64426e-05
2 *564:Y 5.64426e-05
3 *565:B1 *438:68 0.000140421
4 *564:A *565:B1 1.41976e-05
5 *565:A2 *565:B1 6.04829e-05
*RES
1 *564:Y *565:B1 20.9096 
*END

*D_NET *102 0.000333261
*CONN
*I *567:B1 I *D sky130_fd_sc_hd__o21ai_0
*I *566:Y O *D sky130_fd_sc_hd__nand2_1
*CAP
1 *567:B1 4.98893e-05
2 *566:Y 4.98893e-05
3 *567:B1 *468:A2 0.000154145
4 *567:B1 *566:B 6.08467e-05
5 *567:A2 *567:B1 1.34424e-05
6 *688:D *567:B1 5.04829e-06
*RES
1 *566:Y *567:B1 20.3309 
*END

*D_NET *103 0.000711874
*CONN
*I *569:B1 I *D sky130_fd_sc_hd__o21ai_0
*I *568:Y O *D sky130_fd_sc_hd__nand2_1
*CAP
1 *569:B1 0.000231401
2 *568:Y 0.000231401
3 *569:B1 *288:18 6.16827e-05
4 *568:A *569:B1 1.88612e-05
5 *94:18 *569:B1 0.000140053
6 *96:121 *569:B1 2.84758e-05
*RES
1 *568:Y *569:B1 24.816 
*END

*D_NET *104 0.00253842
*CONN
*I *603:A2 I *D sky130_fd_sc_hd__a21oi_1
*I *580:B I *D sky130_fd_sc_hd__nor2_1
*I *574:A2 I *D sky130_fd_sc_hd__o21ai_0
*I *570:Y O *D sky130_fd_sc_hd__nand3_1
*CAP
1 *603:A2 0.000114276
2 *580:B 0
3 *574:A2 9.86573e-05
4 *570:Y 0.00023832
5 *104:21 0.00019112
6 *104:6 0.000413822
7 *574:A2 *574:B1 6.92705e-05
8 *574:A2 *577:A 1.41181e-05
9 *574:A2 *108:6 1.00901e-05
10 *603:A2 *579:A 6.94304e-05
11 *603:A2 *580:A 0.000240724
12 *603:A2 *582:A 3.24105e-05
13 *603:A2 *603:A1 0.000139991
14 *603:A2 *123:10 1.40667e-05
15 *104:6 *570:B 1.88422e-05
16 *104:6 *573:A 0.00048346
17 *104:6 *573:B 7.28567e-06
18 *104:6 *574:B1 9.97706e-05
19 *104:6 *592:A 4.27168e-05
20 *104:21 *655:A 7.0954e-05
21 *104:21 *444:35 0.000169093
*RES
1 *570:Y *104:6 16.6278 
2 *104:6 *574:A2 11.6605 
3 *104:6 *104:21 12.0778 
4 *104:21 *580:B 9.24915 
5 *104:21 *603:A2 14.4576 
*END

*D_NET *105 0.00152779
*CONN
*I *581:A2 I *D sky130_fd_sc_hd__a21oi_1
*I *573:A I *D sky130_fd_sc_hd__nand2_1
*I *571:Y O *D sky130_fd_sc_hd__nand2_1
*CAP
1 *581:A2 5.94111e-05
2 *573:A 0.000124029
3 *571:Y 0.00018344
4 *573:A *570:B 6.27782e-05
5 *573:A *572:A 6.76755e-05
6 *573:A *573:B 4.87807e-05
7 *573:A *591:A 0.000127746
8 *573:A *360:23 0.000122098
9 *573:A *437:31 0.000122098
10 *581:A2 *571:A 1.03434e-05
11 *581:A2 *581:A1 0.000115934
12 *581:A2 *581:B1 0
13 *581:A2 *113:8 0
14 *104:6 *573:A 0.00048346
*RES
1 *571:Y *573:A 35.4845 
2 *571:Y *581:A2 20.355 
*END

*D_NET *106 0.000831102
*CONN
*I *573:B I *D sky130_fd_sc_hd__nand2_1
*I *572:Y O *D sky130_fd_sc_hd__inv_1
*CAP
1 *573:B 0.000327542
2 *572:Y 0.000327542
3 *573:B *572:A 4.61542e-05
4 *573:B *574:B1 1.43832e-05
5 *573:B *591:A 5.94138e-05
6 *573:A *573:B 4.87807e-05
7 *104:6 *573:B 7.28567e-06
*RES
1 *572:Y *573:B 24.3699 
*END

*D_NET *107 0.000274097
*CONN
*I *574:B1 I *D sky130_fd_sc_hd__o21ai_0
*I *573:Y O *D sky130_fd_sc_hd__nand2_1
*CAP
1 *574:B1 4.18265e-05
2 *573:Y 4.18265e-05
3 *574:B1 *108:6 7.01935e-06
4 *573:B *574:B1 1.43832e-05
5 *574:A2 *574:B1 6.92705e-05
6 *104:6 *574:B1 9.97706e-05
*RES
1 *573:Y *574:B1 20.3309 
*END

*D_NET *108 0.00198046
*CONN
*I *655:A I *D sky130_fd_sc_hd__nor3_1
*I *577:A I *D sky130_fd_sc_hd__nor2_1
*I *574:Y O *D sky130_fd_sc_hd__o21ai_0
*CAP
1 *655:A 0.000556106
2 *577:A 0.000104373
3 *574:Y 2.57073e-05
4 *108:6 0.000686186
5 *577:A *579:A 2.57847e-05
6 *655:A *577:B 0
7 *655:A *582:A 0.000173028
8 *655:A *655:B 2.72505e-05
9 *655:A *736:CLK 7.30804e-05
10 *655:A *123:10 7.56248e-06
11 *655:A *363:10 1.70901e-05
12 *655:A *444:29 0.000134393
13 *655:A *444:35 4.77167e-05
14 *574:A2 *577:A 1.41181e-05
15 *574:A2 *108:6 1.00901e-05
16 *574:B1 *108:6 7.01935e-06
17 *104:21 *655:A 7.0954e-05
*RES
1 *574:Y *108:6 9.97254 
2 *108:6 *577:A 11.6605 
3 *108:6 *655:A 33.1284 
*END

*D_NET *109 0.000184284
*CONN
*I *576:A I *D sky130_fd_sc_hd__clkinv_1
*I *575:Y O *D sky130_fd_sc_hd__xnor2_1
*CAP
1 *576:A 8.86864e-05
2 *575:Y 8.86864e-05
3 *576:A *739:D 6.91078e-06
*RES
1 *575:Y *576:A 19.7763 
*END

*D_NET *110 0.00151305
*CONN
*I *593:B I *D sky130_fd_sc_hd__nor2_1
*I *582:B I *D sky130_fd_sc_hd__nor2_1
*I *603:B1 I *D sky130_fd_sc_hd__a21oi_1
*I *577:B I *D sky130_fd_sc_hd__nor2_1
*I *576:Y O *D sky130_fd_sc_hd__clkinv_1
*CAP
1 *593:B 5.53588e-05
2 *582:B 0
3 *603:B1 0
4 *577:B 0.000186279
5 *576:Y 0.000207906
6 *110:37 0.000165908
7 *110:24 0.000132176
8 *577:B *579:A 0.000205393
9 *577:B *739:D 0.000118166
10 *577:B *123:10 1.44467e-05
11 *577:B *363:10 6.73739e-06
12 *577:B *437:109 0
13 *593:B *582:A 4.64747e-05
14 *593:B *654:B 2.65065e-05
15 *593:B *737:D 0.000168417
16 *110:37 *654:A 0.000179286
17 *110:37 *123:10 0
18 *655:A *577:B 0
*RES
1 *576:Y *577:B 33.5179 
2 *576:Y *110:24 9.97254 
3 *110:24 *603:B1 9.24915 
4 *110:24 *110:37 12.8011 
5 *110:37 *582:B 9.24915 
6 *110:37 *593:B 12.2392 
*END

*D_NET *111 0.00158854
*CONN
*I *581:A1 I *D sky130_fd_sc_hd__a21oi_1
*I *578:X O *D sky130_fd_sc_hd__or2_0
*CAP
1 *581:A1 0.000378685
2 *578:X 0.000378685
3 *581:A1 *571:A 6.50727e-05
4 *581:A1 *726:RESET_B 0.000146652
5 *581:A1 *732:CLK 0.000145352
6 *581:A1 *437:31 0.000101133
7 *581:A1 *437:38 0.000257026
8 *581:A2 *581:A1 0.000115934
*RES
1 *578:X *581:A1 38.9161 
*END

*D_NET *112 0.0012052
*CONN
*I *580:A I *D sky130_fd_sc_hd__nor2_1
*I *603:A1 I *D sky130_fd_sc_hd__a21oi_1
*I *579:Y O *D sky130_fd_sc_hd__inv_1
*CAP
1 *580:A 0.000252443
2 *603:A1 0.000127382
3 *579:Y 0
4 *112:4 0.000379826
5 *580:A *581:B1 2.66052e-05
6 *580:A *582:A 2.77625e-06
7 *580:A *113:8 2.53534e-05
8 *603:A1 *579:A 1.00981e-05
9 *603:A2 *580:A 0.000240724
10 *603:A2 *603:A1 0.000139991
*RES
1 *579:Y *112:4 9.24915 
2 *112:4 *603:A1 11.3591 
3 *112:4 *580:A 14.0115 
*END

*D_NET *113 0.000513164
*CONN
*I *581:B1 I *D sky130_fd_sc_hd__a21oi_1
*I *592:B I *D sky130_fd_sc_hd__nor2_1
*I *580:Y O *D sky130_fd_sc_hd__nor2_1
*CAP
1 *581:B1 0.000102333
2 *592:B 0
3 *580:Y 4.40155e-05
4 *113:8 0.000146348
5 *581:B1 *582:A 5.03285e-05
6 *113:8 *582:A 0.00011818
7 *580:A *581:B1 2.66052e-05
8 *580:A *113:8 2.53534e-05
9 *581:A2 *581:B1 0
10 *581:A2 *113:8 0
*RES
1 *580:Y *113:8 11.1059 
2 *113:8 *592:B 9.24915 
3 *113:8 *581:B1 12.2151 
*END

*D_NET *114 0.00170607
*CONN
*I *582:A I *D sky130_fd_sc_hd__nor2_1
*I *581:Y O *D sky130_fd_sc_hd__a21oi_1
*CAP
1 *582:A 0.000348123
2 *581:Y 0.000348123
3 *582:A *593:A 6.3657e-05
4 *582:A *736:D 0.000111802
5 *582:A *737:D 2.63315e-05
6 *582:A *737:CLK 0
7 *582:A *123:10 0.000384835
8 *580:A *582:A 2.77625e-06
9 *581:B1 *582:A 5.03285e-05
10 *593:B *582:A 4.64747e-05
11 *603:A2 *582:A 3.24105e-05
12 *655:A *582:A 0.000173028
13 *113:8 *582:A 0.00011818
*RES
1 *581:Y *582:A 39.672 
*END

*D_NET *115 0.00214808
*CONN
*I *587:A2 I *D sky130_fd_sc_hd__o21ai_0
*I *596:B I *D sky130_fd_sc_hd__nor2_1
*I *602:A2 I *D sky130_fd_sc_hd__a21oi_1
*I *583:Y O *D sky130_fd_sc_hd__nand3_1
*CAP
1 *587:A2 0.000185577
2 *596:B 0
3 *602:A2 1.15099e-05
4 *583:Y 0.000468256
5 *115:12 0.000294188
6 *587:A2 *587:A1 0.000490749
7 *587:A2 *587:B1 0.000134086
8 *587:A2 *119:12 0.00018916
9 *602:A2 *596:A 6.27718e-05
10 *602:A2 *339:16 6.27718e-05
11 *115:12 *583:B 2.41274e-06
12 *115:12 *599:A 1.00846e-05
13 *115:12 *600:A 9.09806e-05
14 *115:12 *647:B 3.64574e-05
15 *115:12 *163:18 6.50586e-05
16 *115:12 *289:20 4.40137e-05
*RES
1 *583:Y *115:12 23.8535 
2 *115:12 *602:A2 9.97254 
3 *115:12 *596:B 9.24915 
4 *583:Y *587:A2 36.3896 
*END

*D_NET *116 0.000536188
*CONN
*I *586:A I *D sky130_fd_sc_hd__nand2_1
*I *597:A2 I *D sky130_fd_sc_hd__a21oi_1
*I *584:Y O *D sky130_fd_sc_hd__nand2_1
*CAP
1 *586:A 1.14521e-05
2 *597:A2 4.57869e-05
3 *584:Y 2.32231e-05
4 *116:6 8.04622e-05
5 *586:A *336:20 1.02267e-05
6 *597:A2 *597:A1 0.000161956
7 *597:A2 *597:B1 3.13805e-06
8 *597:A2 *336:20 6.55265e-05
9 *116:6 *597:A1 0.000111352
10 *116:6 *336:20 2.30636e-05
*RES
1 *584:Y *116:6 10.5271 
2 *116:6 *597:A2 11.6605 
3 *116:6 *586:A 9.82786 
*END

*D_NET *117 0.000660577
*CONN
*I *586:B I *D sky130_fd_sc_hd__nand2_1
*I *585:Y O *D sky130_fd_sc_hd__inv_1
*CAP
1 *586:B 0.00016704
2 *585:Y 0.00016704
3 *586:B *583:A 0.000142487
4 *586:B *587:A1 9.90332e-05
5 *586:B *587:B1 2.91752e-05
6 *586:B *595:A 5.23577e-05
7 *586:B *336:10 3.44412e-06
*RES
1 *585:Y *586:B 31.7161 
*END

*D_NET *118 0.00165869
*CONN
*I *587:B1 I *D sky130_fd_sc_hd__o21ai_0
*I *586:Y O *D sky130_fd_sc_hd__nand2_1
*CAP
1 *587:B1 0.000376989
2 *586:Y 0.000376989
3 *587:B1 *583:A 0
4 *587:B1 *587:A1 3.17385e-05
5 *587:B1 *119:12 0.000214318
6 *587:B1 *235:10 0.000141811
7 *587:B1 *336:20 2.58616e-05
8 *587:B1 *338:14 0.000247216
9 *587:B1 *442:22 8.0509e-05
10 *586:B *587:B1 2.91752e-05
11 *587:A2 *587:B1 0.000134086
12 *92:10 *587:B1 0
*RES
1 *586:Y *587:B1 40.8502 
*END

*D_NET *119 0.00260728
*CONN
*I *647:A I *D sky130_fd_sc_hd__nor3_1
*I *590:A I *D sky130_fd_sc_hd__nor2_1
*I *587:Y O *D sky130_fd_sc_hd__o21ai_0
*CAP
1 *647:A 0.000219415
2 *590:A 0.000110433
3 *587:Y 0.000229366
4 *119:12 0.000559214
5 *590:A *590:B 2.36179e-05
6 *590:A *699:CLK 6.27782e-05
7 *590:A *384:48 0.000307951
8 *590:A *442:79 0.000107496
9 *647:A *752:D 3.58321e-05
10 *647:A *121:17 0
11 *647:A *163:18 0.000310094
12 *647:A *289:20 3.14978e-05
13 *119:12 *648:A 1.53822e-05
14 *119:12 *699:RESET_B 4.21937e-05
15 *119:12 *235:10 1.22289e-05
16 *119:12 *384:48 0.000136298
17 *587:A2 *119:12 0.00018916
18 *587:B1 *119:12 0.000214318
*RES
1 *587:Y *119:12 26.6237 
2 *119:12 *590:A 13.8789 
3 *119:12 *647:A 25.1205 
*END

*D_NET *120 0.000509983
*CONN
*I *589:A I *D sky130_fd_sc_hd__clkinv_1
*I *588:Y O *D sky130_fd_sc_hd__xnor2_1
*CAP
1 *589:A 0.000126028
2 *588:Y 0.000126028
3 *589:A *588:B 0.000113309
4 *589:A *243:30 6.27782e-05
5 *589:A *442:71 6.23779e-05
6 *54:105 *589:A 1.94615e-05
*RES
1 *588:Y *589:A 31.2994 
*END

*D_NET *121 0.00251075
*CONN
*I *598:B I *D sky130_fd_sc_hd__nor2_1
*I *601:B I *D sky130_fd_sc_hd__nor2_1
*I *602:B1 I *D sky130_fd_sc_hd__a21oi_1
*I *590:B I *D sky130_fd_sc_hd__nor2_1
*I *589:Y O *D sky130_fd_sc_hd__clkinv_1
*CAP
1 *598:B 7.94682e-05
2 *601:B 0
3 *602:B1 0
4 *590:B 0.000109351
5 *589:Y 0
6 *121:30 0.000166792
7 *121:17 0.000417913
8 *121:4 0.00043994
9 *590:B *384:48 2.20471e-05
10 *590:B *442:79 6.27718e-05
11 *598:B *750:D 2.58616e-05
12 *598:B *443:20 6.04641e-05
13 *121:17 *588:B 8.72115e-06
14 *121:17 *647:B 0.000169205
15 *121:17 *647:C 0.000217714
16 *121:17 *752:D 5.53934e-05
17 *121:17 *783:A 0
18 *121:17 *163:18 0
19 *121:17 *442:71 2.86829e-05
20 *121:17 *442:79 0.000184516
21 *121:30 *647:B 0.000163478
22 *121:30 *647:C 0.000153119
23 *121:30 *443:20 6.08467e-05
24 *590:A *590:B 2.36179e-05
25 *647:A *121:17 0
26 *54:105 *590:B 6.08467e-05
*RES
1 *589:Y *121:4 9.24915 
2 *121:4 *590:B 12.2151 
3 *121:4 *121:17 15.4675 
4 *121:17 *602:B1 13.7491 
5 *121:17 *121:30 8.30115 
6 *121:30 *601:B 9.24915 
7 *121:30 *598:B 12.2392 
*END

*D_NET *122 0.000338212
*CONN
*I *592:A I *D sky130_fd_sc_hd__nor2_1
*I *591:Y O *D sky130_fd_sc_hd__inv_1
*CAP
1 *592:A 0.000147748
2 *591:Y 0.000147748
3 *592:A *360:23 0
4 *592:A *444:35 0
5 *104:6 *592:A 4.27168e-05
*RES
1 *591:Y *592:A 30.6069 
*END

*D_NET *123 0.00215452
*CONN
*I *655:B I *D sky130_fd_sc_hd__nor3_1
*I *593:A I *D sky130_fd_sc_hd__nor2_1
*I *592:Y O *D sky130_fd_sc_hd__nor2_1
*CAP
1 *655:B 0.000312695
2 *593:A 1.09091e-05
3 *592:Y 0.000463763
4 *123:10 0.000787366
5 *593:A *737:D 6.3657e-05
6 *655:B *655:C 0
7 *655:B *437:107 0
8 *123:10 *579:A 4.3116e-06
9 *123:10 *654:A 0
10 *577:B *123:10 1.44467e-05
11 *582:A *593:A 6.3657e-05
12 *582:A *123:10 0.000384835
13 *603:A2 *123:10 1.40667e-05
14 *655:A *655:B 2.72505e-05
15 *655:A *123:10 7.56248e-06
16 *110:37 *123:10 0
*RES
1 *592:Y *123:10 22.6783 
2 *123:10 *593:A 14.4725 
3 *123:10 *655:B 20.1251 
*END

*D_NET *124 0.00165911
*CONN
*I *597:A1 I *D sky130_fd_sc_hd__a21oi_1
*I *594:X O *D sky130_fd_sc_hd__or2_0
*CAP
1 *597:A1 0.00049674
2 *594:X 0.00049674
3 *597:A1 *584:A 7.01935e-06
4 *597:A1 *336:10 0.000111236
5 *597:A1 *336:20 7.92757e-06
6 *597:A1 *337:12 1.03403e-05
7 *597:A1 *337:16 0.000255793
8 *597:A2 *597:A1 0.000161956
9 *116:6 *597:A1 0.000111352
*RES
1 *594:X *597:A1 38.1207 
*END

*D_NET *125 0.000824387
*CONN
*I *602:A1 I *D sky130_fd_sc_hd__a21oi_1
*I *596:A I *D sky130_fd_sc_hd__nor2_1
*I *595:Y O *D sky130_fd_sc_hd__inv_1
*CAP
1 *602:A1 0
2 *596:A 0.0001021
3 *595:Y 0.000105011
4 *125:12 0.000207111
5 *596:A *597:B1 7.29985e-05
6 *596:A *339:16 9.77961e-05
7 *125:12 *600:B 1.6352e-05
8 *125:12 *647:B 7.26748e-05
9 *125:12 *443:20 8.75727e-05
10 *602:A2 *596:A 6.27718e-05
*RES
1 *595:Y *125:12 20.6666 
2 *125:12 *596:A 12.7938 
3 *125:12 *602:A1 9.24915 
*END

*D_NET *126 0.00222919
*CONN
*I *597:B1 I *D sky130_fd_sc_hd__a21oi_1
*I *600:B I *D sky130_fd_sc_hd__nor2_1
*I *596:Y O *D sky130_fd_sc_hd__nor2_1
*CAP
1 *597:B1 9.72239e-05
2 *600:B 0.000534245
3 *596:Y 0
4 *126:4 0.000631469
5 *597:B1 *339:16 1.19705e-05
6 *600:B *600:A 0.000670135
7 *600:B *730:D 6.0685e-05
8 *600:B *731:CLK 1.82696e-05
9 *600:B *751:RESET_B 5.54078e-05
10 *600:B *129:12 1.31657e-05
11 *600:B *331:124 0
12 *600:B *443:54 4.41258e-05
13 *596:A *597:B1 7.29985e-05
14 *597:A2 *597:B1 3.13805e-06
15 *125:12 *600:B 1.6352e-05
*RES
1 *596:Y *126:4 9.24915 
2 *126:4 *600:B 35.3681 
3 *126:4 *597:B1 11.1059 
*END

*D_NET *127 0.00126559
*CONN
*I *598:A I *D sky130_fd_sc_hd__nor2_1
*I *597:Y O *D sky130_fd_sc_hd__a21oi_1
*CAP
1 *598:A 0.000279809
2 *597:Y 0.000279809
3 *598:A *646:A 6.51686e-05
4 *598:A *647:C 0.000218517
5 *598:A *335:6 0.000109421
6 *598:A *339:16 0.000312869
*RES
1 *597:Y *598:A 36.5668 
*END

*D_NET *128 0.00241436
*CONN
*I *600:A I *D sky130_fd_sc_hd__nor2_1
*I *599:Y O *D sky130_fd_sc_hd__inv_1
*CAP
1 *600:A 0.00076877
2 *599:Y 0.00076877
3 *600:A *647:B 0
4 *600:A *730:D 2.16355e-05
5 *600:A *163:18 8.62625e-06
6 *600:A *289:20 4.17341e-05
7 *600:A *331:124 0
8 *600:A *336:20 3.04809e-05
9 *600:A *337:12 0
10 *600:A *439:124 1.32315e-05
11 *600:B *600:A 0.000670135
12 *115:12 *600:A 9.09806e-05
*RES
1 *599:Y *600:A 47.4048 
*END

*D_NET *129 0.00207872
*CONN
*I *601:A I *D sky130_fd_sc_hd__nor2_1
*I *647:B I *D sky130_fd_sc_hd__nor3_1
*I *600:Y O *D sky130_fd_sc_hd__nor2_1
*CAP
1 *601:A 0
2 *647:B 0.000229815
3 *600:Y 0.000394034
4 *129:12 0.000623849
5 *647:B *289:20 6.92705e-05
6 *129:12 *646:A 0
7 *129:12 *647:C 0.000134349
8 *129:12 *751:RESET_B 5.54078e-05
9 *129:12 *443:54 0.000117018
10 *600:A *647:B 0
11 *600:B *129:12 1.31657e-05
12 *115:12 *647:B 3.64574e-05
13 *121:17 *647:B 0.000169205
14 *121:30 *647:B 0.000163478
15 *125:12 *647:B 7.26748e-05
*RES
1 *600:Y *129:12 24.5119 
2 *129:12 *647:B 20.4571 
3 *129:12 *601:A 13.7491 
*END

*D_NET *130 0.000425343
*CONN
*I *605:A I *D sky130_fd_sc_hd__clkinv_1
*I *604:Y O *D sky130_fd_sc_hd__xnor2_1
*CAP
1 *605:A 0.000188669
2 *604:Y 0.000188669
3 *605:A *615:B 2.8322e-05
4 *96:20 *605:A 1.96819e-05
*RES
1 *604:Y *605:A 30.7476 
*END

*D_NET *131 0.00274602
*CONN
*I *638:A I *D sky130_fd_sc_hd__nor2_1
*I *617:B1 I *D sky130_fd_sc_hd__a21oi_1
*I *635:B1 I *D sky130_fd_sc_hd__a21oi_1
*I *613:A I *D sky130_fd_sc_hd__nor2_1
*I *605:Y O *D sky130_fd_sc_hd__clkinv_1
*CAP
1 *638:A 0.000124409
2 *617:B1 8.77259e-05
3 *635:B1 0
4 *613:A 0.000138034
5 *605:Y 0.000203878
6 *131:26 0.000290491
7 *131:20 0.000377185
8 *131:18 0.000465289
9 *613:A *614:A 2.44243e-05
10 *613:A *658:A 2.53218e-05
11 *613:A *136:12 3.13805e-06
12 *617:B1 *637:A2 7.60278e-05
13 *617:B1 *637:B1 2.50842e-05
14 *617:B1 *134:14 7.32658e-06
15 *638:A *638:B 7.46213e-05
16 *638:A *659:A 2.41483e-05
17 *638:A *659:B 6.50727e-05
18 *638:A *659:C_N 5.04829e-06
19 *638:A *172:12 5.56461e-05
20 *131:18 *608:A 4.18761e-05
21 *131:18 *729:RESET_B 0
22 *131:18 *172:12 2.57102e-05
23 *131:18 *446:74 0.000172516
24 *131:20 *608:A 2.28508e-05
25 *131:20 *659:B 6.98648e-06
26 *131:20 *659:C_N 1.79807e-05
27 *131:20 *729:RESET_B 0
28 *131:20 *134:14 0
29 *131:20 *156:12 2.82537e-05
30 *131:26 *614:A 2.89004e-05
31 *131:26 *636:B1 1.65872e-05
32 *131:26 *637:A1 0.000217158
33 *131:26 *658:A 5.04829e-06
34 *131:26 *659:C_N 2.75292e-05
35 *131:26 *730:D 3.82669e-05
36 *131:26 *136:20 3.00174e-06
37 *131:26 *156:12 2.04806e-05
*RES
1 *605:Y *131:18 19.4634 
2 *131:18 *131:20 3.07775 
3 *131:20 *131:26 9.96216 
4 *131:26 *613:A 12.7938 
5 *131:26 *635:B1 9.24915 
6 *131:20 *617:B1 15.6059 
7 *131:18 *638:A 18.403 
*END

*D_NET *132 0.00124591
*CONN
*I *611:A I *D sky130_fd_sc_hd__nor2_1
*I *636:A1 I *D sky130_fd_sc_hd__o31a_1
*I *635:A1 I *D sky130_fd_sc_hd__a21oi_1
*I *606:Y O *D sky130_fd_sc_hd__inv_1
*CAP
1 *611:A 1.59041e-05
2 *636:A1 0
3 *635:A1 9.19375e-05
4 *606:Y 5.86523e-05
5 *132:10 0.000203317
6 *132:6 0.000185936
7 *611:A *611:B 4.76161e-06
8 *635:A1 *637:A1 3.00174e-06
9 *635:A1 *136:20 0.000116652
10 *635:A1 *137:21 2.48716e-05
11 *132:6 *606:A 6.19864e-05
12 *132:10 *611:B 3.93641e-05
13 *132:10 *612:B 4.76161e-06
14 *132:10 *636:B1 6.08467e-05
15 *132:10 *136:20 6.08467e-05
16 *132:10 *137:6 0.000298964
17 *132:10 *375:20 1.4106e-05
*RES
1 *606:Y *132:6 10.8044 
2 *132:6 *132:10 4.62973 
3 *132:10 *635:A1 20.4964 
4 *132:10 *636:A1 9.24915 
5 *132:6 *611:A 9.82786 
*END

*D_NET *133 0.00220629
*CONN
*I *609:A I *D sky130_fd_sc_hd__nor2_1
*I *615:A I *D sky130_fd_sc_hd__nand2_1
*I *607:Y O *D sky130_fd_sc_hd__inv_1
*CAP
1 *609:A 0
2 *615:A 0.000448187
3 *607:Y 0.000151212
4 *133:8 0.000599399
5 *615:A *757:D 0.000778083
6 *615:A *446:8 6.12656e-05
7 *615:A *446:45 5.64608e-05
8 *133:8 *607:A 6.36709e-05
9 *133:8 *609:B 1.64789e-05
10 *133:8 *694:CLK 3.15349e-05
*RES
1 *607:Y *133:8 13.047 
2 *133:8 *615:A 34.0954 
3 *133:8 *609:A 9.24915 
*END

*D_NET *134 0.00255023
*CONN
*I *615:B I *D sky130_fd_sc_hd__nand2_1
*I *609:B I *D sky130_fd_sc_hd__nor2_1
*I *637:B1 I *D sky130_fd_sc_hd__a21oi_1
*I *608:Y O *D sky130_fd_sc_hd__inv_1
*CAP
1 *615:B 0.000258927
2 *609:B 0.000108961
3 *637:B1 0.00019927
4 *608:Y 7.36964e-05
5 *134:14 0.000410831
6 *134:8 0.000435224
7 *609:B *617:A2 4.82966e-05
8 *615:B *604:A 4.91133e-05
9 *615:B *608:A 1.67134e-05
10 *615:B *616:B 0.00044188
11 *615:B *639:A 9.04726e-06
12 *615:B *757:D 0
13 *637:B1 *617:A2 2.38284e-05
14 *637:B1 *637:A1 6.08467e-05
15 *637:B1 *637:A2 5.28114e-05
16 *637:B1 *369:8 2.65667e-05
17 *134:14 *608:A 2.59752e-05
18 *134:14 *616:B 0.000197554
19 *134:14 *659:C_N 3.34802e-05
20 *605:A *615:B 2.8322e-05
21 *617:B1 *637:B1 2.50842e-05
22 *617:B1 *134:14 7.32658e-06
23 *131:20 *134:14 0
24 *133:8 *609:B 1.64789e-05
*RES
1 *608:Y *134:8 14.7498 
2 *134:8 *134:14 8.57172 
3 *134:14 *637:B1 15.0363 
4 *134:14 *609:B 12.2151 
5 *134:8 *615:B 23.0557 
*END

*D_NET *135 0.000454575
*CONN
*I *610:A I *D sky130_fd_sc_hd__clkinv_1
*I *609:Y O *D sky130_fd_sc_hd__nor2_1
*CAP
1 *610:A 0.000114319
2 *609:Y 0.000114319
3 *610:A *616:A 7.50872e-05
4 *610:A *636:B1 0
5 *610:A *730:D 0
6 *610:A *757:D 0.00012568
7 *610:A *136:6 1.00766e-05
8 *610:A *136:12 1.50924e-05
9 *610:A *446:10 0
*RES
1 *609:Y *610:A 30.8842 
*END

*D_NET *136 0.00185667
*CONN
*I *616:A I *D sky130_fd_sc_hd__nand2_1
*I *635:A2 I *D sky130_fd_sc_hd__a21oi_1
*I *636:A3 I *D sky130_fd_sc_hd__o31a_1
*I *611:B I *D sky130_fd_sc_hd__nor2_1
*I *610:Y O *D sky130_fd_sc_hd__clkinv_1
*CAP
1 *616:A 8.12836e-05
2 *635:A2 0
3 *636:A3 0
4 *611:B 7.25032e-05
5 *610:Y 4.76249e-05
6 *136:20 0.000168657
7 *136:12 0.000252137
8 *136:6 0.000284891
9 *611:B *614:B 6.08467e-05
10 *611:B *636:B1 6.27782e-05
11 *616:A *616:B 5.22654e-06
12 *616:A *617:A1 0
13 *616:A *757:D 3.8079e-05
14 *136:12 *614:A 3.63125e-05
15 *136:12 *614:B 6.08467e-05
16 *136:12 *636:B1 0.000164829
17 *136:12 *658:A 0
18 *136:20 *614:B 2.08133e-05
19 *136:20 *637:A1 6.14682e-06
20 *136:20 *730:D 0.000158651
21 *136:20 *375:20 7.01935e-06
22 *610:A *616:A 7.50872e-05
23 *610:A *136:6 1.00766e-05
24 *610:A *136:12 1.50924e-05
25 *611:A *611:B 4.76161e-06
26 *613:A *136:12 3.13805e-06
27 *635:A1 *136:20 0.000116652
28 *131:26 *136:20 3.00174e-06
29 *132:10 *611:B 3.93641e-05
30 *132:10 *136:20 6.08467e-05
*RES
1 *610:Y *136:6 9.97254 
2 *136:6 *136:12 5.06377 
3 *136:12 *136:20 12.8011 
4 *136:20 *611:B 12.2392 
5 *136:20 *636:A3 9.24915 
6 *136:12 *635:A2 9.24915 
7 *136:6 *616:A 20.9116 
*END

*D_NET *137 0.00280505
*CONN
*I *637:A1 I *D sky130_fd_sc_hd__a21oi_1
*I *614:A I *D sky130_fd_sc_hd__nand2_1
*I *612:B I *D sky130_fd_sc_hd__nor2_1
*I *611:Y O *D sky130_fd_sc_hd__nor2_1
*CAP
1 *637:A1 0.000158521
2 *614:A 0.000207352
3 *612:B 0.000110017
4 *611:Y 0.000279785
5 *137:21 0.000425804
6 *137:6 0.000449732
7 *612:B *613:B 6.27718e-05
8 *612:B *375:16 6.27782e-05
9 *612:B *375:20 3.29737e-05
10 *614:A *614:B 6.08467e-05
11 *614:A *636:B1 2.17699e-05
12 *637:A1 *637:A2 6.08467e-05
13 *637:A1 *659:B 3.60268e-05
14 *637:A1 *156:12 5.77352e-05
15 *637:A1 *375:10 2.63824e-05
16 *637:A1 *375:16 1.21985e-05
17 *137:6 *375:20 1.77588e-05
18 *137:21 *375:16 1.63652e-05
19 *613:A *614:A 2.44243e-05
20 *635:A1 *637:A1 3.00174e-06
21 *635:A1 *137:21 2.48716e-05
22 *637:B1 *637:A1 6.08467e-05
23 *131:26 *614:A 2.89004e-05
24 *131:26 *637:A1 0.000217158
25 *132:10 *612:B 4.76161e-06
26 *132:10 *137:6 0.000298964
27 *136:12 *614:A 3.63125e-05
28 *136:20 *637:A1 6.14682e-06
*RES
1 *611:Y *137:6 13.8548 
2 *137:6 *612:B 12.7938 
3 *137:6 *137:21 5.91674 
4 *137:21 *614:A 18.5718 
5 *137:21 *637:A1 19.2113 
*END

*D_NET *138 0.000503479
*CONN
*I *613:B I *D sky130_fd_sc_hd__nor2_1
*I *612:Y O *D sky130_fd_sc_hd__nor2_1
*CAP
1 *613:B 0.000203807
2 *612:Y 0.000203807
3 *613:B *375:16 3.30938e-05
4 *612:B *613:B 6.27718e-05
*RES
1 *612:Y *613:B 31.5781 
*END

*D_NET *139 0.000326618
*CONN
*I *617:A1 I *D sky130_fd_sc_hd__a21oi_1
*I *614:Y O *D sky130_fd_sc_hd__nand2_1
*CAP
1 *617:A1 8.30603e-05
2 *614:Y 8.30603e-05
3 *617:A1 *616:B 5.22654e-06
4 *617:A1 *659:C_N 8.01987e-05
5 *617:A1 *730:D 7.50722e-05
6 *616:A *617:A1 0
*RES
1 *614:Y *617:A1 30.1608 
*END

*D_NET *140 0.00143278
*CONN
*I *616:B I *D sky130_fd_sc_hd__nand2_1
*I *615:Y O *D sky130_fd_sc_hd__nand2_1
*CAP
1 *616:B 0.000381692
2 *615:Y 0.000381692
3 *616:B *659:C_N 9.57557e-06
4 *616:B *757:D 0
5 *616:B *439:170 9.93366e-06
6 *615:B *616:B 0.00044188
7 *616:A *616:B 5.22654e-06
8 *617:A1 *616:B 5.22654e-06
9 *134:14 *616:B 0.000197554
*RES
1 *615:Y *616:B 39.7116 
*END

*D_NET *141 0.000170397
*CONN
*I *617:A2 I *D sky130_fd_sc_hd__a21oi_1
*I *616:Y O *D sky130_fd_sc_hd__nand2_1
*CAP
1 *617:A2 4.91361e-05
2 *616:Y 4.91361e-05
3 *609:B *617:A2 4.82966e-05
4 *637:B1 *617:A2 2.38284e-05
*RES
1 *616:Y *617:A2 20.355 
*END

*D_NET *142 0.00254428
*CONN
*I *634:A2 I *D sky130_fd_sc_hd__a21oi_1
*I *628:B I *D sky130_fd_sc_hd__nor2_1
*I *622:A2 I *D sky130_fd_sc_hd__o21ai_0
*I *618:Y O *D sky130_fd_sc_hd__nand3_1
*CAP
1 *634:A2 0
2 *628:B 2.6146e-05
3 *622:A2 0.000104517
4 *618:Y 0.000591921
5 *142:26 0.000248245
6 *142:18 0.000709503
7 *622:A2 *622:A1 0.000141677
8 *622:A2 *630:A 1.57933e-05
9 *622:A2 *651:B 0
10 *622:A2 *745:RESET_B 8.76063e-05
11 *628:B *627:A 2.55006e-06
12 *628:B *629:B1 3.01683e-06
13 *628:B *632:B 6.50727e-05
14 *628:B *150:8 1.67768e-05
15 *142:18 *618:C 6.46815e-05
16 *142:18 *632:B 1.07248e-05
17 *142:18 *651:B 3.46062e-05
18 *142:18 *743:D 0
19 *142:18 *743:RESET_B 0.000100995
20 *142:18 *744:D 0
21 *142:18 *745:RESET_B 0
22 *142:18 *437:60 5.52256e-05
23 *142:26 *629:B1 0
24 *142:26 *630:A 3.25342e-06
25 *142:26 *632:B 0.000190739
26 *142:26 *651:B 5.53934e-05
27 *142:26 *150:8 6.37652e-06
28 *142:26 *351:8 9.45814e-06
*RES
1 *618:Y *142:18 26.9435 
2 *142:18 *142:26 8.60396 
3 *142:26 *622:A2 22.1574 
4 *142:26 *628:B 10.5513 
5 *142:18 *634:A2 13.7491 
*END

*D_NET *143 0.000700807
*CONN
*I *629:A2 I *D sky130_fd_sc_hd__a21oi_1
*I *621:A I *D sky130_fd_sc_hd__nand2_1
*I *619:Y O *D sky130_fd_sc_hd__nand2_1
*CAP
1 *629:A2 0
2 *621:A 0.000145766
3 *619:Y 8.43516e-05
4 *143:8 0.000230117
5 *621:A *621:B 0.000143161
6 *621:A *622:B1 5.04829e-06
7 *621:A *634:A1 0
8 *621:A *745:RESET_B 0
9 *621:A *350:10 5.78887e-05
10 *143:8 *618:C 3.07997e-05
11 *143:8 *634:A1 0
12 *143:8 *350:10 3.67528e-06
*RES
1 *619:Y *143:8 15.9964 
2 *143:8 *621:A 18.3808 
3 *143:8 *629:A2 13.7491 
*END

*D_NET *144 0.000634517
*CONN
*I *621:B I *D sky130_fd_sc_hd__nand2_1
*I *620:Y O *D sky130_fd_sc_hd__inv_1
*CAP
1 *621:B 0.000235314
2 *620:Y 0.000235314
3 *621:B *620:A 1.42392e-05
4 *621:B *629:A1 6.48882e-06
5 *621:A *621:B 0.000143161
*RES
1 *620:Y *621:B 32.2707 
*END

*D_NET *145 0.000341819
*CONN
*I *622:B1 I *D sky130_fd_sc_hd__o21ai_0
*I *621:Y O *D sky130_fd_sc_hd__nand2_1
*CAP
1 *622:B1 0.000168385
2 *621:Y 0.000168385
3 *621:A *622:B1 5.04829e-06
*RES
1 *621:Y *622:B1 22.0188 
*END

*D_NET *146 0.000820344
*CONN
*I *625:A I *D sky130_fd_sc_hd__nor2_1
*I *651:A I *D sky130_fd_sc_hd__nor3_1
*I *622:Y O *D sky130_fd_sc_hd__o21ai_0
*CAP
1 *625:A 2.12792e-05
2 *651:A 8.7275e-05
3 *622:Y 0.00010803
4 *146:8 0.000216584
5 *651:A *625:B 6.27782e-05
6 *651:A *651:B 0.000209814
7 *651:A *651:C 0.000114584
*RES
1 *622:Y *146:8 11.6605 
2 *146:8 *651:A 12.7456 
3 *146:8 *625:A 9.82786 
*END

*D_NET *147 0.000424881
*CONN
*I *624:A I *D sky130_fd_sc_hd__clkinv_1
*I *623:Y O *D sky130_fd_sc_hd__xnor2_1
*CAP
1 *624:A 0.000137776
2 *623:Y 0.000137776
3 *624:A *740:RESET_B 1.21461e-06
4 *624:A *743:D 0
5 *624:A *744:D 0
6 *624:A *746:D 0
7 *624:A *437:115 0.000148114
*RES
1 *623:Y *624:A 30.8842 
*END

*D_NET *148 0.00164089
*CONN
*I *633:B I *D sky130_fd_sc_hd__nor2_1
*I *634:B1 I *D sky130_fd_sc_hd__a21oi_1
*I *630:B I *D sky130_fd_sc_hd__nor2_1
*I *625:B I *D sky130_fd_sc_hd__nor2_1
*I *624:Y O *D sky130_fd_sc_hd__clkinv_1
*CAP
1 *633:B 0
2 *634:B1 0
3 *630:B 0
4 *625:B 0.000115918
5 *624:Y 4.91213e-05
6 *148:14 0.000166497
7 *148:10 0.000246555
8 *148:6 0.000245097
9 *625:B *651:B 0.000168829
10 *625:B *651:C 0.000209463
11 *148:10 *633:A 2.23064e-05
12 *148:10 *650:B 6.08467e-05
13 *148:10 *746:D 1.19856e-05
14 *148:10 *347:6 1.00846e-05
15 *148:14 *651:B 0.000148129
16 *148:14 *651:C 0.000114955
17 *148:14 *345:10 8.32204e-06
18 *651:A *625:B 6.27782e-05
*RES
1 *624:Y *148:6 10.5271 
2 *148:6 *148:10 4.62973 
3 *148:10 *148:14 7.1625 
4 *148:14 *625:B 18.3808 
5 *148:14 *630:B 13.7491 
6 *148:10 *634:B1 9.24915 
7 *148:6 *633:B 9.24915 
*END

*D_NET *149 0.000710223
*CONN
*I *629:A1 I *D sky130_fd_sc_hd__a21oi_1
*I *626:X O *D sky130_fd_sc_hd__or2_0
*CAP
1 *629:A1 0.000300499
2 *626:X 0.000300499
3 *629:A1 *618:C 4.27003e-05
4 *629:A1 *620:A 3.31287e-05
5 *629:A1 *384:78 2.69064e-05
6 *621:B *629:A1 6.48882e-06
*RES
1 *626:X *629:A1 32.8267 
*END

*D_NET *150 0.00122345
*CONN
*I *628:A I *D sky130_fd_sc_hd__nor2_1
*I *634:A1 I *D sky130_fd_sc_hd__a21oi_1
*I *627:Y O *D sky130_fd_sc_hd__inv_1
*CAP
1 *628:A 0
2 *634:A1 0.000333009
3 *627:Y 9.09365e-05
4 *150:8 0.000423946
5 *634:A1 *631:A 1.24404e-05
6 *634:A1 *632:A 1.63667e-05
7 *634:A1 *745:RESET_B 0.000122068
8 *634:A1 *154:6 4.69326e-06
9 *150:8 *627:A 0
10 *150:8 *629:B1 8.23171e-06
11 *150:8 *630:A 0.000182363
12 *150:8 *632:B 6.24474e-06
13 *621:A *634:A1 0
14 *628:B *150:8 1.67768e-05
15 *142:26 *150:8 6.37652e-06
16 *143:8 *634:A1 0
*RES
1 *627:Y *150:8 12.3477 
2 *150:8 *634:A1 23.9928 
3 *150:8 *628:A 9.24915 
*END

*D_NET *151 0.000871538
*CONN
*I *629:B1 I *D sky130_fd_sc_hd__a21oi_1
*I *632:B I *D sky130_fd_sc_hd__nor2_1
*I *628:Y O *D sky130_fd_sc_hd__nor2_1
*CAP
1 *629:B1 0.000102526
2 *632:B 0.000173688
3 *628:Y 0
4 *151:4 0.000276214
5 *629:B1 *630:A 3.86207e-06
6 *632:B *745:RESET_B 3.1218e-05
7 *628:B *629:B1 3.01683e-06
8 *628:B *632:B 6.50727e-05
9 *142:18 *632:B 1.07248e-05
10 *142:26 *629:B1 0
11 *142:26 *632:B 0.000190739
12 *150:8 *629:B1 8.23171e-06
13 *150:8 *632:B 6.24474e-06
*RES
1 *628:Y *151:4 9.24915 
2 *151:4 *632:B 22.329 
3 *151:4 *629:B1 11.1059 
*END

*D_NET *152 0.000965329
*CONN
*I *630:A I *D sky130_fd_sc_hd__nor2_1
*I *629:Y O *D sky130_fd_sc_hd__a21oi_1
*CAP
1 *630:A 0.000293361
2 *629:Y 0.000293361
3 *630:A *622:A1 1.02917e-05
4 *630:A *651:B 8.14888e-05
5 *630:A *351:8 8.15554e-05
6 *622:A2 *630:A 1.57933e-05
7 *629:B1 *630:A 3.86207e-06
8 *142:26 *630:A 3.25342e-06
9 *150:8 *630:A 0.000182363
*RES
1 *629:Y *630:A 32.9661 
*END

*D_NET *153 0.000234384
*CONN
*I *632:A I *D sky130_fd_sc_hd__nor2_1
*I *631:Y O *D sky130_fd_sc_hd__inv_1
*CAP
1 *632:A 7.61252e-05
2 *631:Y 7.61252e-05
3 *632:A *631:A 6.57665e-05
4 *632:A *650:A 0
5 *632:A *348:20 0
6 *634:A1 *632:A 1.63667e-05
*RES
1 *631:Y *632:A 20.6323 
*END

*D_NET *154 0.00242541
*CONN
*I *651:B I *D sky130_fd_sc_hd__nor3_1
*I *633:A I *D sky130_fd_sc_hd__nor2_1
*I *632:Y O *D sky130_fd_sc_hd__nor2_1
*CAP
1 *651:B 0.000298596
2 *633:A 0.000276034
3 *632:Y 0.000133157
4 *154:6 0.000707787
5 *633:A *746:D 0.000111802
6 *633:A *347:6 6.50727e-05
7 *651:B *622:A1 2.12494e-05
8 *651:B *651:C 4.58907e-05
9 *651:B *744:D 4.02608e-05
10 *651:B *745:RESET_B 0
11 *651:B *345:10 2.99394e-07
12 *622:A2 *651:B 0
13 *625:B *651:B 0.000168829
14 *630:A *651:B 8.14888e-05
15 *634:A1 *154:6 4.69326e-06
16 *651:A *651:B 0.000209814
17 *142:18 *651:B 3.46062e-05
18 *142:26 *651:B 5.53934e-05
19 *148:10 *633:A 2.23064e-05
20 *148:14 *651:B 0.000148129
*RES
1 *632:Y *154:6 11.0817 
2 *154:6 *633:A 14.1441 
3 *154:6 *651:B 28.9758 
*END

*D_NET *155 0.0012775
*CONN
*I *636:B1 I *D sky130_fd_sc_hd__o31a_1
*I *658:A I *D sky130_fd_sc_hd__nand2_1
*I *635:Y O *D sky130_fd_sc_hd__a21oi_1
*CAP
1 *636:B1 0.000310977
2 *658:A 6.3828e-05
3 *635:Y 0
4 *155:4 0.000374805
5 *636:B1 *614:B 0.000155293
6 *636:B1 *730:D 1.542e-05
7 *610:A *636:B1 0
8 *611:B *636:B1 6.27782e-05
9 *613:A *658:A 2.53218e-05
10 *614:A *636:B1 2.17699e-05
11 *131:26 *636:B1 1.65872e-05
12 *131:26 *658:A 5.04829e-06
13 *132:10 *636:B1 6.08467e-05
14 *136:12 *636:B1 0.000164829
15 *136:12 *658:A 0
*RES
1 *635:Y *155:4 9.24915 
2 *155:4 *658:A 10.9612 
3 *155:4 *636:B1 26.3772 
*END

*D_NET *156 0.00105743
*CONN
*I *659:A I *D sky130_fd_sc_hd__nor3b_1
*I *638:B I *D sky130_fd_sc_hd__nor2_1
*I *637:Y O *D sky130_fd_sc_hd__a21oi_1
*CAP
1 *659:A 2.69273e-05
2 *638:B 0.000157783
3 *637:Y 9.41942e-05
4 *156:12 0.000278904
5 *638:B *659:B 6.50727e-05
6 *638:B *729:D 1.21461e-06
7 *659:A *659:B 1.61631e-05
8 *659:A *659:C_N 3.41459e-05
9 *156:12 *659:B 0.000177787
10 *156:12 *659:C_N 0
11 *637:A1 *156:12 5.77352e-05
12 *638:A *638:B 7.46213e-05
13 *638:A *659:A 2.41483e-05
14 *131:20 *156:12 2.82537e-05
15 *131:26 *156:12 2.04806e-05
*RES
1 *637:Y *156:12 21.9056 
2 *156:12 *638:B 13.3243 
3 *156:12 *659:A 10.5513 
*END

*D_NET *157 0.0015722
*CONN
*I *661:A1 I *D sky130_fd_sc_hd__a21oi_1
*I *641:A2 I *D sky130_fd_sc_hd__o21ai_1
*I *639:Y O *D sky130_fd_sc_hd__inv_1
*CAP
1 *661:A1 0.000190388
2 *641:A2 0.000390963
3 *639:Y 0.000200574
4 *641:A2 *721:CLK 1.79672e-05
5 *641:A2 *238:25 2.99929e-05
6 *661:A1 *640:B 0.000222149
7 *661:A1 *641:A1 6.92705e-05
8 *661:A1 *641:B1 4.82966e-05
9 *661:A1 *660:B 6.50727e-05
10 *661:A1 *661:B1 0.000164829
11 *661:A1 *757:D 0.000122986
12 *52:25 *641:A2 1.0138e-05
13 *68:61 *661:A1 3.95711e-05
*RES
1 *639:Y *641:A2 31.0249 
2 *641:A2 *661:A1 25.901 
*END

*D_NET *158 0.000482817
*CONN
*I *641:B1 I *D sky130_fd_sc_hd__o21ai_1
*I *640:Y O *D sky130_fd_sc_hd__nand2_1
*CAP
1 *641:B1 3.14419e-05
2 *640:Y 3.14419e-05
3 *641:B1 *641:A1 6.50727e-05
4 *641:B1 *757:D 2.39581e-05
5 *641:B1 *202:27 7.34948e-06
6 *661:A1 *641:B1 4.82966e-05
7 *68:61 *641:B1 0.000275256
*RES
1 *640:Y *641:B1 21.4401 
*END

*D_NET *159 0.000749529
*CONN
*I *643:A1 I *D sky130_fd_sc_hd__a21oi_1
*I *642:Y O *D sky130_fd_sc_hd__inv_1
*CAP
1 *643:A1 0.000296764
2 *642:Y 0.000296764
3 *643:A1 *644:B1 4.75721e-06
4 *643:A1 *645:A2 3.51183e-05
5 *643:A1 *680:A2 1.4091e-06
6 *643:A1 *241:16 2.90622e-05
7 *556:C_N *643:A1 1.53563e-05
8 *52:21 *643:A1 3.27905e-05
9 *68:61 *643:A1 3.75066e-05
*RES
1 *642:Y *643:A1 33.7924 
*END

*D_NET *160 0.000916894
*CONN
*I *645:A2 I *D sky130_fd_sc_hd__a21oi_1
*I *643:Y O *D sky130_fd_sc_hd__a21oi_1
*CAP
1 *645:A2 0.00018821
2 *643:Y 0.00018821
3 *645:A2 *643:B1 2.59855e-05
4 *645:A2 *645:A1 7.97906e-05
5 *645:A2 *645:B1 6.50586e-05
6 *645:A2 *202:43 7.34948e-06
7 *645:A2 *241:16 3.69562e-05
8 *643:A1 *645:A2 3.51183e-05
9 *52:25 *645:A2 0.000266846
10 *54:10 *645:A2 1.32845e-05
11 *54:25 *645:A2 1.00846e-05
*RES
1 *643:Y *645:A2 34.5118 
*END

*D_NET *161 0.000148852
*CONN
*I *645:B1 I *D sky130_fd_sc_hd__a21oi_1
*I *644:Y O *D sky130_fd_sc_hd__a211oi_1
*CAP
1 *645:B1 9.36721e-06
2 *644:Y 9.36721e-06
3 *645:B1 *645:A1 6.50586e-05
4 *645:A2 *645:B1 6.50586e-05
*RES
1 *644:Y *645:B1 19.2217 
*END

*D_NET *162 0.00269223
*CONN
*I *647:C I *D sky130_fd_sc_hd__nor3_1
*I *646:Y O *D sky130_fd_sc_hd__nand2_1
*CAP
1 *647:C 0.000699163
2 *646:Y 0.000699163
3 *647:C *646:B 0.00030964
4 *647:C *750:D 0.000122992
5 *647:C *783:A 0
6 *647:C *289:20 6.50727e-05
7 *647:C *333:10 3.6305e-05
8 *647:C *443:54 3.61993e-05
9 *598:A *647:C 0.000218517
10 *121:17 *647:C 0.000217714
11 *121:30 *647:C 0.000153119
12 *129:12 *647:C 0.000134349
*RES
1 *646:Y *647:C 46.5651 
*END

*D_NET *163 0.00199143
*CONN
*I *648:B I *D sky130_fd_sc_hd__nor2_1
*I *649:A2 I *D sky130_fd_sc_hd__a21oi_1
*I *647:Y O *D sky130_fd_sc_hd__nor3_1
*CAP
1 *648:B 0
2 *649:A2 1.313e-05
3 *647:Y 0.000330133
4 *163:18 0.000343263
5 *649:A2 *649:B1 6.27782e-05
6 *163:18 *289:20 0.000659037
7 *514:A *649:A2 6.08467e-05
8 *600:A *163:18 8.62625e-06
9 *647:A *163:18 0.000310094
10 *699:D *163:18 0.000138468
11 *115:12 *163:18 6.50586e-05
12 *121:17 *163:18 0
*RES
1 *647:Y *163:18 31.5619 
2 *163:18 *649:A2 9.97254 
3 *163:18 *648:B 9.24915 
*END

*D_NET *164 0.00047414
*CONN
*I *649:B1 I *D sky130_fd_sc_hd__a21oi_1
*I *648:Y O *D sky130_fd_sc_hd__nor2_1
*CAP
1 *649:B1 8.41209e-05
2 *648:Y 8.41209e-05
3 *649:B1 *243:30 0.000163814
4 *514:A *649:B1 7.93063e-05
5 *649:A2 *649:B1 6.27782e-05
*RES
1 *648:Y *649:B1 22.0188 
*END

*D_NET *165 0.00112862
*CONN
*I *651:C I *D sky130_fd_sc_hd__nor3_1
*I *650:Y O *D sky130_fd_sc_hd__nand2_1
*CAP
1 *651:C 0.00026734
2 *650:Y 0.00026734
3 *651:C *746:D 3.23315e-05
4 *651:C *166:8 7.01935e-06
5 *651:C *345:10 6.96979e-05
6 *625:B *651:C 0.000209463
7 *651:A *651:C 0.000114584
8 *651:B *651:C 4.58907e-05
9 *148:14 *651:C 0.000114955
*RES
1 *650:Y *651:C 36.4246 
*END

*D_NET *166 0.00134387
*CONN
*I *652:B I *D sky130_fd_sc_hd__nor2_1
*I *653:A2 I *D sky130_fd_sc_hd__a21oi_1
*I *651:Y O *D sky130_fd_sc_hd__nor3_1
*CAP
1 *652:B 0
2 *653:A2 1.98453e-05
3 *651:Y 0.000592095
4 *166:8 0.000611941
5 *653:A2 *653:B1 6.27718e-05
6 *166:8 *653:B1 1.19705e-05
7 *166:8 *927:A 3.82228e-05
8 *651:C *166:8 7.01935e-06
*RES
1 *651:Y *166:8 22.0533 
2 *166:8 *653:A2 9.97254 
3 *166:8 *652:B 9.24915 
*END

*D_NET *167 0.000362295
*CONN
*I *653:B1 I *D sky130_fd_sc_hd__a21oi_1
*I *652:Y O *D sky130_fd_sc_hd__nor2_1
*CAP
1 *653:B1 0.000135156
2 *652:Y 0.000135156
3 *653:A2 *653:B1 6.27718e-05
4 *684:D *653:B1 1.72399e-05
5 *166:8 *653:B1 1.19705e-05
*RES
1 *652:Y *653:B1 21.4401 
*END

*D_NET *168 0.000239447
*CONN
*I *655:C I *D sky130_fd_sc_hd__nor3_1
*I *654:Y O *D sky130_fd_sc_hd__nand2_1
*CAP
1 *655:C 8.50558e-05
2 *654:Y 8.50558e-05
3 *655:C *437:107 6.93349e-05
4 *655:B *655:C 0
*RES
1 *654:Y *655:C 30.1608 
*END

*D_NET *169 0.00152272
*CONN
*I *656:B I *D sky130_fd_sc_hd__nor2_1
*I *657:A2 I *D sky130_fd_sc_hd__a21oi_1
*I *655:Y O *D sky130_fd_sc_hd__nor3_1
*CAP
1 *656:B 0
2 *657:A2 2.08675e-05
3 *655:Y 0.000582407
4 *169:8 0.000603274
5 *657:A2 *657:B1 6.3657e-05
6 *169:8 *656:A 6.50714e-05
7 *169:8 *657:B1 9.54357e-06
8 *169:8 *924:A 6.55312e-05
9 *169:8 *445:10 0.000112367
*RES
1 *655:Y *169:8 18.7256 
2 *169:8 *657:A2 9.97254 
3 *169:8 *656:B 9.24915 
*END

*D_NET *170 0.000381834
*CONN
*I *657:B1 I *D sky130_fd_sc_hd__a21oi_1
*I *656:Y O *D sky130_fd_sc_hd__nor2_1
*CAP
1 *657:B1 0.000146566
2 *656:Y 0.000146566
3 *657:B1 *656:A 1.55025e-05
4 *657:A2 *657:B1 6.3657e-05
5 *169:8 *657:B1 9.54357e-06
*RES
1 *656:Y *657:B1 22.0188 
*END

*D_NET *171 0.000849803
*CONN
*I *659:B I *D sky130_fd_sc_hd__nor3b_1
*I *658:Y O *D sky130_fd_sc_hd__nand2_1
*CAP
1 *659:B 0.000203811
2 *658:Y 0.000203811
3 *659:B *729:RESET_B 0
4 *659:B *732:D 0
5 *659:B *375:10 7.50722e-05
6 *637:A1 *659:B 3.60268e-05
7 *638:A *659:B 6.50727e-05
8 *638:B *659:B 6.50727e-05
9 *659:A *659:B 1.61631e-05
10 *131:20 *659:B 6.98648e-06
11 *156:12 *659:B 0.000177787
*RES
1 *658:Y *659:B 33.791 
*END

*D_NET *172 0.00143697
*CONN
*I *660:B I *D sky130_fd_sc_hd__nor2_1
*I *661:A2 I *D sky130_fd_sc_hd__a21oi_1
*I *659:Y O *D sky130_fd_sc_hd__nor3b_1
*CAP
1 *660:B 1.26312e-05
2 *661:A2 0
3 *659:Y 0.000574374
4 *172:12 0.000587006
5 *172:12 *604:B 3.17114e-05
6 *172:12 *639:A 0
7 *172:12 *686:RESET_B 5.82321e-05
8 *172:12 *729:RESET_B 0
9 *638:A *172:12 5.56461e-05
10 *661:A1 *660:B 6.50727e-05
11 *68:61 *660:B 2.65831e-05
12 *131:18 *172:12 2.57102e-05
*RES
1 *659:Y *172:12 31.7404 
2 *172:12 *661:A2 9.24915 
3 *172:12 *660:B 9.97254 
*END

*D_NET *173 0.000573987
*CONN
*I *661:B1 I *D sky130_fd_sc_hd__a21oi_1
*I *660:Y O *D sky130_fd_sc_hd__nor2_1
*CAP
1 *661:B1 0.000194485
2 *660:Y 0.000194485
3 *661:A1 *661:B1 0.000164829
4 *68:61 *661:B1 2.01874e-05
*RES
1 *660:Y *661:B1 22.0188 
*END

*D_NET *174 0.00194383
*CONN
*I *664:A1 I *D sky130_fd_sc_hd__o21ai_0
*I *677:A1 I *D sky130_fd_sc_hd__o21ai_0
*I *662:Y O *D sky130_fd_sc_hd__inv_1
*CAP
1 *664:A1 0
2 *677:A1 0.000187024
3 *662:Y 0.000273331
4 *174:14 0.000460355
5 *677:A1 *324:217 0.000193358
6 *174:14 *644:A1 0.000312046
7 *174:14 *662:A 1.54961e-05
8 *174:14 *664:B1 0.000112361
9 *174:14 *324:217 0.000199667
10 *174:14 *438:216 1.35317e-05
11 *690:D *174:14 2.53347e-05
12 *96:18 *174:14 3.26503e-05
13 *96:20 *677:A1 8.859e-05
14 *96:20 *174:14 3.00829e-05
*RES
1 *662:Y *174:14 27.7609 
2 *174:14 *677:A1 24.1294 
3 *174:14 *664:A1 9.24915 
*END

*D_NET *175 0.000526924
*CONN
*I *664:B1 I *D sky130_fd_sc_hd__o21ai_0
*I *663:Y O *D sky130_fd_sc_hd__nand2_1
*CAP
1 *664:B1 6.57539e-05
2 *663:Y 6.57539e-05
3 *664:B1 *663:B 2.58757e-05
4 *96:18 *664:B1 0.00025718
5 *174:14 *664:B1 0.000112361
*RES
1 *663:Y *664:B1 21.4401 
*END

*D_NET *176 0.000546816
*CONN
*I *667:A1 I *D sky130_fd_sc_hd__o21ai_0
*I *669:A1 I *D sky130_fd_sc_hd__o21ai_0
*I *665:Y O *D sky130_fd_sc_hd__inv_1
*CAP
1 *667:A1 6.55565e-05
2 *669:A1 0.000156041
3 *665:Y 0
4 *176:4 0.000221597
5 *669:A1 *665:A 3.38696e-05
6 *669:A1 *669:B1 6.97525e-05
*RES
1 *665:Y *176:4 9.24915 
2 *176:4 *669:A1 13.047 
3 *176:4 *667:A1 10.8286 
*END

*D_NET *177 0.000365115
*CONN
*I *667:B1 I *D sky130_fd_sc_hd__o21ai_0
*I *666:Y O *D sky130_fd_sc_hd__nand2_1
*CAP
1 *667:B1 6.61794e-05
2 *666:Y 6.61794e-05
3 *667:B1 *666:B 1.62894e-05
4 *666:A *667:B1 0.000216467
*RES
1 *666:Y *667:B1 20.8855 
*END

*D_NET *178 0.000950219
*CONN
*I *669:B1 I *D sky130_fd_sc_hd__o21ai_0
*I *668:Y O *D sky130_fd_sc_hd__nand2_1
*CAP
1 *669:B1 0.00016482
2 *668:Y 0.00016482
3 *669:B1 *644:A1 1.25363e-05
4 *669:B1 *669:A2 0.000266846
5 *669:B1 *757:RESET_B 0.000119321
6 *669:B1 *438:218 0.000152123
7 *669:A1 *669:B1 6.97525e-05
*RES
1 *668:Y *669:B1 34.2118 
*END

*D_NET *179 0.000916802
*CONN
*I *679:A1 I *D sky130_fd_sc_hd__o21ai_0
*I *672:A1 I *D sky130_fd_sc_hd__a21oi_1
*I *670:Y O *D sky130_fd_sc_hd__inv_1
*CAP
1 *679:A1 0
2 *672:A1 0.000115014
3 *670:Y 0.00027381
4 *179:12 0.000388824
5 *179:12 *438:46 3.44412e-06
6 *179:12 *438:68 2.85637e-05
7 *179:12 *447:94 1.85511e-05
8 *56:145 *672:A1 8.85947e-05
*RES
1 *670:Y *179:12 24.2645 
2 *179:12 *672:A1 12.2151 
3 *179:12 *679:A1 9.24915 
*END

*D_NET *180 0.000831064
*CONN
*I *672:B1 I *D sky130_fd_sc_hd__a21oi_1
*I *671:Y O *D sky130_fd_sc_hd__nor2_1
*CAP
1 *672:B1 0.000245412
2 *671:Y 0.000245412
3 *672:B1 *702:RESET_B 2.58616e-05
4 *672:B1 *910:A 0
5 *672:B1 *438:38 1.61631e-05
6 *672:B1 *438:46 0.000223175
7 *672:B1 *438:68 1.03594e-05
8 *702:D *672:B1 0
9 *56:145 *672:B1 6.46815e-05
*RES
1 *671:Y *672:B1 34.4194 
*END

*D_NET *181 0.000262113
*CONN
*I *674:B1 I *D sky130_fd_sc_hd__a21oi_1
*I *673:Y O *D sky130_fd_sc_hd__nor2_1
*CAP
1 *674:B1 8.12807e-05
2 *673:Y 8.12807e-05
3 *674:B1 *438:34 9.95519e-05
*RES
1 *673:Y *674:B1 20.8855 
*END

*D_NET *182 0.000278343
*CONN
*I *677:B1 I *D sky130_fd_sc_hd__o21ai_0
*I *676:Y O *D sky130_fd_sc_hd__nand2_1
*CAP
1 *677:B1 3.83495e-05
2 *676:Y 3.83495e-05
3 *677:B1 *676:B 1.83992e-05
4 *677:B1 *677:A2 0.00016386
5 *677:B1 *438:201 1.50924e-05
6 *714:D *677:B1 4.29314e-06
*RES
1 *676:Y *677:B1 20.3309 
*END

*D_NET *183 0.000425405
*CONN
*I *682:A I *D sky130_fd_sc_hd__nand3_1
*I *680:Y O *D sky130_fd_sc_hd__a22oi_1
*CAP
1 *682:A 0.000179832
2 *680:Y 0.000179832
3 *682:A *680:A2 1.77874e-05
4 *682:A *911:A 2.56427e-05
5 *52:10 *682:A 2.23108e-05
*RES
1 *680:Y *682:A 22.5734 
*END

*D_NET *184 0.000435758
*CONN
*I *682:C I *D sky130_fd_sc_hd__nand3_1
*I *681:Y O *D sky130_fd_sc_hd__nand2_1
*CAP
1 *682:C 9.92722e-05
2 *681:Y 9.92722e-05
3 *682:C *680:A2 3.20069e-06
4 *681:A *682:C 0.000187856
5 *68:10 *682:C 1.24817e-05
6 *68:38 *682:C 3.36752e-05
*RES
1 *681:Y *682:C 30.9913 
*END

*D_NET *394 0.00175341
*CONN
*P cio_gpio_en_o[0] O
*I *781:X O *D sky130_fd_sc_hd__clkdlybuf4s50_1
*CAP
1 cio_gpio_en_o[0] 0.000773214
2 *781:X 0.000773214
3 cio_gpio_en_o[0] reg_rsp_o[27] 2.42776e-05
4 intr_gpio_o[0] cio_gpio_en_o[0] 1.40045e-05
5 *769:A cio_gpio_en_o[0] 0.000124086
6 *773:A cio_gpio_en_o[0] 0
7 *781:A cio_gpio_en_o[0] 0
8 *808:A cio_gpio_en_o[0] 4.46199e-05
*RES
1 *781:X cio_gpio_en_o[0] 25.1954 
*END

*D_NET *393 0.0016139
*CONN
*P cio_gpio_en_o[1] O
*I *780:X O *D sky130_fd_sc_hd__clkdlybuf4s50_1
*CAP
1 cio_gpio_en_o[1] 0.000494783
2 *780:X 0.000494783
3 cio_gpio_en_o[1] reg_rsp_o[28] 0.000116394
4 cio_gpio_en_o[1] reg_rsp_o[31] 0.000380431
5 cio_gpio_en_o[1] reg_rsp_o[7] 0.000127511
6 *56:32 cio_gpio_en_o[1] 0
*RES
1 *780:X cio_gpio_en_o[1] 19.803 
*END

*D_NET *392 0.00131167
*CONN
*P cio_gpio_en_o[2] O
*I *779:X O *D sky130_fd_sc_hd__clkdlybuf4s50_1
*CAP
1 cio_gpio_en_o[2] 0.00047786
2 *779:X 0.00047786
3 cio_gpio_en_o[2] reg_rsp_o[8] 0.000106352
4 cio_gpio_o[2] cio_gpio_en_o[2] 3.34802e-05
5 *775:A cio_gpio_en_o[2] 0.000149628
6 *910:A cio_gpio_en_o[2] 1.28326e-05
7 *914:A cio_gpio_en_o[2] 0
8 *56:145 cio_gpio_en_o[2] 5.36612e-05
*RES
1 *779:X cio_gpio_en_o[2] 27.0511 
*END

*D_NET *391 0.00140061
*CONN
*P cio_gpio_en_o[3] O
*I *778:X O *D sky130_fd_sc_hd__clkdlybuf4s50_1
*CAP
1 cio_gpio_en_o[3] 0.000502801
2 *778:X 0.000502801
3 cio_gpio_o[3] cio_gpio_en_o[3] 6.59928e-05
4 reg_rsp_o[17] cio_gpio_en_o[3] 0.000101295
5 *475:A cio_gpio_en_o[3] 5.29131e-05
6 *477:A cio_gpio_en_o[3] 0
7 *792:A cio_gpio_en_o[3] 0.000174808
8 *794:A cio_gpio_en_o[3] 0
*RES
1 *778:X cio_gpio_en_o[3] 25.6462 
*END

*D_NET *226 0.000380751
*CONN
*P cio_gpio_i[0] I
*I *936:A I *D sky130_fd_sc_hd__dlygate4sd3_1
*CAP
1 cio_gpio_i[0] 0.000127343
2 *936:A 0.000127343
3 *936:A intr_gpio_o[1] 0
4 *936:A *787:A 0.000126065
*RES
1 cio_gpio_i[0] *936:A 18.1948 
*END

*D_NET *225 0.000315316
*CONN
*P cio_gpio_i[1] I
*I *935:A I *D sky130_fd_sc_hd__dlygate4sd3_1
*CAP
1 cio_gpio_i[1] 5.14821e-05
2 *935:A 5.14821e-05
3 *935:A reg_rsp_o[15] 6.96594e-05
4 *935:A *798:A 7.00991e-05
5 *803:A *935:A 7.2593e-05
*RES
1 cio_gpio_i[1] *935:A 18.5432 
*END

*D_NET *224 0.000508039
*CONN
*P cio_gpio_i[2] I
*I *937:A I *D sky130_fd_sc_hd__dlygate4sd3_1
*CAP
1 cio_gpio_i[2] 0.000122492
2 *937:A 0.000122492
3 *937:A intr_gpio_o[2] 0
4 *937:A *813:A 3.01656e-05
5 *802:A *937:A 5.75426e-05
6 *810:A *937:A 0.000175347
7 *56:182 *937:A 0
*RES
1 cio_gpio_i[2] *937:A 20.2042 
*END

*D_NET *223 0.000880161
*CONN
*P cio_gpio_i[3] I
*I *812:A I *D sky130_fd_sc_hd__clkdlybuf4s50_1
*CAP
1 cio_gpio_i[3] 0.00044008
2 *812:A 0.00044008
3 *812:A *540:S 0
4 *705:D *812:A 0
*RES
1 cio_gpio_i[3] *812:A 24.7578 
*END

*D_NET *390 0.00110834
*CONN
*P cio_gpio_o[0] O
*I *777:X O *D sky130_fd_sc_hd__clkdlybuf4s50_1
*CAP
1 cio_gpio_o[0] 0.000311678
2 *777:X 0.000311678
3 cio_gpio_o[0] reg_rsp_o[6] 0.000208233
4 *788:A cio_gpio_o[0] 0.000276752
*RES
1 *777:X cio_gpio_o[0] 18.6306 
*END

*D_NET *389 0.000470032
*CONN
*P cio_gpio_o[1] O
*I *776:X O *D sky130_fd_sc_hd__clkdlybuf4s50_1
*CAP
1 cio_gpio_o[1] 0.000235016
2 *776:X 0.000235016
3 cio_gpio_o[1] *783:A 0
4 *787:A cio_gpio_o[1] 0
*RES
1 *776:X cio_gpio_o[1] 18.6423 
*END

*D_NET *388 0.000835377
*CONN
*P cio_gpio_o[2] O
*I *775:X O *D sky130_fd_sc_hd__clkdlybuf4s50_1
*CAP
1 cio_gpio_o[2] 0.000231069
2 *775:X 0.000231069
3 cio_gpio_o[2] cio_gpio_en_o[2] 3.34802e-05
4 cio_gpio_o[2] reg_rsp_o[4] 0.000109825
5 cio_gpio_o[2] reg_rsp_o[8] 0.000106352
6 *796:A cio_gpio_o[2] 0
7 *910:A cio_gpio_o[2] 0.000123582
*RES
1 *775:X cio_gpio_o[2] 21.7089 
*END

*D_NET *387 0.0027993
*CONN
*P cio_gpio_o[3] O
*I *774:X O *D sky130_fd_sc_hd__clkdlybuf4s50_1
*CAP
1 cio_gpio_o[3] 0.000938256
2 *774:X 0.000938256
3 cio_gpio_o[3] cio_gpio_en_o[3] 6.59928e-05
4 *476:A cio_gpio_o[3] 5.16312e-05
5 *477:B cio_gpio_o[3] 3.74074e-05
6 *478:B cio_gpio_o[3] 1.00766e-05
7 *785:A cio_gpio_o[3] 0.000114227
8 *794:A cio_gpio_o[3] 0.000105068
9 *51:10 cio_gpio_o[3] 1.69371e-05
10 *51:23 cio_gpio_o[3] 7.68134e-05
11 *52:60 cio_gpio_o[3] 0.000144659
12 *56:124 cio_gpio_o[3] 6.46815e-05
13 *96:14 cio_gpio_o[3] 7.4244e-06
14 *280:6 cio_gpio_o[3] 0.000227869
*RES
1 *774:X cio_gpio_o[3] 47.9599 
*END

*D_NET *197 0.00915569
*CONN
*P clk_i I
*I *918:A I *D sky130_fd_sc_hd__clkbuf_8
*CAP
1 clk_i 0.0041606
2 *918:A 0
3 *197:22 0.0041606
4 *197:22 *384:78 7.75178e-06
5 *197:22 *437:31 5.07209e-06
6 *197:22 *439:21 0.000821665
7 *197:22 *439:51 0
*RES
1 clk_i *197:22 15.6449 
2 *197:22 *918:A 13.7491 
*END

*D_NET *439 0.0224264
*CONN
*I *926:A I *D sky130_fd_sc_hd__clkbuf_8
*I *925:A I *D sky130_fd_sc_hd__clkbuf_8
*I *921:A I *D sky130_fd_sc_hd__clkbuf_8
*I *922:A I *D sky130_fd_sc_hd__clkbuf_8
*I *924:A I *D sky130_fd_sc_hd__clkbuf_8
*I *923:A I *D sky130_fd_sc_hd__clkbuf_8
*I *920:A I *D sky130_fd_sc_hd__clkbuf_8
*I *919:A I *D sky130_fd_sc_hd__clkbuf_8
*I *918:X O *D sky130_fd_sc_hd__clkbuf_8
*CAP
1 *926:A 0
2 *925:A 6.63915e-05
3 *921:A 7.24748e-05
4 *922:A 4.00432e-05
5 *924:A 5.71641e-05
6 *923:A 0.00010221
7 *920:A 0
8 *919:A 0
9 *918:X 0
10 *439:192 0.00115439
11 *439:170 0.000664849
12 *439:162 0.00214055
13 *439:148 0.000952035
14 *439:139 0.000983013
15 *439:128 0.000221734
16 *439:124 0.00143288
17 *439:110 0.00198062
18 *439:94 0.000134317
19 *439:80 0.00015799
20 *439:75 5.57799e-05
21 *439:71 0.000107709
22 *439:69 0.00117572
23 *439:51 0.000148705
24 *439:33 0.0019434
25 *439:23 0.00238347
26 *439:21 0.00268842
27 *439:13 0.00165925
28 *439:6 1.47709e-05
29 *923:A *445:22 2.15345e-05
30 *439:33 *724:CLK 0.000165378
31 *439:71 *445:10 0
32 *439:80 *445:22 4.9045e-05
33 *439:148 *443:103 1.26939e-05
34 *439:192 *686:CLK 3.37904e-05
35 *461:A2 *923:A 2.41274e-06
36 *559:A1 *923:A 1.95082e-05
37 *561:A1 *439:148 0.000134041
38 *600:A *439:124 1.32315e-05
39 *616:B *439:170 9.93366e-06
40 *639:A *439:192 0
41 *656:A *439:71 5.35828e-05
42 *686:RESET_B *439:192 0
43 *696:D *439:148 4.90829e-05
44 *711:RESET_B *439:148 8.24053e-05
45 *732:RESET_B *439:13 7.86825e-06
46 *757:D *439:170 9.93366e-06
47 *56:180 *439:69 1.60839e-05
48 *92:10 *439:148 0.000421126
49 *169:8 *924:A 6.55312e-05
50 *197:22 *439:21 0.000821665
51 *197:22 *439:51 0
52 *243:10 *439:148 0
53 *243:30 *439:148 0
54 *324:85 *921:A 6.13051e-05
55 *324:95 *439:148 1.47159e-05
56 *331:124 *439:124 2.36463e-05
*RES
1 *918:X *439:6 13.7491 
2 *439:6 *439:13 3.7474 
3 *439:13 *439:21 4.65177 
4 *439:21 *439:23 0.736252 
5 *439:23 *439:33 14.3786 
6 *439:33 *919:A 13.7491 
7 *439:23 *439:51 4.44163 
8 *439:51 *920:A 13.7491 
9 *439:21 *439:69 5.82801 
10 *439:69 *439:71 2.45487 
11 *439:71 *439:75 4.5 
12 *439:75 *439:80 1.42268 
13 *439:80 *923:A 11.4917 
14 *439:69 *439:94 1.67322 
15 *439:94 *924:A 15.5817 
16 *439:13 *439:110 0.923706 
17 *439:110 *439:124 12.6909 
18 *439:124 *439:128 1.94111 
19 *439:128 *922:A 10.4186 
20 *439:128 *439:139 2.37515 
21 *439:139 *439:148 30.0392 
22 *439:148 *921:A 15.5817 
23 *439:110 *439:162 0.850556 
24 *439:162 *439:170 5.35952 
25 *439:170 *925:A 15.0271 
26 *439:162 *439:192 12.3202 
27 *439:192 *926:A 13.7491 
*END

*D_NET *440 0.0114718
*CONN
*I *748:CLK I *D sky130_fd_sc_hd__dfrtp_1
*I *688:CLK I *D sky130_fd_sc_hd__dfrtp_1
*I *745:CLK I *D sky130_fd_sc_hd__dfrtp_1
*I *712:CLK I *D sky130_fd_sc_hd__dfrtp_1
*I *724:CLK I *D sky130_fd_sc_hd__dfrtp_1
*I *704:CLK I *D sky130_fd_sc_hd__dfrtp_1
*I *722:CLK I *D sky130_fd_sc_hd__dfrtp_1
*I *716:CLK I *D sky130_fd_sc_hd__dfrtp_1
*I *715:CLK I *D sky130_fd_sc_hd__dfrtp_1
*I *759:CLK I *D sky130_fd_sc_hd__dfrtp_1
*I *708:CLK I *D sky130_fd_sc_hd__dfrtp_1
*I *758:CLK I *D sky130_fd_sc_hd__dfrtp_1
*I *919:X O *D sky130_fd_sc_hd__clkbuf_8
*CAP
1 *748:CLK 0.000346245
2 *688:CLK 0.000357219
3 *745:CLK 3.98381e-05
4 *712:CLK 0
5 *724:CLK 0.000276779
6 *704:CLK 0.000109121
7 *722:CLK 0.000191784
8 *716:CLK 0.000188125
9 *715:CLK 0.000115591
10 *759:CLK 0.000227903
11 *708:CLK 0.000443262
12 *758:CLK 0
13 *919:X 0
14 *440:129 0.000636561
15 *440:125 0.000695955
16 *440:118 0.000395572
17 *440:81 0.000518279
18 *440:55 0.000460065
19 *440:42 0.000792177
20 *440:20 0.000550027
21 *440:16 0.000975374
22 *440:10 0.000840809
23 *440:6 0.000638008
24 *440:4 0.000483845
25 *724:CLK *722:RESET_B 6.49213e-05
26 intr_gpio_o[1] *748:CLK 5.39463e-05
27 *468:B1 *724:CLK 9.82296e-05
28 *468:C1 *688:CLK 0
29 *469:B1 *688:CLK 0.000408558
30 *469:B1 *440:129 3.20407e-05
31 *505:A *440:118 6.27782e-05
32 *513:A2 *688:CLK 1.43983e-05
33 *531:A *748:CLK 0
34 *533:B1 *440:118 6.27782e-05
35 *533:B1 *440:125 3.186e-05
36 *567:A1 *748:CLK 0
37 *704:RESET_B *704:CLK 8.4633e-05
38 *704:RESET_B *722:CLK 4.26074e-05
39 *712:D *440:125 7.17549e-05
40 *715:D *715:CLK 3.90891e-05
41 *716:D *715:CLK 5.69404e-05
42 *722:D *724:CLK 7.88662e-05
43 *722:D *440:6 1.03403e-05
44 *722:D *440:10 3.88764e-05
45 *722:D *440:16 1.38543e-05
46 *724:D *724:CLK 9.77652e-05
47 *758:RESET_B *708:CLK 2.94933e-05
48 *758:RESET_B *440:20 6.00843e-05
49 *759:D *759:CLK 3.46069e-05
50 *759:RESET_B *440:16 1.22232e-05
51 *189:14 *748:CLK 0
52 *212:20 *748:CLK 0.000128277
53 *212:20 *440:129 0.000131464
54 *232:28 *708:CLK 4.26431e-05
55 *324:26 *748:CLK 0
56 *324:32 *748:CLK 6.13051e-05
57 *324:32 *440:125 0.000159565
58 *325:21 *722:CLK 0
59 *325:21 *440:81 0
60 *325:31 *440:81 0
61 *438:306 *748:CLK 0
62 *439:33 *724:CLK 0.000165378
*RES
1 *919:X *440:4 9.24915 
2 *440:4 *440:6 4.05102 
3 *440:6 *440:10 2.96592 
4 *440:10 *440:16 8.80132 
5 *440:16 *440:20 7.1625 
6 *440:20 *758:CLK 13.7491 
7 *440:20 *708:CLK 25.1698 
8 *440:16 *440:42 6.29355 
9 *440:42 *759:CLK 13.1796 
10 *440:42 *440:55 8.40826 
11 *440:55 *715:CLK 17.6574 
12 *440:55 *716:CLK 17.8243 
13 *440:10 *440:81 14.5693 
14 *440:81 *722:CLK 23.7141 
15 *440:81 *704:CLK 12.7456 
16 *440:6 *724:CLK 28.2819 
17 *440:4 *440:118 6.70347 
18 *440:118 *712:CLK 9.24915 
19 *440:118 *440:125 4.60562 
20 *440:125 *440:129 10.8998 
21 *440:129 *745:CLK 14.4819 
22 *440:129 *688:CLK 23.3666 
23 *440:125 *748:CLK 27.8006 
*END

*D_NET *441 0.00935526
*CONN
*I *743:CLK I *D sky130_fd_sc_hd__dfrtp_1
*I *744:CLK I *D sky130_fd_sc_hd__dfrtp_1
*I *746:CLK I *D sky130_fd_sc_hd__dfrtp_1
*I *927:A I *D sky130_fd_sc_hd__clkbuf_8
*I *684:CLK I *D sky130_fd_sc_hd__dfrtp_1
*I *719:CLK I *D sky130_fd_sc_hd__dfrtp_1
*I *755:CLK I *D sky130_fd_sc_hd__dfrtp_1
*I *742:CLK I *D sky130_fd_sc_hd__dfrtp_1
*I *740:CLK I *D sky130_fd_sc_hd__dfrtp_1
*I *741:CLK I *D sky130_fd_sc_hd__dfrtp_1
*I *700:CLK I *D sky130_fd_sc_hd__dfrtp_1
*I *920:X O *D sky130_fd_sc_hd__clkbuf_8
*CAP
1 *743:CLK 0
2 *744:CLK 0.000336805
3 *746:CLK 0
4 *927:A 5.69531e-05
5 *684:CLK 0.000330913
6 *719:CLK 0.000109857
7 *755:CLK 0.000218316
8 *742:CLK 0
9 *740:CLK 0
10 *741:CLK 0
11 *700:CLK 0.000182163
12 *920:X 0
13 *441:127 0.000571984
14 *441:80 0.00041717
15 *441:78 0.000554022
16 *441:74 0.000338396
17 *441:70 0.00038885
18 *441:34 0.000562645
19 *441:28 0.000679325
20 *441:16 0.000555814
21 *441:8 0.000777586
22 *441:4 0.000514275
23 *453:A *441:70 0
24 *454:A *441:70 4.80635e-06
25 *454:B *441:74 1.63952e-05
26 *455:B1 *755:CLK 1.07248e-05
27 *455:B1 *441:74 5.35029e-05
28 *455:B1 *441:78 0.000181635
29 *455:B1 *441:80 0.000165559
30 *490:A *441:34 0.000115632
31 *490:B *441:34 0.000379505
32 *497:A *441:28 0
33 *498:B *700:CLK 0.000369742
34 *498:B *441:34 0.00019819
35 *528:A *441:34 2.15348e-05
36 *544:A0 *700:CLK 2.58757e-05
37 *684:D *684:CLK 5.90509e-05
38 *684:RESET_B *441:70 0
39 *708:RESET_B *755:CLK 0.000332496
40 *709:RESET_B *700:CLK 0
41 *709:RESET_B *441:34 0
42 *719:D *719:CLK 5.07314e-05
43 *724:D *755:CLK 3.42931e-05
44 *740:D *441:28 9.74137e-05
45 *741:D *700:CLK 6.81008e-05
46 *741:RESET_B *441:16 4.33057e-05
47 *741:RESET_B *441:28 4.13771e-05
48 *743:D *744:CLK 4.33609e-05
49 *744:D *744:CLK 1.61631e-05
50 *746:D *441:70 7.01935e-06
51 *755:D *755:CLK 7.10494e-05
52 *54:134 *755:CLK 0
53 *54:134 *441:8 0
54 *54:134 *441:28 8.82569e-06
55 *54:134 *441:34 1.43983e-05
56 *54:134 *441:70 0
57 *54:134 *441:74 0
58 *54:134 *441:80 0
59 *166:8 *927:A 3.82228e-05
60 *200:6 *719:CLK 9.40969e-05
61 *353:10 *441:8 0
62 *353:10 *441:16 0
63 *353:10 *441:70 0
64 *355:10 *684:CLK 2.20457e-05
65 *437:113 *744:CLK 6.28182e-05
66 *437:113 *441:8 0
67 *437:115 *744:CLK 1.44467e-05
68 *437:204 *441:16 9.78647e-05
*RES
1 *920:X *441:4 9.24915 
2 *441:4 *441:8 10.6921 
3 *441:8 *441:16 11.8808 
4 *441:16 *441:28 15.9011 
5 *441:28 *441:34 17.0355 
6 *441:34 *700:CLK 20.8723 
7 *441:34 *741:CLK 13.7491 
8 *441:28 *740:CLK 9.24915 
9 *441:16 *742:CLK 9.24915 
10 *441:8 *441:70 10.1967 
11 *441:70 *441:74 8.40826 
12 *441:74 *441:78 4.2258 
13 *441:78 *441:80 3.07775 
14 *441:80 *755:CLK 20.902 
15 *441:80 *719:CLK 17.2456 
16 *441:78 *684:CLK 21.6824 
17 *441:74 *927:A 15.0271 
18 *441:70 *746:CLK 9.24915 
19 *441:4 *441:127 5.16022 
20 *441:127 *744:CLK 26.4871 
21 *441:127 *743:CLK 9.24915 
*END

*D_NET *442 0.0143371
*CONN
*I *695:CLK I *D sky130_fd_sc_hd__dfrtp_1
*I *703:CLK I *D sky130_fd_sc_hd__dfrtp_1
*I *691:CLK I *D sky130_fd_sc_hd__dfrtp_1
*I *718:CLK I *D sky130_fd_sc_hd__dfrtp_1
*I *711:CLK I *D sky130_fd_sc_hd__dfrtp_1
*I *754:CLK I *D sky130_fd_sc_hd__dfrtp_1
*I *699:CLK I *D sky130_fd_sc_hd__dfrtp_1
*I *752:CLK I *D sky130_fd_sc_hd__dfrtp_1
*I *749:CLK I *D sky130_fd_sc_hd__dfrtp_1
*I *683:CLK I *D sky130_fd_sc_hd__dfrtp_1
*I *747:CLK I *D sky130_fd_sc_hd__dfrtp_1
*I *707:CLK I *D sky130_fd_sc_hd__dfrtp_1
*I *921:X O *D sky130_fd_sc_hd__clkbuf_8
*CAP
1 *695:CLK 0
2 *703:CLK 0.00025314
3 *691:CLK 0.000477022
4 *718:CLK 0
5 *711:CLK 0.000168387
6 *754:CLK 0
7 *699:CLK 1.93533e-05
8 *752:CLK 0
9 *749:CLK 0.000696841
10 *683:CLK 1.08844e-05
11 *747:CLK 0.000835978
12 *707:CLK 0.000308356
13 *921:X 0
14 *442:148 0.000491517
15 *442:79 0.000828132
16 *442:71 0.000421356
17 *442:47 0.000938031
18 *442:41 0.000612157
19 *442:24 0.000587286
20 *442:22 0.000362566
21 *442:20 0.00063402
22 *442:16 0.000438414
23 *442:12 0.00087628
24 *442:4 0.000330941
25 *457:A *442:22 2.1667e-05
26 *457:A *442:24 3.55179e-05
27 *458:B1 *442:41 4.38909e-05
28 *471:A1 *442:148 6.40849e-05
29 *471:A2 *442:148 3.00174e-06
30 *471:B1 *703:CLK 1.45799e-05
31 *471:B1 *442:148 6.08467e-05
32 *472:B1 *703:CLK 0
33 *473:A2 *703:CLK 0.000188383
34 *473:A2 *442:148 0.000162606
35 *491:A *683:CLK 1.09551e-05
36 *491:A *747:CLK 6.41413e-05
37 *491:B *747:CLK 6.21456e-05
38 *491:B *442:47 4.82966e-05
39 *513:B1 *749:CLK 0
40 *516:A2 *691:CLK 6.50727e-05
41 *545:A1 *707:CLK 0
42 *553:B *703:CLK 4.90905e-05
43 *553:B *442:148 3.44412e-06
44 *583:A *711:CLK 4.99469e-05
45 *587:B1 *442:22 8.0509e-05
46 *588:B *442:71 3.57378e-06
47 *588:B *442:79 0.000140909
48 *589:A *442:71 6.23779e-05
49 *590:A *699:CLK 6.27782e-05
50 *590:A *442:79 0.000107496
51 *590:B *442:79 6.27718e-05
52 *648:A *442:41 0.000112361
53 *649:A1 *442:71 1.60687e-05
54 *683:D *442:47 0.000116385
55 *683:D *442:71 0.000163359
56 *683:RESET_B *683:CLK 0
57 *683:RESET_B *747:CLK 0.000289002
58 *683:RESET_B *442:47 0.000118166
59 *691:RESET_B *691:CLK 1.41291e-05
60 *691:RESET_B *442:12 1.43832e-05
61 *691:RESET_B *442:148 7.25565e-05
62 *699:RESET_B *442:41 0.000138371
63 *718:D *691:CLK 4.58003e-05
64 *718:D *442:12 5.93539e-05
65 *718:D *442:16 8.38894e-05
66 *747:D *747:CLK 0.000108054
67 *749:D *749:CLK 0.000408976
68 *749:D *442:79 9.98029e-06
69 *752:RESET_B *749:CLK 3.61993e-05
70 *754:RESET_B *442:22 0
71 *54:105 *442:47 0
72 *68:20 *691:CLK 1.93349e-05
73 *68:20 *749:CLK 7.22577e-06
74 *68:20 *442:16 6.79691e-06
75 *68:20 *442:20 0.000106797
76 *92:10 *707:CLK 0
77 *92:10 *711:CLK 0
78 *92:10 *442:22 0
79 *96:141 *442:148 6.54061e-05
80 *121:17 *442:71 2.86829e-05
81 *121:17 *442:79 0.000184516
82 *210:6 *442:41 0.000307799
83 *231:25 *703:CLK 0
84 *235:10 *442:22 0.000271269
85 *235:27 *442:41 2.39189e-05
86 *243:30 *442:12 0.00014749
87 *289:20 *707:CLK 0
88 *338:14 *711:CLK 0.000189496
89 *338:14 *442:20 7.16929e-05
90 *338:14 *442:22 5.92342e-05
91 *343:12 *707:CLK 1.7841e-05
92 *343:12 *442:24 2.2766e-06
93 *438:276 *442:148 0
94 *438:282 *703:CLK 6.92705e-05
95 *438:294 *707:CLK 0.000192267
*RES
1 *921:X *442:4 9.24915 
2 *442:4 *442:12 12.3859 
3 *442:12 *442:16 5.03966 
4 *442:16 *442:20 9.10562 
5 *442:20 *442:22 9.72179 
6 *442:22 *442:24 1.00149 
7 *442:24 *707:CLK 21.0117 
8 *442:24 *442:41 16.9332 
9 *442:41 *442:47 8.02525 
10 *442:47 *747:CLK 25.1397 
11 *442:47 *683:CLK 9.82786 
12 *442:41 *442:71 11.7303 
13 *442:71 *442:79 13.771 
14 *442:79 *749:CLK 22.8249 
15 *442:79 *752:CLK 9.24915 
16 *442:71 *699:CLK 9.97254 
17 *442:22 *754:CLK 13.7491 
18 *442:20 *711:CLK 19.0748 
19 *442:16 *718:CLK 9.24915 
20 *442:12 *691:CLK 18.5086 
21 *442:4 *442:148 11.4894 
22 *442:148 *703:CLK 20.8723 
23 *442:148 *695:CLK 13.7491 
*END

*D_NET *443 0.00902901
*CONN
*I *692:CLK I *D sky130_fd_sc_hd__dfrtp_1
*I *696:CLK I *D sky130_fd_sc_hd__dfrtp_1
*I *687:CLK I *D sky130_fd_sc_hd__dfrtp_1
*I *928:A I *D sky130_fd_sc_hd__bufinv_16
*I *750:CLK I *D sky130_fd_sc_hd__dfrtp_1
*I *731:CLK I *D sky130_fd_sc_hd__dfrtp_1
*I *730:CLK I *D sky130_fd_sc_hd__dfrtp_1
*I *751:CLK I *D sky130_fd_sc_hd__dfrtp_1
*I *753:CLK I *D sky130_fd_sc_hd__dfrtp_1
*I *922:X O *D sky130_fd_sc_hd__clkbuf_8
*CAP
1 *692:CLK 0.000205622
2 *696:CLK 8.1605e-05
3 *687:CLK 0.000423182
4 *928:A 0
5 *750:CLK 3.37551e-05
6 *731:CLK 0.000291645
7 *730:CLK 0
8 *751:CLK 0
9 *753:CLK 0.00060964
10 *922:X 0
11 *443:103 0.000445214
12 *443:54 0.000628473
13 *443:41 0.000498304
14 *443:35 0.000299924
15 *443:20 0.00105269
16 *443:14 0.000838056
17 *443:8 0.000990761
18 *443:6 0.000225872
19 *551:A2 *687:CLK 3.61531e-05
20 *551:B1 *687:CLK 9.28161e-05
21 *561:A1 *443:8 0.000117626
22 *561:A1 *443:14 4.47968e-05
23 *561:A1 *443:103 3.39219e-05
24 *595:A *443:14 0.00016195
25 *595:A *443:20 0.000100869
26 *598:B *443:20 6.04641e-05
27 *600:B *731:CLK 1.82696e-05
28 *600:B *443:54 4.41258e-05
29 *607:A *692:CLK 0.000120872
30 *646:A *753:CLK 9.43419e-05
31 *646:A *443:35 0.000220001
32 *646:A *443:41 8.48723e-05
33 *646:B *443:54 6.23875e-05
34 *647:C *443:54 3.61993e-05
35 *696:D *687:CLK 0.000122378
36 *730:D *731:CLK 0
37 *731:D *731:CLK 5.07202e-05
38 *750:RESET_B *750:CLK 2.16355e-05
39 *753:D *753:CLK 0.000145195
40 *788:A *687:CLK 0.000266832
41 *92:10 *443:14 0.00018971
42 *121:30 *443:20 6.08467e-05
43 *125:12 *443:20 8.75727e-05
44 *129:12 *443:54 0.000117018
45 *337:12 *443:8 0
46 *337:12 *443:14 0
47 *439:148 *443:103 1.26939e-05
*RES
1 *922:X *443:6 13.7491 
2 *443:6 *443:8 2.24725 
3 *443:8 *443:14 17.3114 
4 *443:14 *443:20 12.4574 
5 *443:20 *753:CLK 24.503 
6 *443:20 *443:35 3.90826 
7 *443:35 *443:41 8.7258 
8 *443:41 *751:CLK 9.24915 
9 *443:41 *443:54 13.3167 
10 *443:54 *730:CLK 13.7491 
11 *443:54 *731:CLK 20.9484 
12 *443:35 *750:CLK 14.4725 
13 *443:14 *928:A 9.24915 
14 *443:8 *687:CLK 24.4795 
15 *443:6 *443:103 3.90826 
16 *443:103 *696:CLK 15.5817 
17 *443:103 *692:CLK 19.0748 
*END

*D_NET *444 0.0109711
*CONN
*I *737:CLK I *D sky130_fd_sc_hd__dfrtp_1
*I *735:CLK I *D sky130_fd_sc_hd__dfrtp_1
*I *733:CLK I *D sky130_fd_sc_hd__dfrtp_1
*I *701:CLK I *D sky130_fd_sc_hd__dfrtp_1
*I *709:CLK I *D sky130_fd_sc_hd__dfrtp_1
*I *929:A I *D sky130_fd_sc_hd__clkinv_2
*I *739:CLK I *D sky130_fd_sc_hd__dfrtp_1
*I *734:CLK I *D sky130_fd_sc_hd__dfrtp_1
*I *738:CLK I *D sky130_fd_sc_hd__dfrtp_1
*I *736:CLK I *D sky130_fd_sc_hd__dfrtp_1
*I *923:X O *D sky130_fd_sc_hd__clkbuf_8
*CAP
1 *737:CLK 3.75386e-05
2 *735:CLK 0
3 *733:CLK 0
4 *701:CLK 9.8116e-05
5 *709:CLK 9.49159e-05
6 *929:A 0
7 *739:CLK 3.7228e-05
8 *734:CLK 0.000790116
9 *738:CLK 2.12792e-05
10 *736:CLK 7.64939e-05
11 *923:X 0.000332355
12 *444:97 0.000686516
13 *444:89 0.000676579
14 *444:76 0.000371735
15 *444:70 0.000431529
16 *444:46 0.00190437
17 *444:35 0.00133462
18 *444:29 0.000814089
19 *444:10 0.000706189
20 *444:10 *445:22 0.000112361
21 *464:B1 *444:76 2.71542e-05
22 *464:B1 *444:89 2.5386e-05
23 *537:A0 *709:CLK 6.80864e-05
24 *537:A0 *444:97 0.000224395
25 *537:A1 *444:97 2.16355e-05
26 *546:A *701:CLK 0.000127683
27 *559:A1 *444:10 0.000352072
28 *582:A *737:CLK 0
29 *592:A *444:35 0
30 *655:A *736:CLK 7.30804e-05
31 *655:A *444:29 0.000134393
32 *655:A *444:35 4.77167e-05
33 *709:D *709:CLK 2.68928e-05
34 *709:RESET_B *709:CLK 0
35 *733:D *734:CLK 1.39723e-05
36 *733:D *444:70 3.99632e-06
37 *733:D *444:76 3.47819e-05
38 *733:D *444:89 5.04829e-06
39 *734:D *734:CLK 4.66112e-05
40 *734:RESET_B *734:CLK 0.000101875
41 *734:RESET_B *444:70 4.83375e-05
42 *735:D *444:70 5.25994e-05
43 *736:D *737:CLK 0.000118166
44 *736:D *444:29 0.000215536
45 *736:D *444:35 1.09738e-05
46 *737:D *737:CLK 5.0715e-05
47 *738:D *444:35 7.621e-05
48 *738:D *444:46 4.54707e-05
49 *739:D *444:70 2.29564e-05
50 *37:10 *444:89 0.000148144
51 *54:164 *701:CLK 0
52 *56:182 *701:CLK 2.31017e-05
53 *56:182 *709:CLK 8.92568e-06
54 *104:21 *444:35 0.000169093
55 *192:20 *444:10 2.84892e-05
56 *360:21 *444:35 0
57 *360:23 *444:35 0
58 *363:10 *444:35 0
59 *437:105 *444:10 9.15567e-05
*RES
1 *923:X *444:10 25.4541 
2 *444:10 *736:CLK 15.8893 
3 *444:10 *444:29 16.5412 
4 *444:29 *444:35 15.2239 
5 *444:35 *738:CLK 9.82786 
6 *444:35 *444:46 12.3942 
7 *444:46 *734:CLK 21.4987 
8 *444:46 *739:CLK 10.2378 
9 *444:46 *444:70 14.0497 
10 *444:70 *444:76 9.271 
11 *444:76 *929:A 13.7491 
12 *444:76 *444:89 9.82561 
13 *444:89 *444:97 16.5084 
14 *444:97 *709:CLK 16.8269 
15 *444:97 *701:CLK 17.2421 
16 *444:89 *733:CLK 9.24915 
17 *444:70 *735:CLK 9.24915 
18 *444:29 *737:CLK 15.6059 
*END

*D_NET *445 0.0100133
*CONN
*I *726:CLK I *D sky130_fd_sc_hd__dfrtp_1
*I *727:CLK I *D sky130_fd_sc_hd__dfrtp_1
*I *930:A I *D sky130_fd_sc_hd__bufinv_16
*I *713:CLK I *D sky130_fd_sc_hd__dfrtp_1
*I *756:CLK I *D sky130_fd_sc_hd__dfrtp_1
*I *705:CLK I *D sky130_fd_sc_hd__dfrtp_1
*I *697:CLK I *D sky130_fd_sc_hd__dfrtp_1
*I *720:CLK I *D sky130_fd_sc_hd__dfrtp_1
*I *685:CLK I *D sky130_fd_sc_hd__dfrtp_1
*I *924:X O *D sky130_fd_sc_hd__clkbuf_8
*CAP
1 *726:CLK 0.000692305
2 *727:CLK 0
3 *930:A 0.000108502
4 *713:CLK 0.000490948
5 *756:CLK 0
6 *705:CLK 0
7 *697:CLK 0.000565086
8 *720:CLK 0.000140301
9 *685:CLK 0.000286633
10 *924:X 0.000146773
11 *445:86 0.000667899
12 *445:73 0.000371787
13 *445:60 0.00103258
14 *445:50 0.000556903
15 *445:35 0.000414675
16 *445:22 0.000622777
17 *445:12 0.000237515
18 *445:10 0.000839078
19 *460:A *445:73 9.04668e-05
20 *460:B *445:22 1.67286e-05
21 *460:B *445:35 0.000141128
22 *460:B *445:50 1.87125e-05
23 *460:B *445:73 1.21985e-05
24 *461:B1 *445:73 7.37686e-05
25 *464:A1 *445:60 1.98375e-05
26 *464:B1 *445:22 6.80196e-05
27 *464:B1 *445:35 1.22397e-05
28 *465:A1 *720:CLK 6.92705e-05
29 *465:A1 *445:50 2.22198e-05
30 *465:B1 *720:CLK 2.65831e-05
31 *481:B1 *445:60 1.41976e-05
32 *503:B *720:CLK 6.92705e-05
33 *504:A *720:CLK 6.50727e-05
34 *543:A1 *685:CLK 4.66118e-05
35 *559:A1 *445:22 0.000121466
36 *656:A *726:CLK 0
37 *656:A *445:22 0.000111955
38 *685:RESET_B *726:CLK 8.43687e-05
39 *705:RESET_B *445:60 5.37479e-05
40 *720:D *720:CLK 3.95711e-05
41 *756:D *713:CLK 2.58616e-05
42 *756:D *930:A 0.000153882
43 *756:D *445:50 0.000184931
44 *756:RESET_B *713:CLK 0.000202984
45 *767:A *726:CLK 8.23171e-06
46 *923:A *445:22 2.15345e-05
47 *54:183 *685:CLK 9.52097e-05
48 *54:200 *720:CLK 3.75382e-05
49 *56:166 *726:CLK 3.50336e-05
50 *56:180 *726:CLK 1.86674e-05
51 *169:8 *445:10 0.000112367
52 *192:20 *726:CLK 0.000134976
53 *192:20 *445:10 5.71849e-05
54 *201:22 *720:CLK 5.04829e-06
55 *201:44 *720:CLK 1.53438e-05
56 *244:10 *697:CLK 4.69808e-06
57 *244:10 *445:60 3.16065e-06
58 *329:12 *713:CLK 5.7694e-05
59 *438:86 *720:CLK 0.000326398
60 *438:86 *930:A 0
61 *438:86 *445:50 0
62 *439:71 *445:10 0
63 *439:80 *445:22 4.9045e-05
64 *444:10 *445:22 0.000112361
*RES
1 *924:X *445:10 17.6896 
2 *445:10 *445:12 4.5 
3 *445:12 *445:22 12.9309 
4 *445:22 *685:CLK 20.7514 
5 *445:22 *445:35 3.07775 
6 *445:35 *720:CLK 20.0427 
7 *445:35 *445:50 5.05631 
8 *445:50 *445:60 9.32264 
9 *445:60 *697:CLK 17.6164 
10 *445:60 *445:73 10.0693 
11 *445:73 *705:CLK 13.7491 
12 *445:73 *445:86 8.7164 
13 *445:86 *756:CLK 9.24915 
14 *445:86 *713:CLK 21.8362 
15 *445:50 *930:A 16.8269 
16 *445:12 *727:CLK 9.24915 
17 *445:10 *726:CLK 25.8881 
*END

*D_NET *446 0.00730282
*CONN
*I *729:CLK I *D sky130_fd_sc_hd__dfrtp_1
*I *732:CLK I *D sky130_fd_sc_hd__dfrtp_1
*I *690:CLK I *D sky130_fd_sc_hd__dfrtp_1
*I *931:A I *D sky130_fd_sc_hd__clkinv_4
*I *694:CLK I *D sky130_fd_sc_hd__dfrtp_1
*I *757:CLK I *D sky130_fd_sc_hd__dfrtp_1
*I *698:CLK I *D sky130_fd_sc_hd__dfrtp_1
*I *925:X O *D sky130_fd_sc_hd__clkbuf_8
*CAP
1 *729:CLK 0
2 *732:CLK 0.000290997
3 *690:CLK 0.000217056
4 *931:A 0.00098854
5 *694:CLK 0.00054884
6 *757:CLK 6.93236e-05
7 *698:CLK 0.000531996
8 *925:X 0
9 *446:74 0.0011918
10 *446:45 0.000423193
11 *446:10 0.000767541
12 *446:8 0.00085042
13 *446:6 0.000253757
14 *570:A *732:CLK 1.44467e-05
15 *578:A *732:CLK 4.83571e-05
16 *581:A1 *732:CLK 0.000145352
17 *606:A *698:CLK 3.20264e-05
18 *607:A *694:CLK 0.000188221
19 *610:A *446:10 0
20 *615:A *446:8 6.12656e-05
21 *615:A *446:45 5.64608e-05
22 *668:A *698:CLK 6.27718e-05
23 *668:B *698:CLK 3.96508e-05
24 *690:RESET_B *694:CLK 9.14669e-05
25 *757:D *757:CLK 4.89251e-05
26 *757:D *446:8 0
27 *757:D *446:10 0
28 *131:18 *446:74 0.000172516
29 *133:8 *694:CLK 3.15349e-05
30 *324:217 *690:CLK 7.01935e-06
31 *324:217 *694:CLK 4.00959e-05
32 *360:8 *732:CLK 1.43832e-05
33 *361:8 *732:CLK 0.000102979
34 *437:31 *732:CLK 1.18802e-05
*RES
1 *925:X *446:6 13.7491 
2 *446:6 *446:8 3.90826 
3 *446:8 *446:10 3.90826 
4 *446:10 *698:CLK 25.8693 
5 *446:10 *757:CLK 15.6059 
6 *446:8 *694:CLK 27.2284 
7 *446:6 *446:45 7.993 
8 *446:45 *931:A 11.0817 
9 *446:45 *690:CLK 14.4094 
10 *931:A *446:74 25.4532 
11 *446:74 *732:CLK 27.5907 
12 *446:74 *729:CLK 9.24915 
*END

*D_NET *447 0.00999539
*CONN
*I *710:CLK I *D sky130_fd_sc_hd__dfrtp_1
*I *706:CLK I *D sky130_fd_sc_hd__dfrtp_1
*I *714:CLK I *D sky130_fd_sc_hd__dfrtp_1
*I *721:CLK I *D sky130_fd_sc_hd__dfrtp_1
*I *932:A I *D sky130_fd_sc_hd__clkinv_2
*I *702:CLK I *D sky130_fd_sc_hd__dfrtp_1
*I *689:CLK I *D sky130_fd_sc_hd__dfrtp_1
*I *728:CLK I *D sky130_fd_sc_hd__dfrtp_1
*I *693:CLK I *D sky130_fd_sc_hd__dfrtp_1
*I *686:CLK I *D sky130_fd_sc_hd__dfrtp_1
*I *926:X O *D sky130_fd_sc_hd__clkbuf_8
*CAP
1 *710:CLK 0.000342703
2 *706:CLK 4.36237e-05
3 *714:CLK 0
4 *721:CLK 0.000253637
5 *932:A 0.000127216
6 *702:CLK 0.000111956
7 *689:CLK 0
8 *728:CLK 0.000434643
9 *693:CLK 0
10 *686:CLK 0.000248377
11 *926:X 0
12 *447:118 0.000750723
13 *447:107 0.000418756
14 *447:94 0.000500179
15 *447:70 0.000361785
16 *447:41 0.000716344
17 *447:33 0.00114065
18 *447:8 0.00127664
19 *447:6 0.000413401
20 *447:4 0.000313659
21 *481:A1 *686:CLK 3.01683e-06
22 *510:A1 *447:41 0
23 *510:A2 *728:CLK 5.34812e-05
24 *510:A2 *447:41 0
25 *558:B *686:CLK 0
26 *641:A2 *721:CLK 1.79672e-05
27 *670:A *447:94 0.000125836
28 *674:A1 *710:CLK 2.17819e-05
29 *689:RESET_B *447:33 1.50838e-05
30 *693:D *728:CLK 0.000170084
31 *702:D *932:A 5.85957e-05
32 *702:RESET_B *932:A 2.02222e-05
33 *706:D *706:CLK 7.621e-05
34 *710:D *710:CLK 0
35 *714:D *721:CLK 0
36 *714:D *447:118 7.16754e-05
37 *720:RESET_B *728:CLK 0
38 *720:RESET_B *447:41 0
39 *728:RESET_B *728:CLK 0.000148799
40 *766:A *710:CLK 0.000127179
41 *910:A *702:CLK 3.0291e-05
42 *52:25 *686:CLK 0.000315549
43 *54:10 *706:CLK 9.50523e-05
44 *54:200 *447:41 0.000222684
45 *56:166 *728:CLK 6.73207e-05
46 *64:10 *710:CLK 1.2495e-05
47 *69:18 *686:CLK 0
48 *69:18 *447:33 3.71816e-05
49 *69:18 *447:41 3.33235e-05
50 *179:12 *447:94 1.85511e-05
51 *195:10 *447:8 2.08274e-05
52 *195:10 *447:33 0.000116502
53 *202:43 *721:CLK 7.93468e-05
54 *238:12 *721:CLK 2.86829e-05
55 *238:12 *447:94 0.000209636
56 *238:25 *721:CLK 0
57 *377:10 *728:CLK 0.000210531
58 *438:30 *710:CLK 2.85274e-05
59 *438:68 *702:CLK 7.08716e-05
60 *438:197 *710:CLK 0
61 *439:192 *686:CLK 3.37904e-05
*RES
1 *926:X *447:4 9.24915 
2 *447:4 *447:6 2.94181 
3 *447:6 *447:8 4.05102 
4 *447:8 *686:CLK 25.402 
5 *447:8 *447:33 14.1303 
6 *447:33 *447:41 17.093 
7 *447:41 *693:CLK 9.24915 
8 *447:41 *728:CLK 31.3686 
9 *447:33 *689:CLK 9.24915 
10 *447:6 *447:70 7.37013 
11 *447:70 *702:CLK 17.2478 
12 *447:70 *932:A 17.4498 
13 *447:4 *447:94 5.71483 
14 *447:94 *721:CLK 25.0642 
15 *447:94 *447:107 1.278 
16 *447:107 *714:CLK 9.24915 
17 *447:107 *447:118 13.2926 
18 *447:118 *706:CLK 16.1364 
19 *447:118 *710:CLK 21.8422 
*END

*D_NET *198 7.19149e-05
*CONN
*I *934:A I *D sky130_fd_sc_hd__dlygate4sd3_1
*I *758:Q O *D sky130_fd_sc_hd__dfrtp_1
*CAP
1 *934:A 3.59575e-05
2 *758:Q 3.59575e-05
*RES
1 *758:Q *934:A 19.2217 
*END

*D_NET *200 0.00333894
*CONN
*I *469:A1 I *D sky130_fd_sc_hd__a21oi_1
*I *468:C1 I *D sky130_fd_sc_hd__a211oi_1
*I *719:D I *D sky130_fd_sc_hd__dfrtp_1
*I *755:D I *D sky130_fd_sc_hd__dfrtp_1
*I *455:Y O *D sky130_fd_sc_hd__o21ai_1
*CAP
1 *469:A1 0.000211341
2 *468:C1 0.000217973
3 *719:D 0.000330557
4 *755:D 0.000279104
5 *455:Y 8.72036e-05
6 *200:35 0.000642012
7 *200:6 0.000484168
8 *468:C1 *688:CLK 0
9 *719:D *719:CLK 5.07314e-05
10 *755:D *708:RESET_B 5.2472e-05
11 *755:D *724:D 0
12 *755:D *755:RESET_B 0
13 *755:D *755:CLK 7.10494e-05
14 *200:6 *719:CLK 9.40969e-05
15 *200:6 *724:D 0.000114523
16 *469:A2 *468:C1 0.000403461
17 *469:A2 *469:A1 0.000187883
18 *469:B1 *469:A1 0.000112361
19 *54:134 *755:D 0
*RES
1 *455:Y *200:6 12.191 
2 *200:6 *755:D 25.3779 
3 *200:6 *719:D 12.191 
4 *719:D *200:35 18.3548 
5 *200:35 *468:C1 20.9794 
6 *200:35 *469:A1 19.3507 
*END

*D_NET *201 0.00490395
*CONN
*I *720:D I *D sky130_fd_sc_hd__dfrtp_1
*I *465:A1 I *D sky130_fd_sc_hd__a21oi_1
*I *464:C1 I *D sky130_fd_sc_hd__a211oi_1
*I *756:D I *D sky130_fd_sc_hd__dfrtp_1
*I *461:Y O *D sky130_fd_sc_hd__o21ai_1
*CAP
1 *720:D 0.000265493
2 *465:A1 3.64488e-05
3 *464:C1 0
4 *756:D 0.000438016
5 *461:Y 0.000458673
6 *201:44 0.000356854
7 *201:22 0.000951602
8 *465:A1 *720:CLK 6.92705e-05
9 *465:A1 *445:50 2.22198e-05
10 *720:D *503:B 2.65667e-05
11 *720:D *720:CLK 3.95711e-05
12 *756:D *460:B 0.000118179
13 *756:D *705:RESET_B 0.000368654
14 *756:D *713:CLK 2.58616e-05
15 *756:D *930:A 0.000153882
16 *756:D *445:50 0.000184931
17 *201:22 *460:A 0.000152131
18 *201:22 *464:B1 6.08467e-05
19 *201:22 *487:B 0
20 *201:22 *720:CLK 5.04829e-06
21 *201:22 *213:24 6.13007e-05
22 *201:22 *237:14 9.26984e-06
23 *201:22 *237:36 0.000139223
24 *201:22 *438:86 0.000167587
25 *201:44 *720:CLK 1.53438e-05
26 *201:44 *213:24 0.000111722
27 *461:A2 *201:22 1.19705e-05
28 *461:B1 *201:22 0.000347784
29 *465:A2 *465:A1 2.36813e-05
30 *465:B1 *201:44 6.9879e-05
31 *685:D *201:22 5.64475e-05
32 *54:200 *720:D 0.000155492
*RES
1 *461:Y *201:22 32.1757 
2 *201:22 *756:D 31.6011 
3 *201:22 *464:C1 9.24915 
4 *201:22 *201:44 2.41132 
5 *201:44 *465:A1 19.974 
6 *201:44 *720:D 15.5969 
*END

*D_NET *202 0.00563398
*CONN
*I *721:D I *D sky130_fd_sc_hd__dfrtp_1
*I *645:A1 I *D sky130_fd_sc_hd__a21oi_1
*I *644:C1 I *D sky130_fd_sc_hd__a211oi_1
*I *757:D I *D sky130_fd_sc_hd__dfrtp_1
*I *641:Y O *D sky130_fd_sc_hd__o21ai_1
*CAP
1 *721:D 2.3394e-05
2 *645:A1 4.43852e-05
3 *644:C1 0
4 *757:D 0.000951207
5 *641:Y 0
6 *202:43 0.000649952
7 *202:27 0.000690481
8 *202:4 0.00101273
9 *645:A1 *644:A1 0
10 *757:D *639:A 0
11 *757:D *757:CLK 4.89251e-05
12 *757:D *439:170 9.93366e-06
13 *757:D *446:8 0
14 *757:D *446:10 0
15 *202:43 *644:A1 9.20016e-05
16 *202:43 *644:A2 0.000194227
17 *202:43 *721:CLK 7.93468e-05
18 *610:A *757:D 0.00012568
19 *615:A *757:D 0.000778083
20 *615:B *757:D 0
21 *616:A *757:D 3.8079e-05
22 *616:B *757:D 0
23 *641:B1 *757:D 2.39581e-05
24 *641:B1 *202:27 7.34948e-06
25 *645:A2 *645:A1 7.97906e-05
26 *645:A2 *202:43 7.34948e-06
27 *645:B1 *645:A1 6.50586e-05
28 *661:A1 *757:D 0.000122986
29 *714:D *757:D 0
30 *52:25 *202:43 0.000141918
31 *54:25 *645:A1 0.000205985
32 *54:25 *202:43 0.000164843
33 *68:61 *721:D 2.57986e-05
34 *68:61 *202:27 5.05248e-05
*RES
1 *641:Y *202:4 9.24915 
2 *202:4 *757:D 45.0416 
3 *202:4 *202:27 1.8326 
4 *202:27 *202:43 25.6641 
5 *202:43 *644:C1 9.24915 
6 *202:43 *645:A1 12.2151 
7 *202:27 *721:D 9.97254 
*END

*D_NET *210 0.0047241
*CONN
*I *473:A1 I *D sky130_fd_sc_hd__a21oi_1
*I *718:D I *D sky130_fd_sc_hd__dfrtp_1
*I *472:C1 I *D sky130_fd_sc_hd__a211oi_1
*I *754:D I *D sky130_fd_sc_hd__dfrtp_1
*I *458:Y O *D sky130_fd_sc_hd__o21ai_1
*CAP
1 *473:A1 0.000234566
2 *718:D 0.000362518
3 *472:C1 0
4 *754:D 2.1308e-05
5 *458:Y 0.000319803
6 *210:23 0.000509681
7 *210:15 0.000798885
8 *210:6 0.000758266
9 *473:A1 *471:B1 0.000110458
10 *473:A1 *773:A 7.67734e-06
11 *718:D *471:A2 0
12 *718:D *471:B1 1.41396e-05
13 *718:D *472:A1 6.27718e-05
14 *718:D *472:A2 4.95892e-05
15 *718:D *691:CLK 4.58003e-05
16 *718:D *243:30 4.61122e-05
17 *718:D *327:12 1.02917e-05
18 *718:D *442:12 5.93539e-05
19 *718:D *442:16 8.38894e-05
20 *210:6 *442:41 0.000307799
21 *210:15 *754:RESET_B 0.000107486
22 *210:23 *472:A1 0.000112367
23 *210:23 *472:A2 0.000112367
24 *210:23 *472:B1 0.000198334
25 *210:23 *243:30 5.23577e-05
26 *473:A2 *473:A1 6.27718e-05
27 *473:A2 *718:D 0
28 *473:B1 *473:A1 0.000135424
29 *68:20 *718:D 7.26408e-05
30 *96:141 *718:D 6.74426e-05
*RES
1 *458:Y *210:6 14.4094 
2 *210:6 *754:D 9.82786 
3 *210:6 *210:15 6.26943 
4 *210:15 *210:23 14.6015 
5 *210:23 *472:C1 9.24915 
6 *210:23 *718:D 29.284 
7 *210:15 *473:A1 14.6023 
*END

*D_NET *386 0.00188464
*CONN
*P intr_gpio_o[0] O
*I *773:X O *D sky130_fd_sc_hd__clkdlybuf4s50_1
*CAP
1 intr_gpio_o[0] 0.000754055
2 *773:X 0.000754055
3 intr_gpio_o[0] cio_gpio_en_o[0] 1.40045e-05
4 intr_gpio_o[0] reg_rsp_o[10] 3.25302e-05
5 intr_gpio_o[0] reg_rsp_o[24] 6.32027e-05
6 intr_gpio_o[0] reg_rsp_o[26] 3.96052e-05
7 intr_gpio_o[0] reg_rsp_o[27] 1.11499e-05
8 intr_gpio_o[0] reg_rsp_o[32] 1.1573e-05
9 intr_gpio_o[0] reg_rsp_o[6] 0
10 *769:A intr_gpio_o[0] 0.000124086
11 *808:A intr_gpio_o[0] 8.03805e-05
12 *304:51 intr_gpio_o[0] 0
13 *304:53 intr_gpio_o[0] 0
*RES
1 *773:X intr_gpio_o[0] 32.2902 
*END

*D_NET *385 0.00137742
*CONN
*P intr_gpio_o[1] O
*I *772:X O *D sky130_fd_sc_hd__clkdlybuf4s50_1
*CAP
1 intr_gpio_o[1] 0.000647046
2 *772:X 0.000647046
3 intr_gpio_o[1] *748:CLK 5.39463e-05
4 *531:A intr_gpio_o[1] 0
5 *533:A1 intr_gpio_o[1] 2.93863e-05
6 *787:A intr_gpio_o[1] 0
7 *936:A intr_gpio_o[1] 0
*RES
1 *772:X intr_gpio_o[1] 29.1629 
*END

*D_NET *406 0.000972793
*CONN
*P intr_gpio_o[2] O
*I *771:X O *D sky130_fd_sc_hd__clkdlybuf4s50_1
*CAP
1 intr_gpio_o[2] 0.000473507
2 *771:X 0.000473507
3 *771:A intr_gpio_o[2] 2.57796e-05
4 *797:A intr_gpio_o[2] 0
5 *810:A intr_gpio_o[2] 0
6 *937:A intr_gpio_o[2] 0
7 *56:182 intr_gpio_o[2] 0
*RES
1 *771:X intr_gpio_o[2] 24.4575 
*END

*D_NET *405 0.00415825
*CONN
*P intr_gpio_o[3] O
*I *770:X O *D sky130_fd_sc_hd__clkdlybuf4s50_1
*CAP
1 intr_gpio_o[3] 0.001033
2 *770:X 0.001033
3 *493:B intr_gpio_o[3] 1.05313e-05
4 *789:A intr_gpio_o[3] 1.5605e-06
5 *790:A intr_gpio_o[3] 0.00127698
6 *793:A intr_gpio_o[3] 0.000760556
7 *52:21 intr_gpio_o[3] 0
8 *96:14 intr_gpio_o[3] 4.26145e-05
*RES
1 *770:X intr_gpio_o[3] 23.7461 
*END

*D_NET *215 0.00122511
*CONN
*I *722:D I *D sky130_fd_sc_hd__dfrtp_1
*I *717:HI O *D sky130_fd_sc_hd__conb_1
*CAP
1 *722:D 0.000504315
2 *717:HI 0.000504315
3 *722:D *722:RESET_B 7.45415e-05
4 *722:D *724:CLK 7.88662e-05
5 *722:D *247:25 0
6 *722:D *440:6 1.03403e-05
7 *722:D *440:10 3.88764e-05
8 *722:D *440:16 1.38543e-05
*RES
1 *717:HI *722:D 39.9113 
*END

*D_NET *412 0.000252938
*CONN
*I *716:D I *D sky130_fd_sc_hd__dfrtp_1
*I *816:HI O *D sky130_fd_sc_hd__conb_1
*CAP
1 *716:D 9.7999e-05
2 *816:HI 9.7999e-05
3 *716:D *715:CLK 5.69404e-05
*RES
1 *816:HI *716:D 30.576 
*END

*D_NET *216 0.0012575
*CONN
*I *724:D I *D sky130_fd_sc_hd__dfrtp_1
*I *723:HI O *D sky130_fd_sc_hd__conb_1
*CAP
1 *724:D 0.000503462
2 *723:HI 0.000503462
3 *724:D *468:B1 3.99086e-06
4 *724:D *724:RESET_B 0
5 *724:D *724:CLK 9.77652e-05
6 *724:D *755:RESET_B 0
7 *724:D *755:CLK 3.42931e-05
8 *755:D *724:D 0
9 *200:6 *724:D 0.000114523
*RES
1 *723:HI *724:D 38.0026 
*END

*D_NET *220 0.000320228
*CONN
*I *759:D I *D sky130_fd_sc_hd__dfrtp_1
*I *725:HI O *D sky130_fd_sc_hd__conb_1
*CAP
1 *759:D 0.000142811
2 *725:HI 0.000142811
3 *759:D *759:CLK 3.46069e-05
*RES
1 *725:HI *759:D 21.9947 
*END

*D_NET *189 0.00324003
*CONN
*I *748:D I *D sky130_fd_sc_hd__dfrtp_1
*I *815:X O *D sky130_fd_sc_hd__clkdlybuf4s50_1
*CAP
1 *748:D 0
2 *815:X 0.000740487
3 *189:14 0.000740487
4 *189:14 *531:A 8.50941e-05
5 *189:14 *688:RESET_B 9.96342e-05
6 *189:14 *745:RESET_B 5.10726e-05
7 *189:14 *748:CLK 0
8 *189:14 *776:A 0.000561555
9 *189:14 *815:A 2.84892e-05
10 *189:14 *194:27 1.15085e-05
11 *189:14 *438:306 0.000139764
12 *189:14 *451:10 6.77565e-05
13 *515:A *189:14 0.000142452
14 *567:A1 *189:14 8.71715e-05
15 *688:D *189:14 0.000484559
*RES
1 *815:X *189:14 45.2029 
2 *189:14 *748:D 9.24915 
*END

*D_NET *190 0.000449453
*CONN
*I *741:D I *D sky130_fd_sc_hd__dfrtp_1
*I *814:X O *D sky130_fd_sc_hd__clkdlybuf4s50_1
*CAP
1 *741:D 0.000190676
2 *814:X 0.000190676
3 *741:D *700:CLK 6.81008e-05
4 *741:D *709:RESET_B 0
*RES
1 *814:X *741:D 32.1622 
*END

*D_NET *191 0.000718831
*CONN
*I *734:D I *D sky130_fd_sc_hd__dfrtp_1
*I *813:X O *D sky130_fd_sc_hd__clkdlybuf4s50_1
*CAP
1 *734:D 0.000245685
2 *813:X 0.000245685
3 *734:D reg_rsp_o[16] 0.000180849
4 *734:D *734:CLK 4.66112e-05
*RES
1 *813:X *734:D 25.8769 
*END

*D_NET *192 0.00317549
*CONN
*I *727:D I *D sky130_fd_sc_hd__dfrtp_1
*I *812:X O *D sky130_fd_sc_hd__clkdlybuf4s50_1
*CAP
1 *727:D 0
2 *812:X 0.000988815
3 *192:20 0.000988815
4 *192:20 *503:B 5.68831e-05
5 *192:20 *540:A1 0.00010566
6 *192:20 *685:RESET_B 5.89072e-05
7 *192:20 *726:CLK 0.000134976
8 *192:20 *767:A 0.000394815
9 *192:20 *229:10 0.000188716
10 *192:20 *437:107 8.62474e-06
11 *192:20 *444:10 2.84892e-05
12 *192:20 *445:10 5.71849e-05
13 *504:A *192:20 0.000106104
14 *54:183 *192:20 4.55535e-05
15 *56:180 *192:20 1.19513e-05
*RES
1 *812:X *192:20 46.2746 
2 *192:20 *727:D 9.24915 
*END

*D_NET *248 0.00141913
*CONN
*I *521:A1 I *D sky130_fd_sc_hd__o21ai_0
*I *811:X O *D sky130_fd_sc_hd__clkdlybuf4s50_1
*CAP
1 *521:A1 0.000524567
2 *811:X 0.000524567
3 *521:A1 *520:A 1.55462e-05
4 *521:A1 *522:B 2.41274e-06
5 *521:B1 *521:A1 0.000113968
6 *522:A *521:A1 7.14746e-05
7 *526:B *521:A1 1.84673e-05
8 *527:B *521:A1 5.55217e-05
9 *811:A *521:A1 9.2602e-05
*RES
1 *811:X *521:A1 37.293 
*END

*D_NET *249 0.00162205
*CONN
*I *546:A I *D sky130_fd_sc_hd__inv_1
*I *810:X O *D sky130_fd_sc_hd__clkdlybuf4s50_1
*CAP
1 *546:A 0.000447671
2 *810:X 0.000447671
3 *546:A reg_rsp_o[20] 1.91391e-05
4 *546:A *701:CLK 0.000127683
5 *487:B *546:A 0.000200699
6 *488:A *546:A 0.000208627
7 *701:D *546:A 4.91493e-05
8 *56:180 *546:A 1.00492e-05
9 *56:182 *546:A 0.00011136
*RES
1 *810:X *546:A 41.3305 
*END

*D_NET *250 0.00038848
*CONN
*I *665:A I *D sky130_fd_sc_hd__inv_1
*I *809:X O *D sky130_fd_sc_hd__clkdlybuf4s50_1
*CAP
1 *665:A 6.77436e-05
2 *809:X 6.77436e-05
3 *665:A *324:217 0.000152796
4 *669:A1 *665:A 3.38696e-05
5 *68:10 *665:A 6.63276e-05
*RES
1 *809:X *665:A 30.5406 
*END

*D_NET *251 0.00167031
*CONN
*I *542:A0 I *D sky130_fd_sc_hd__mux2_1
*I *808:X O *D sky130_fd_sc_hd__clkdlybuf4s50_1
*CAP
1 *542:A0 0.000295675
2 *808:X 0.000295675
3 *542:A0 *542:S 5.28741e-05
4 *471:B1 *542:A0 6.52897e-05
5 *773:A *542:A0 0.000147429
6 *808:A *542:A0 0.000351536
7 *246:21 *542:A0 0.000461831
*RES
1 *808:X *542:A0 29.7592 
*END

*D_NET *252 0.00114975
*CONN
*I *541:A0 I *D sky130_fd_sc_hd__mux2_1
*I *807:X O *D sky130_fd_sc_hd__clkdlybuf4s50_1
*CAP
1 *541:A0 0.000523274
2 *807:X 0.000523274
3 *541:A1 *541:A0 0
4 *807:A *541:A0 0.000103204
*RES
1 *807:X *541:A0 36.4302 
*END

*D_NET *253 0.000738704
*CONN
*I *540:A0 I *D sky130_fd_sc_hd__mux2_1
*I *806:X O *D sky130_fd_sc_hd__clkdlybuf4s50_1
*CAP
1 *540:A0 0.00028034
2 *806:X 0.00028034
3 *540:A0 *540:S 5.56461e-05
4 *806:A *540:A0 0.000122378
*RES
1 *806:X *540:A0 25.3223 
*END

*D_NET *254 0.000336342
*CONN
*I *673:A I *D sky130_fd_sc_hd__nor2_1
*I *805:X O *D sky130_fd_sc_hd__clkdlybuf4s50_1
*CAP
1 *673:A 0.000155272
2 *805:X 0.000155272
3 *805:A *673:A 2.57986e-05
*RES
1 *805:X *673:A 30.4689 
*END

*D_NET *255 0.00145913
*CONN
*I *539:A0 I *D sky130_fd_sc_hd__mux2_1
*I *804:X O *D sky130_fd_sc_hd__clkdlybuf4s50_1
*CAP
1 *539:A0 0.000595246
2 *804:X 0.000595246
3 *539:A0 reg_rsp_o[14] 2.14221e-05
4 *499:B *539:A0 0.000247216
5 *707:D *539:A0 0
6 *231:25 *539:A0 0
*RES
1 *804:X *539:A0 40.3012 
*END

*D_NET *256 0.000354794
*CONN
*I *538:A0 I *D sky130_fd_sc_hd__mux2_1
*I *803:X O *D sky130_fd_sc_hd__clkdlybuf4s50_1
*CAP
1 *538:A0 9.17601e-05
2 *803:X 9.17601e-05
3 *708:D *538:A0 0.000171273
*RES
1 *803:X *538:A0 21.4401 
*END

*D_NET *257 0.00123385
*CONN
*I *537:A0 I *D sky130_fd_sc_hd__mux2_1
*I *802:X O *D sky130_fd_sc_hd__clkdlybuf4s50_1
*CAP
1 *537:A0 0.000224031
2 *802:X 0.000224031
3 *537:A0 *709:RESET_B 0
4 *537:A0 *709:CLK 6.80864e-05
5 *537:A0 *444:97 0.000224395
6 *709:D *537:A0 0.000167076
7 *56:182 *537:A0 0.000326234
*RES
1 *802:X *537:A0 36.564 
*END

*D_NET *258 0.000836894
*CONN
*I *675:A0 I *D sky130_fd_sc_hd__mux2_1
*I *801:X O *D sky130_fd_sc_hd__clkdlybuf4s50_1
*CAP
1 *675:A0 0.000244433
2 *801:X 0.000244433
3 *675:A0 *710:RESET_B 0.000112165
4 *675:A0 *438:197 0
5 *53:25 *675:A0 0.00016386
6 *56:139 *675:A0 7.20028e-05
7 *234:10 *675:A0 0
*RES
1 *801:X *675:A0 35.3154 
*END

*D_NET *259 0.00114304
*CONN
*I *525:A I *D sky130_fd_sc_hd__nand2_1
*I *800:X O *D sky130_fd_sc_hd__clkdlybuf4s50_1
*CAP
1 *525:A 0.000313292
2 *800:X 0.000313292
3 *525:A *520:A 7.55708e-05
4 *525:A *795:A 0.000147191
5 *525:A *282:10 5.03545e-06
6 *526:B *525:A 0.000172784
7 *800:A *525:A 0.00011588
*RES
1 *800:X *525:A 36.4246 
*END

*D_NET *260 0.000126943
*CONN
*I *545:A0 I *D sky130_fd_sc_hd__mux2_1
*I *799:X O *D sky130_fd_sc_hd__clkdlybuf4s50_1
*CAP
1 *545:A0 6.34714e-05
2 *799:X 6.34714e-05
3 *54:82 *545:A0 0
*RES
1 *799:X *545:A0 28.915 
*END

*D_NET *261 0.000926406
*CONN
*I *544:A0 I *D sky130_fd_sc_hd__mux2_1
*I *798:X O *D sky130_fd_sc_hd__clkdlybuf4s50_1
*CAP
1 *544:A0 0.00040689
2 *798:X 0.00040689
3 *544:A0 *700:CLK 2.58757e-05
4 *544:A0 *709:RESET_B 6.18794e-05
5 *700:D *544:A0 2.48716e-05
*RES
1 *798:X *544:A0 34.9352 
*END

*D_NET *262 0.00082092
*CONN
*I *543:A0 I *D sky130_fd_sc_hd__mux2_1
*I *797:X O *D sky130_fd_sc_hd__clkdlybuf4s50_1
*CAP
1 *543:A0 0.000306222
2 *797:X 0.000306222
3 *543:A0 *894:A 0.000153083
4 *701:D *543:A0 2.84758e-05
5 *54:183 *543:A0 5.04829e-06
6 *56:180 *543:A0 2.18679e-05
*RES
1 *797:X *543:A0 35.321 
*END

*D_NET *263 0.000451437
*CONN
*I *671:A I *D sky130_fd_sc_hd__nor2_1
*I *796:X O *D sky130_fd_sc_hd__clkdlybuf4s50_1
*CAP
1 *671:A 0.000114647
2 *796:X 0.000114647
3 *671:A *438:38 5.3103e-05
4 *671:A *438:46 0.000169041
*RES
1 *796:X *671:A 22.0188 
*END

*D_NET *270 0.000676609
*CONN
*I *525:B I *D sky130_fd_sc_hd__nand2_1
*I *795:X O *D sky130_fd_sc_hd__clkdlybuf4s50_1
*CAP
1 *525:B 0.000338305
2 *795:X 0.000338305
*RES
1 *795:X *525:B 25.3464 
*END

*D_NET *277 0.00095518
*CONN
*I *475:A I *D sky130_fd_sc_hd__nor2_2
*I *794:X O *D sky130_fd_sc_hd__clkdlybuf4s50_1
*CAP
1 *475:A 0.000439465
2 *794:X 0.000439465
3 *475:A cio_gpio_en_o[3] 5.29131e-05
4 *475:A *475:B 1.03594e-05
5 *475:A *791:A 1.2977e-05
6 *477:A *475:A 0
*RES
1 *794:X *475:A 36.0094 
*END

*D_NET *278 0.000585205
*CONN
*I *475:B I *D sky130_fd_sc_hd__nor2_2
*I *793:X O *D sky130_fd_sc_hd__clkdlybuf4s50_1
*CAP
1 *475:B 0.00026699
2 *793:X 0.00026699
3 *475:B reg_rsp_o[5] 4.08658e-05
4 *475:A *475:B 1.03594e-05
*RES
1 *793:X *475:B 32.548 
*END

*D_NET *279 0.00165167
*CONN
*I *474:A I *D sky130_fd_sc_hd__clkinv_1
*I *509:A I *D sky130_fd_sc_hd__nor2_1
*I *792:X O *D sky130_fd_sc_hd__clkdlybuf4s50_1
*CAP
1 *474:A 0
2 *509:A 4.78833e-05
3 *792:X 0.000294868
4 *279:20 0.000342751
5 *279:20 *792:A 0.000306798
6 *478:B *509:A 0.000107496
7 *478:B *279:20 0.000157107
8 *479:B *279:20 3.96696e-05
9 *53:23 *279:20 1.75816e-05
10 *54:38 *279:20 5.23577e-05
11 *56:124 *279:20 0.000285162
*RES
1 *792:X *279:20 37.0699 
2 *279:20 *509:A 10.5271 
3 *279:20 *474:A 9.24915 
*END

*D_NET *280 0.00153359
*CONN
*I *479:C I *D sky130_fd_sc_hd__nand3_1
*I *476:A I *D sky130_fd_sc_hd__inv_1
*I *791:X O *D sky130_fd_sc_hd__clkdlybuf4s50_1
*CAP
1 *479:C 0.000149887
2 *476:A 5.58206e-05
3 *791:X 0.000240944
4 *280:6 0.000446652
5 *476:A cio_gpio_o[3] 5.16312e-05
6 *479:C *792:A 0.000117277
7 *280:6 cio_gpio_o[3] 0.000227869
8 *477:A *479:C 4.77472e-05
9 *479:A *479:C 2.16355e-05
10 *479:B *479:C 0.000111352
11 *53:8 *479:C 6.27718e-05
*RES
1 *791:X *280:6 15.5186 
2 *280:6 *476:A 10.8708 
3 *280:6 *479:C 22.8836 
*END

*D_NET *282 0.00202847
*CONN
*I *520:A I *D sky130_fd_sc_hd__inv_1
*I *523:B I *D sky130_fd_sc_hd__nand2_1
*I *790:X O *D sky130_fd_sc_hd__clkdlybuf4s50_1
*CAP
1 *520:A 0.000357562
2 *523:B 0.000149558
3 *790:X 0.000178479
4 *282:10 0.000685599
5 *520:A *522:B 3.48647e-05
6 *282:10 *522:B 2.44969e-05
7 *282:10 *893:A 1.83992e-05
8 *282:10 *283:10 6.84737e-05
9 *521:A1 *520:A 1.55462e-05
10 *521:A2 *520:A 5.03275e-05
11 *522:A *520:A 0.00014749
12 *525:A *520:A 7.55708e-05
13 *525:A *282:10 5.03545e-06
14 *526:B *520:A 0.000172784
15 *527:B *520:A 0
16 *800:A *523:B 1.41976e-05
17 *79:6 *523:B 3.00829e-05
*RES
1 *790:X *282:10 17.9655 
2 *282:10 *523:B 17.2938 
3 *282:10 *520:A 24.6237 
*END

*D_NET *283 0.00137601
*CONN
*I *522:B I *D sky130_fd_sc_hd__nand2_1
*I *523:A I *D sky130_fd_sc_hd__nand2_1
*I *789:X O *D sky130_fd_sc_hd__clkdlybuf4s50_1
*CAP
1 *522:B 0.000130254
2 *523:A 0
3 *789:X 0.00043674
4 *283:10 0.000566994
5 *283:10 *795:A 0
6 *520:A *522:B 3.48647e-05
7 *521:A1 *522:B 2.41274e-06
8 *522:A *522:B 8.36586e-06
9 *526:B *522:B 6.27718e-05
10 *527:A *522:B 7.74044e-06
11 *527:B *522:B 3.00174e-06
12 *555:A *522:B 2.83033e-05
13 *555:A *283:10 1.59362e-06
14 *56:133 *283:10 0
15 *282:10 *522:B 2.44969e-05
16 *282:10 *283:10 6.84737e-05
*RES
1 *789:X *283:10 22.6755 
2 *283:10 *523:A 13.7491 
3 *283:10 *522:B 17.5503 
*END

*D_NET *284 0.000372489
*CONN
*I *534:A I *D sky130_fd_sc_hd__inv_1
*I *788:X O *D sky130_fd_sc_hd__clkdlybuf4s50_1
*CAP
1 *534:A 8.45821e-05
2 *788:X 8.45821e-05
3 *68:10 *534:A 0.000145508
4 *96:112 *534:A 5.78167e-05
*RES
1 *788:X *534:A 30.5406 
*END

*D_NET *285 0.00102059
*CONN
*I *531:A I *D sky130_fd_sc_hd__inv_1
*I *787:X O *D sky130_fd_sc_hd__clkdlybuf4s50_1
*CAP
1 *531:A 0.000349711
2 *787:X 0.000349711
3 *531:A intr_gpio_o[1] 0
4 *531:A *748:CLK 0
5 *531:A *787:A 9.04224e-05
6 *506:B *531:A 6.22868e-05
7 *776:A *531:A 5.12009e-05
8 *86:6 *531:A 3.21692e-05
9 *189:14 *531:A 8.50941e-05
*RES
1 *787:X *531:A 37.4956 
*END

*D_NET *286 0.000227647
*CONN
*I *519:A I *D sky130_fd_sc_hd__inv_1
*I *786:X O *D sky130_fd_sc_hd__clkdlybuf4s50_1
*CAP
1 *519:A 0.000109754
2 *786:X 0.000109754
3 *519:A *914:A 0
4 *75:12 *519:A 8.13961e-06
*RES
1 *786:X *519:A 30.065 
*END

*D_NET *287 0.00095384
*CONN
*I *662:A I *D sky130_fd_sc_hd__inv_1
*I *785:X O *D sky130_fd_sc_hd__clkdlybuf4s50_1
*CAP
1 *662:A 0.000469172
2 *785:X 0.000469172
3 *174:14 *662:A 1.54961e-05
*RES
1 *785:X *662:A 28.439 
*END

*D_NET *288 0.00281106
*CONN
*I *552:A I *D sky130_fd_sc_hd__inv_1
*I *784:X O *D sky130_fd_sc_hd__clkdlybuf4s50_1
*CAP
1 *552:A 0
2 *784:X 0.0010454
3 *288:18 0.0010454
4 *288:18 *784:A 0.000363895
5 *288:18 *384:142 2.23069e-05
6 *568:A *288:18 0.000133972
7 *568:B *288:18 0
8 *569:B1 *288:18 6.16827e-05
9 *687:D *288:18 3.20593e-05
10 *96:127 *288:18 3.20264e-05
11 *193:30 *288:18 7.43191e-05
*RES
1 *784:X *288:18 44.9578 
2 *288:18 *552:A 9.24915 
*END

*D_NET *289 0.00368497
*CONN
*I *549:A I *D sky130_fd_sc_hd__inv_1
*I *783:X O *D sky130_fd_sc_hd__clkdlybuf4s50_1
*CAP
1 *549:A 0
2 *783:X 0.000852582
3 *289:20 0.000852582
4 *289:20 *587:A1 0.000109107
5 *289:20 *599:A 0.000124398
6 *289:20 *648:A 1.07403e-05
7 *289:20 *683:RESET_B 2.52414e-06
8 *289:20 *699:RESET_B 0.00031042
9 *289:20 *707:CLK 0
10 *289:20 *336:20 1.09738e-05
11 *289:20 *343:12 0.000113123
12 *289:20 *438:294 8.04185e-05
13 *545:A1 *289:20 8.62625e-06
14 *600:A *289:20 4.17341e-05
15 *647:A *289:20 3.14978e-05
16 *647:B *289:20 6.92705e-05
17 *647:C *289:20 6.50727e-05
18 *699:D *289:20 5.43261e-05
19 *115:12 *289:20 4.40137e-05
20 *163:18 *289:20 0.000659037
21 *235:27 *289:20 5.23435e-05
22 *235:29 *289:20 0.000192182
*RES
1 *783:X *289:20 48.5664 
2 *289:20 *549:A 9.24915 
*END

*D_NET *325 0.0025098
*CONN
*I *758:RESET_B I *D sky130_fd_sc_hd__dfrtp_1
*I *759:RESET_B I *D sky130_fd_sc_hd__dfrtp_1
*I *716:RESET_B I *D sky130_fd_sc_hd__dfrtp_1
*I *715:RESET_B I *D sky130_fd_sc_hd__dfrtp_1
*I *782:X O *D sky130_fd_sc_hd__clkdlybuf4s50_1
*CAP
1 *758:RESET_B 0.000311474
2 *759:RESET_B 2.96202e-05
3 *716:RESET_B 5.13358e-05
4 *715:RESET_B 3.39021e-05
5 *782:X 0.000306556
6 *325:31 0.000444046
7 *325:21 0.000335944
8 *325:10 0.000522115
9 *716:RESET_B *715:D 1.77433e-05
10 *758:RESET_B *708:CLK 2.94933e-05
11 *758:RESET_B *758:D 8.21063e-05
12 *758:RESET_B *440:20 6.00843e-05
13 *759:RESET_B *440:16 1.22232e-05
14 *325:10 *782:A 0.000273152
15 *325:21 *715:D 0
16 *325:21 *722:CLK 0
17 *325:21 *440:81 0
18 *325:31 *440:81 0
*RES
1 *782:X *325:10 22.1947 
2 *325:10 *715:RESET_B 5.61141 
3 *325:10 *325:21 4.53113 
4 *325:21 *716:RESET_B 5.6936 
5 *325:21 *325:31 2.24725 
6 *325:31 *759:RESET_B 5.139 
7 *325:31 *758:RESET_B 12.6508 
*END

*D_NET *185 0.00290542
*CONN
*I *486:B1 I *D sky130_fd_sc_hd__a221o_1
*I *562:B I *D sky130_fd_sc_hd__nand2_1
*I *781:A I *D sky130_fd_sc_hd__clkdlybuf4s50_1
*I *691:Q O *D sky130_fd_sc_hd__dfrtp_1
*CAP
1 *486:B1 0.000267558
2 *562:B 0.000273594
3 *781:A 0.000484726
4 *691:Q 0.000391171
5 *185:10 0.000881934
6 *486:B1 *486:A1 9.60366e-05
7 *781:A cio_gpio_en_o[0] 0
8 *781:A *773:A 8.36523e-05
9 *781:A *304:53 0
10 *185:10 *304:53 0
11 *562:A *562:B 2.24255e-05
12 *563:B1 *562:B 0.000102619
13 *52:76 *486:B1 4.12533e-05
14 *56:40 *781:A 0.000163768
15 *56:40 *185:10 2.51446e-05
16 *56:48 *781:A 7.15348e-05
*RES
1 *691:Q *185:10 16.3045 
2 *185:10 *781:A 28.0387 
3 *185:10 *562:B 19.898 
4 *691:Q *486:B1 32.2721 
*END

*D_NET *186 0.00422477
*CONN
*I *485:B1 I *D sky130_fd_sc_hd__a221o_1
*I *780:A I *D sky130_fd_sc_hd__clkdlybuf4s50_1
*I *560:B I *D sky130_fd_sc_hd__nand2_1
*I *692:Q O *D sky130_fd_sc_hd__dfrtp_1
*CAP
1 *485:B1 0
2 *780:A 0.000121655
3 *560:B 0.000675257
4 *692:Q 0
5 *186:25 0.000511854
6 *186:4 0.00106546
7 *560:B *692:RESET_B 5.37479e-05
8 *560:B *243:10 6.31665e-05
9 *560:B *438:231 0.000340158
10 *186:25 *485:A1 0.000258142
11 *186:25 *485:C1 2.42133e-05
12 *186:25 *384:142 0.000161849
13 *485:B2 *186:25 3.27324e-05
14 *692:D *560:B 0
15 *696:D *560:B 1.78514e-05
16 *52:64 *780:A 9.2346e-06
17 *52:68 *780:A 2.29875e-05
18 *54:46 *780:A 0.000203833
19 *54:46 *186:25 1.41976e-05
20 *56:32 *780:A 0.000241707
21 *96:88 *186:25 0.00040673
*RES
1 *692:Q *186:4 9.24915 
2 *186:4 *560:B 31.6123 
3 *186:4 *186:25 22.2238 
4 *186:25 *780:A 23.4764 
5 *186:25 *485:B1 9.24915 
*END

*D_NET *187 0.00252285
*CONN
*I *779:A I *D sky130_fd_sc_hd__clkdlybuf4s50_1
*I *481:A2 I *D sky130_fd_sc_hd__a22oi_1
*I *558:B I *D sky130_fd_sc_hd__nand2_1
*I *693:Q O *D sky130_fd_sc_hd__dfrtp_1
*CAP
1 *779:A 0.000259367
2 *481:A2 4.29453e-06
3 *558:B 0.000179674
4 *693:Q 0.000207293
5 *187:14 0.000183969
6 *187:12 0.000466661
7 *558:B *481:B1 3.63956e-05
8 *558:B *686:CLK 0
9 *481:A1 *481:A2 5.04829e-06
10 *481:A1 *558:B 2.65667e-05
11 *481:B2 *558:B 6.73351e-05
12 *483:A *779:A 0.000524947
13 *483:A *187:12 1.44467e-05
14 *511:A *779:A 0.000326171
15 *52:25 *481:A2 9.0148e-07
16 *56:158 *779:A 2.45185e-05
17 *56:166 *779:A 1.64708e-05
18 *56:166 *187:12 7.58595e-05
19 *68:61 *187:12 0.00010293
20 *96:33 *187:12 0
*RES
1 *693:Q *187:12 19.7928 
2 *187:12 *187:14 4.5 
3 *187:14 *558:B 14.6264 
4 *187:14 *481:A2 9.44808 
5 *187:12 *779:A 24.3747 
*END

*D_NET *188 0.00179145
*CONN
*I *778:A I *D sky130_fd_sc_hd__clkdlybuf4s50_1
*I *678:A1 I *D sky130_fd_sc_hd__a221o_1
*I *666:B I *D sky130_fd_sc_hd__nand2_1
*I *694:Q O *D sky130_fd_sc_hd__dfrtp_1
*CAP
1 *778:A 0.000170642
2 *678:A1 0
3 *666:B 0.000421735
4 *694:Q 0
5 *188:12 0.000630354
6 *188:4 0.00037926
7 *188:12 reg_rsp_o[9] 0
8 *666:A *666:B 1.32133e-05
9 *667:B1 *666:B 1.62894e-05
10 *678:A2 *666:B 1.82679e-05
11 *678:A2 *188:12 3.66437e-05
12 *678:B2 *666:B 1.15389e-05
13 *56:28 *188:12 9.35032e-05
*RES
1 *694:Q *188:4 9.24915 
2 *188:4 *188:12 14.1863 
3 *188:12 *666:B 15.9767 
4 *188:12 *678:A1 9.24915 
5 *188:4 *778:A 13.3243 
*END

*D_NET *193 0.00276191
*CONN
*I *517:B I *D sky130_fd_sc_hd__nand2_1
*I *568:B I *D sky130_fd_sc_hd__nand2_1
*I *777:A I *D sky130_fd_sc_hd__clkdlybuf4s50_1
*I *687:Q O *D sky130_fd_sc_hd__dfrtp_1
*CAP
1 *517:B 0.000156096
2 *568:B 0.00029778
3 *777:A 0.000106223
4 *687:Q 0.000385515
5 *193:30 0.000733168
6 *517:B *485:A1 0.000180481
7 *517:B *384:142 0
8 *568:B *687:RESET_B 6.63895e-05
9 *568:B *288:18 0
10 *568:B *384:142 0
11 *777:A *904:A 2.58616e-05
12 *193:30 *288:18 7.43191e-05
13 *518:C *517:B 0.000243726
14 *518:C *568:B 0.000253414
15 *52:64 *517:B 2.39287e-05
16 *54:57 *777:A 9.43033e-05
17 *56:32 *777:A 9.43033e-05
18 *56:40 *777:A 2.63971e-05
19 *96:88 *517:B 0
*RES
1 *687:Q *777:A 31.2111 
2 *687:Q *193:30 17.8002 
3 *193:30 *568:B 22.2985 
4 *193:30 *517:B 19.7337 
*END

*D_NET *194 0.0042157
*CONN
*I *566:B I *D sky130_fd_sc_hd__nand2_1
*I *776:A I *D sky130_fd_sc_hd__clkdlybuf4s50_1
*I *514:B I *D sky130_fd_sc_hd__nand2_1
*I *688:Q O *D sky130_fd_sc_hd__dfrtp_1
*CAP
1 *566:B 1.98947e-05
2 *776:A 0.000477979
3 *514:B 2.67809e-05
4 *688:Q 0.000512993
5 *194:27 0.00075124
6 *194:10 0.00079314
7 *514:B *513:B1 2.87136e-06
8 *776:A *531:A 5.12009e-05
9 *776:A *787:A 0.000101246
10 *776:A *451:10 0.000312496
11 *194:10 *513:B1 4.79049e-05
12 *194:10 *331:14 0
13 *194:10 *350:10 0.000119659
14 *194:10 *384:38 5.69771e-05
15 *194:10 *384:48 7.19845e-05
16 *515:A *776:A 0.000197112
17 *515:A *194:27 1.66771e-05
18 *567:A2 *566:B 2.16355e-05
19 *567:B1 *566:B 6.08467e-05
20 *189:14 *776:A 0.000561555
21 *189:14 *194:27 1.15085e-05
*RES
1 *688:Q *194:10 25.3746 
2 *194:10 *514:B 14.1278 
3 *194:10 *194:27 7.62501 
4 *194:27 *776:A 32.7781 
5 *194:27 *566:B 14.4725 
*END

*D_NET *195 0.00331231
*CONN
*I *775:A I *D sky130_fd_sc_hd__clkdlybuf4s50_1
*I *511:B I *D sky130_fd_sc_hd__nand2_1
*I *564:B I *D sky130_fd_sc_hd__nand2_1
*I *689:Q O *D sky130_fd_sc_hd__dfrtp_1
*CAP
1 *775:A 0.000318606
2 *511:B 3.17585e-05
3 *564:B 0.000186629
4 *689:Q 0.000284566
5 *195:14 0.000615553
6 *195:10 0.00100034
7 *564:B *756:RESET_B 5.23435e-05
8 *564:B *438:68 6.12386e-06
9 *775:A cio_gpio_en_o[2] 0.000149628
10 *775:A *910:A 0.000143754
11 *195:10 *910:A 4.92146e-05
12 *195:10 *447:8 2.08274e-05
13 *195:10 *447:33 0.000116502
14 *195:14 *438:68 9.35765e-05
15 *512:B *195:14 2.57986e-05
16 *512:C *195:14 0.000112367
17 *564:A *564:B 2.08274e-05
18 *565:A2 *511:B 1.0759e-05
19 *565:A2 *564:B 6.27782e-05
20 *96:44 *564:B 1.03594e-05
*RES
1 *689:Q *195:10 19.0748 
2 *195:10 *195:14 10.7694 
3 *195:14 *564:B 21.6378 
4 *195:14 *511:B 10.2378 
5 *195:10 *775:A 22.6755 
*END

*D_NET *196 0.0010106
*CONN
*I *774:A I *D sky130_fd_sc_hd__clkdlybuf4s50_1
*I *681:B I *D sky130_fd_sc_hd__nand2_1
*I *663:B I *D sky130_fd_sc_hd__nand2_1
*I *690:Q O *D sky130_fd_sc_hd__dfrtp_1
*CAP
1 *774:A 0
2 *681:B 1.05843e-05
3 *663:B 0.000115916
4 *690:Q 0.00010956
5 *196:16 0.000240928
6 *196:12 0.000223988
7 *663:A *663:B 4.76161e-06
8 *663:A *681:B 4.76161e-06
9 *664:B1 *663:B 2.58757e-05
10 *682:B *196:12 0.000139759
11 *96:16 *663:B 2.60765e-05
12 *96:16 *196:16 5.05094e-05
13 *96:18 *663:B 1.00766e-05
14 *96:82 *196:12 4.7798e-05
*RES
1 *690:Q *196:12 21.2198 
2 *196:12 *196:16 2.96592 
3 *196:16 *663:B 12.2151 
4 *196:16 *681:B 9.82786 
5 *196:12 *774:A 9.24915 
*END

*D_NET *211 0.00249496
*CONN
*I *773:A I *D sky130_fd_sc_hd__clkdlybuf4s50_1
*I *473:Y O *D sky130_fd_sc_hd__a21oi_1
*CAP
1 *773:A 0.000807084
2 *473:Y 0.000807084
3 *773:A cio_gpio_en_o[0] 0
4 *773:A *471:B1 2.59764e-05
5 *773:A *542:A0 0.000147429
6 *773:A *542:S 0.000362872
7 *773:A *808:A 0.000124038
8 *773:A *438:355 1.88563e-05
9 *473:A1 *773:A 7.67734e-06
10 *473:A2 *773:A 4.24629e-05
11 *473:B1 *773:A 5.04829e-06
12 *554:B1 *773:A 6.27782e-05
13 *781:A *773:A 8.36523e-05
*RES
1 *473:Y *773:A 48.7681 
*END

*D_NET *212 0.00342872
*CONN
*I *772:A I *D sky130_fd_sc_hd__clkdlybuf4s50_1
*I *469:Y O *D sky130_fd_sc_hd__a21oi_1
*CAP
1 *772:A 0
2 *469:Y 0.000972235
3 *212:20 0.000972235
4 *212:20 *745:D 0.000549242
5 *212:20 *748:CLK 0.000128277
6 *212:20 *440:129 0.000131464
7 *469:B1 *212:20 0.000632184
8 *533:B1 *212:20 1.13359e-05
9 *712:D *212:20 3.17429e-05
*RES
1 *469:Y *212:20 45.1835 
2 *212:20 *772:A 9.24915 
*END

*D_NET *213 0.00458643
*CONN
*I *771:A I *D sky130_fd_sc_hd__clkdlybuf4s50_1
*I *465:Y O *D sky130_fd_sc_hd__a21oi_1
*CAP
1 *771:A 0.000988276
2 *465:Y 0.000994613
3 *213:24 0.00198289
4 *771:A intr_gpio_o[2] 2.57796e-05
5 *213:24 *464:B1 6.08467e-05
6 *213:24 *543:A1 2.8688e-05
7 *213:24 *697:RESET_B 0.000124161
8 *213:24 *438:92 2.77625e-06
9 *213:24 *438:98 0
10 *548:A1 *213:24 2.22923e-05
11 *548:B1 *213:24 0.00010072
12 *685:D *213:24 8.23626e-05
13 *201:22 *213:24 6.13007e-05
14 *201:44 *213:24 0.000111722
*RES
1 *465:Y *213:24 39.038 
2 *213:24 *771:A 23.7171 
*END

*D_NET *214 0.000741769
*CONN
*I *770:A I *D sky130_fd_sc_hd__clkdlybuf4s50_1
*I *645:Y O *D sky130_fd_sc_hd__a21oi_1
*CAP
1 *770:A 0.000221432
2 *645:Y 0.000221432
3 *52:21 *770:A 3.2059e-05
4 *54:25 *770:A 0.000266846
5 *96:14 *770:A 0
*RES
1 *645:Y *770:A 31.8568 
*END

*D_NET *291 0.000992786
*CONN
*I *769:A I *D sky130_fd_sc_hd__clkdlybuf4s50_1
*I *508:Y O *D sky130_fd_sc_hd__nand2_1
*CAP
1 *769:A 0.000365209
2 *508:Y 0.000365209
3 *769:A cio_gpio_en_o[0] 0.000124086
4 *769:A intr_gpio_o[0] 0.000124086
5 *508:A *769:A 1.41976e-05
*RES
1 *508:Y *769:A 34.3512 
*END

*D_NET *292 0.000813922
*CONN
*I *768:A I *D sky130_fd_sc_hd__clkdlybuf4s50_1
*I *506:Y O *D sky130_fd_sc_hd__nand2_1
*CAP
1 *768:A 0.000272888
2 *506:Y 0.000272888
3 *768:A *532:A 0
4 *768:A *541:S 0
5 *506:A *768:A 0.000149965
6 *506:B *768:A 0.00011818
*RES
1 *506:Y *768:A 34.7608 
*END

*D_NET *293 0.00217163
*CONN
*I *767:A I *D sky130_fd_sc_hd__clkdlybuf4s50_1
*I *504:Y O *D sky130_fd_sc_hd__nand2_1
*CAP
1 *767:A 0.000769289
2 *504:Y 0.000769289
3 *767:A *685:RESET_B 3.00829e-05
4 *767:A *726:CLK 8.23171e-06
5 *504:A *767:A 9.24241e-05
6 *540:A1 *767:A 0
7 *56:166 *767:A 0.000107496
8 *192:20 *767:A 0.000394815
*RES
1 *504:Y *767:A 49.1875 
*END

*D_NET *294 0.000833731
*CONN
*I *766:A I *D sky130_fd_sc_hd__clkdlybuf4s50_1
*I *502:Y O *D sky130_fd_sc_hd__o21ai_0
*CAP
1 *766:A 0.000321693
2 *502:Y 0.000321693
3 *766:A *710:CLK 0.000127179
4 *766:A *438:197 0
5 *674:A1 *766:A 6.31665e-05
*RES
1 *502:Y *766:A 34.9002 
*END

*D_NET *295 0.000357651
*CONN
*I *765:A I *D sky130_fd_sc_hd__clkdlybuf4s50_1
*I *500:Y O *D sky130_fd_sc_hd__nand2_1
*CAP
1 *765:A 0.000165534
2 *500:Y 0.000165534
3 *56:48 *765:A 2.65831e-05
*RES
1 *500:Y *765:A 30.8842 
*END

*D_NET *296 0.000530275
*CONN
*I *764:A I *D sky130_fd_sc_hd__clkdlybuf4s50_1
*I *498:Y O *D sky130_fd_sc_hd__nand2_1
*CAP
1 *764:A 0.000265137
2 *498:Y 0.000265137
*RES
1 *498:Y *764:A 24.2372 
*END

*D_NET *297 0.000206337
*CONN
*I *763:A I *D sky130_fd_sc_hd__clkdlybuf4s50_1
*I *496:Y O *D sky130_fd_sc_hd__nand2_1
*CAP
1 *763:A 8.7313e-05
2 *496:Y 8.7313e-05
3 *56:184 *763:A 3.17114e-05
*RES
1 *496:Y *763:A 29.7455 
*END

*D_NET *298 0.000443842
*CONN
*I *761:A I *D sky130_fd_sc_hd__clkdlybuf4s50_1
*I *494:Y O *D sky130_fd_sc_hd__nand2_1
*CAP
1 *761:A 0.000194263
2 *494:Y 0.000194263
3 *761:A *792:A 7.09666e-06
4 *494:A *761:A 1.31657e-05
5 *56:124 *761:A 3.50534e-05
*RES
1 *494:Y *761:A 31.4388 
*END

*D_NET *299 0.0003239
*CONN
*I *557:A I *D sky130_fd_sc_hd__clkdlybuf4s50_1
*I *492:Y O *D sky130_fd_sc_hd__nand2_1
*CAP
1 *557:A 4.95655e-05
2 *492:Y 4.95655e-05
3 *557:A reg_rsp_o[3] 0.00015321
4 *557:A *799:A 7.15593e-05
*RES
1 *492:Y *557:A 30.1608 
*END

*D_NET *300 0.00109081
*CONN
*I *528:A I *D sky130_fd_sc_hd__clkdlybuf4s50_1
*I *490:Y O *D sky130_fd_sc_hd__nand2_1
*CAP
1 *528:A 0.00031833
2 *490:Y 0.00031833
3 *528:A *441:34 2.15348e-05
4 *490:B *528:A 0.000432613
*RES
1 *490:Y *528:A 27.0103 
*END

*D_NET *301 0.00156859
*CONN
*I *893:A I *D sky130_fd_sc_hd__clkdlybuf4s50_1
*I *556:B I *D sky130_fd_sc_hd__or3b_1
*I *555:Y O *D sky130_fd_sc_hd__nand2_1
*CAP
1 *893:A 0.000315634
2 *556:B 0.000131848
3 *555:Y 0
4 *301:4 0.000447481
5 *556:A *556:B 0.00016386
6 *56:133 *893:A 0.000148136
7 *79:6 *556:B 9.626e-05
8 *79:6 *893:A 3.54295e-05
9 *96:14 *556:B 0.000211546
10 *282:10 *893:A 1.83992e-05
*RES
1 *555:Y *301:4 9.24915 
2 *301:4 *556:B 14.4576 
3 *301:4 *893:A 25.6861 
*END

*D_NET *302 0.000708168
*CONN
*I *894:A I *D sky130_fd_sc_hd__clkdlybuf4s50_1
*I *488:Y O *D sky130_fd_sc_hd__nand2_1
*CAP
1 *894:A 0.000232554
2 *488:Y 0.000232554
3 *894:A reg_rsp_o[20] 7.08532e-05
4 *543:A0 *894:A 0.000153083
5 *56:180 *894:A 1.91246e-05
*RES
1 *488:Y *894:A 33.8207 
*END

*D_NET *303 0.00093373
*CONN
*I *895:A I *D sky130_fd_sc_hd__clkdlybuf4s50_1
*I *679:Y O *D sky130_fd_sc_hd__o21ai_0
*CAP
1 *895:A 0.000352046
2 *679:Y 0.000352046
3 *895:A *796:A 0
4 *895:A *910:A 0
5 *895:A *438:46 0.000125695
6 *56:145 *895:A 0.000103943
*RES
1 *679:Y *895:A 35.4548 
*END

*D_NET *304 0.00799967
*CONN
*I *905:A I *D sky130_fd_sc_hd__clkdlybuf4s50_1
*I *897:A I *D sky130_fd_sc_hd__clkdlybuf4s50_1
*I *896:A I *D sky130_fd_sc_hd__clkdlybuf4s50_1
*I *899:A I *D sky130_fd_sc_hd__clkdlybuf4s50_1
*I *906:A I *D sky130_fd_sc_hd__clkdlybuf4s50_1
*I *485:C1 I *D sky130_fd_sc_hd__a221o_1
*I *908:A I *D sky130_fd_sc_hd__clkdlybuf4s50_1
*I *900:A I *D sky130_fd_sc_hd__clkdlybuf4s50_1
*I *903:A I *D sky130_fd_sc_hd__clkdlybuf4s50_1
*I *486:C1 I *D sky130_fd_sc_hd__a221o_1
*I *898:A I *D sky130_fd_sc_hd__clkdlybuf4s50_1
*I *907:A I *D sky130_fd_sc_hd__clkdlybuf4s50_1
*I *901:A I *D sky130_fd_sc_hd__clkdlybuf4s50_1
*I *902:A I *D sky130_fd_sc_hd__clkdlybuf4s50_1
*I *678:C1 I *D sky130_fd_sc_hd__a221o_1
*I *484:Y O *D sky130_fd_sc_hd__inv_4
*CAP
1 *905:A 0
2 *897:A 0.000192724
3 *896:A 0
4 *899:A 0.000198259
5 *906:A 0.000104537
6 *485:C1 0.000496769
7 *908:A 0
8 *900:A 0
9 *903:A 0
10 *486:C1 0.000320499
11 *898:A 0
12 *907:A 0
13 *901:A 0.000106936
14 *902:A 0
15 *678:C1 0.000267665
16 *484:Y 0.000297762
17 *304:132 0.000198259
18 *304:130 0.000359601
19 *304:103 0.000552984
20 *304:53 0.000265449
21 *304:51 0.000314846
22 *304:49 0.000701525
23 *304:43 0.000366455
24 *304:39 0.000449953
25 *304:37 0.00054789
26 *304:35 0.00042724
27 *304:33 0.000306098
28 *304:31 0.000286049
29 *304:24 0.000316146
30 *485:C1 *913:A 2.61147e-05
31 *486:C1 *912:A 5.56461e-05
32 *304:35 reg_rsp_o[31] 7.20173e-06
33 *304:37 reg_rsp_o[7] 4.19401e-06
34 *304:39 reg_rsp_o[33] 0
35 *304:39 *784:A 0
36 *304:43 reg_rsp_o[26] 0
37 *304:43 reg_rsp_o[6] 1.66771e-05
38 *304:49 reg_rsp_o[6] 4.22847e-05
39 *304:51 intr_gpio_o[0] 0
40 *304:53 intr_gpio_o[0] 0
41 *304:130 reg_rsp_o[25] 2.02035e-05
42 *485:B2 *485:C1 1.18677e-05
43 *486:A2 *486:C1 5.94977e-06
44 *486:B2 *486:C1 5.22859e-06
45 *516:B2 *486:C1 2.87925e-05
46 *518:A *486:C1 0.000224395
47 *781:A *304:53 0
48 *808:A *901:A 5.01303e-05
49 *52:62 *678:C1 0.00030476
50 *54:46 *485:C1 4.94676e-05
51 *54:57 *485:C1 4.48988e-05
52 *56:40 *304:49 0
53 *56:40 *304:51 0
54 *56:40 *304:53 0
55 *185:10 *304:53 0
56 *186:25 *485:C1 2.42133e-05
*RES
1 *484:Y *678:C1 34.3456 
2 *484:Y *304:24 9.97254 
3 *304:24 *902:A 9.24915 
4 *304:24 *304:31 6.82404 
5 *304:31 *304:33 4.5 
6 *304:33 *304:35 3.07775 
7 *304:35 *304:37 3.90826 
8 *304:37 *304:39 6.81502 
9 *304:39 *304:43 7.57775 
10 *304:43 *304:49 9.96496 
11 *304:49 *304:51 3.90826 
12 *304:51 *304:53 3.90826 
13 *304:53 *901:A 16.8269 
14 *304:53 *907:A 13.7491 
15 *304:51 *898:A 13.7491 
16 *304:49 *486:C1 22.1164 
17 *304:43 *903:A 9.24915 
18 *304:39 *900:A 13.7491 
19 *304:37 *304:103 5.778 
20 *304:103 *908:A 9.24915 
21 *304:103 *485:C1 20.8235 
22 *304:35 *906:A 16.1364 
23 *304:33 *304:130 3.90826 
24 *304:130 *304:132 4.5 
25 *304:132 *899:A 13.8548 
26 *304:132 *896:A 9.24915 
27 *304:130 *897:A 18.1049 
28 *304:31 *905:A 9.24915 
*END

*D_NET *312 0.000684552
*CONN
*I *904:A I *D sky130_fd_sc_hd__clkdlybuf4s50_1
*I *518:Y O *D sky130_fd_sc_hd__nand3_1
*CAP
1 *904:A 0.000251302
2 *518:Y 0.000251302
3 *777:A *904:A 2.58616e-05
4 *54:57 *904:A 0.000143878
5 *56:40 *904:A 1.22085e-05
*RES
1 *518:Y *904:A 32.548 
*END

*D_NET *317 0.00103936
*CONN
*I *909:A I *D sky130_fd_sc_hd__clkdlybuf4s50_1
*I *515:Y O *D sky130_fd_sc_hd__nand3_1
*CAP
1 *909:A 0.000253969
2 *515:Y 0.000253969
3 *909:A *747:D 5.04734e-05
4 *909:A *748:RESET_B 0
5 *909:A *331:14 0
6 *909:A *451:10 0
7 *515:B *909:A 0.00048095
*RES
1 *515:Y *909:A 36.3896 
*END

*D_NET *318 0.00213171
*CONN
*I *910:A I *D sky130_fd_sc_hd__clkdlybuf4s50_1
*I *512:Y O *D sky130_fd_sc_hd__nand3_1
*CAP
1 *910:A 0.000740071
2 *512:Y 0.000740071
3 *910:A cio_gpio_en_o[2] 1.28326e-05
4 *910:A cio_gpio_o[2] 0.000123582
5 *910:A reg_rsp_o[8] 4.30017e-06
6 *910:A *702:CLK 3.0291e-05
7 *910:A *796:A 4.90694e-05
8 *910:A *438:46 0
9 *910:A *438:68 0.000158152
10 *672:B1 *910:A 0
11 *702:D *910:A 8.03724e-05
12 *775:A *910:A 0.000143754
13 *895:A *910:A 0
14 *195:10 *910:A 4.92146e-05
*RES
1 *512:Y *910:A 45.4587 
*END

*D_NET *319 0.000255718
*CONN
*I *911:A I *D sky130_fd_sc_hd__clkdlybuf4s50_1
*I *682:Y O *D sky130_fd_sc_hd__nand3_1
*CAP
1 *911:A 9.95638e-05
2 *682:Y 9.95638e-05
3 *682:A *911:A 2.56427e-05
4 *52:10 *911:A 3.0948e-05
*RES
1 *682:Y *911:A 21.3195 
*END

*D_NET *320 0.000197422
*CONN
*I *912:A I *D sky130_fd_sc_hd__clkdlybuf4s50_1
*I *486:X O *D sky130_fd_sc_hd__a221o_1
*CAP
1 *912:A 7.08879e-05
2 *486:X 7.08879e-05
3 *486:C1 *912:A 5.56461e-05
*RES
1 *486:X *912:A 20.7649 
*END

*D_NET *321 0.000217903
*CONN
*I *913:A I *D sky130_fd_sc_hd__clkdlybuf4s50_1
*I *485:X O *D sky130_fd_sc_hd__a221o_1
*CAP
1 *913:A 8.37539e-05
2 *485:X 8.37539e-05
3 *485:A1 *913:A 1.00825e-05
4 *485:C1 *913:A 2.61147e-05
5 *54:46 *913:A 0
6 *54:57 *913:A 1.41976e-05
*RES
1 *485:X *913:A 20.9337 
*END

*D_NET *322 0.000657585
*CONN
*I *914:A I *D sky130_fd_sc_hd__clkdlybuf4s50_1
*I *483:Y O *D sky130_fd_sc_hd__nand2_1
*CAP
1 *914:A 0.000322081
2 *483:Y 0.000322081
3 *914:A cio_gpio_en_o[2] 0
4 *483:B *914:A 1.34231e-05
5 *519:A *914:A 0
6 *75:12 *914:A 0
*RES
1 *483:Y *914:A 34.3456 
*END

*D_NET *323 0.000138247
*CONN
*I *915:A I *D sky130_fd_sc_hd__clkdlybuf4s50_1
*I *678:X O *D sky130_fd_sc_hd__a221o_1
*CAP
1 *915:A 6.38484e-05
2 *678:X 6.38484e-05
3 *678:A2 *915:A 1.05504e-05
*RES
1 *678:X *915:A 20.2103 
*END

*D_NET *438 0.0410773
*CONN
*I *676:A I *D sky130_fd_sc_hd__nand2_1
*I *669:A2 I *D sky130_fd_sc_hd__o21ai_0
*I *536:A2 I *D sky130_fd_sc_hd__o21ai_0
*I *554:A2 I *D sky130_fd_sc_hd__o21ai_0
*I *542:S I *D sky130_fd_sc_hd__mux2_1
*I *553:A I *D sky130_fd_sc_hd__nand2_1
*I *539:S I *D sky130_fd_sc_hd__mux2_1
*I *545:S I *D sky130_fd_sc_hd__mux2_1
*I *533:A2 I *D sky130_fd_sc_hd__o21ai_0
*I *532:A I *D sky130_fd_sc_hd__nand2_1
*I *541:S I *D sky130_fd_sc_hd__mux2_1
*I *535:A I *D sky130_fd_sc_hd__nand2_1
*I *550:A I *D sky130_fd_sc_hd__nand2_1
*I *551:A2 I *D sky130_fd_sc_hd__o21ai_0
*I *668:A I *D sky130_fd_sc_hd__nand2_1
*I *677:A2 I *D sky130_fd_sc_hd__o21ai_0
*I *674:A2 I *D sky130_fd_sc_hd__a21oi_1
*I *673:B I *D sky130_fd_sc_hd__nor2_1
*I *671:B I *D sky130_fd_sc_hd__nor2_1
*I *672:A2 I *D sky130_fd_sc_hd__a21oi_1
*I *529:A I *D sky130_fd_sc_hd__nand2_1
*I *530:A2 I *D sky130_fd_sc_hd__o21ai_0
*I *540:S I *D sky130_fd_sc_hd__mux2_1
*I *547:A I *D sky130_fd_sc_hd__nand2_1
*I *548:A2 I *D sky130_fd_sc_hd__o21ai_0
*I *543:S I *D sky130_fd_sc_hd__mux2_1
*I *537:S I *D sky130_fd_sc_hd__mux2_1
*I *544:S I *D sky130_fd_sc_hd__mux2_1
*I *538:S I *D sky130_fd_sc_hd__mux2_1
*I *675:S I *D sky130_fd_sc_hd__mux2_1
*I *917:X O *D sky130_fd_sc_hd__buf_4
*CAP
1 *676:A 0
2 *669:A2 0.00013041
3 *536:A2 0
4 *554:A2 0
5 *542:S 7.77573e-05
6 *553:A 0
7 *539:S 0
8 *545:S 2.06324e-05
9 *533:A2 5.07641e-05
10 *532:A 0.000133493
11 *541:S 0.000374819
12 *535:A 2.88216e-05
13 *550:A 0
14 *551:A2 0.000205561
15 *668:A 1.31354e-05
16 *677:A2 0.000125973
17 *674:A2 0
18 *673:B 2.1308e-05
19 *671:B 0
20 *672:A2 0
21 *529:A 3.05879e-05
22 *530:A2 0
23 *540:S 0.0003439
24 *547:A 0
25 *548:A2 0
26 *543:S 0
27 *537:S 0
28 *544:S 0
29 *538:S 0.000271781
30 *675:S 0.000190566
31 *917:X 0.000952425
32 *438:355 9.13968e-05
33 *438:310 0.000608441
34 *438:306 0.0017248
35 *438:294 0.00222845
36 *438:282 0.00106092
37 *438:276 0.000652585
38 *438:274 0.000528818
39 *438:261 0.000477411
40 *438:257 0.000348616
41 *438:235 0.000240606
42 *438:231 0.000617912
43 *438:218 0.000511204
44 *438:216 0.000818087
45 *438:201 0.000736657
46 *438:197 0.00065077
47 *438:102 0.00107054
48 *438:100 0.00113579
49 *438:98 0.000630233
50 *438:92 0.000493843
51 *438:86 0.00087526
52 *438:76 0.00141774
53 *438:72 0.00055668
54 *438:68 0.00127749
55 *438:46 0.00121532
56 *438:38 0.000351855
57 *438:34 0.000440514
58 *438:30 0.000512821
59 *438:26 0.00167711
60 *551:A2 *687:CLK 3.61531e-05
61 *668:A *698:CLK 6.27718e-05
62 *438:30 *710:CLK 2.85274e-05
63 *438:68 *702:CLK 7.08716e-05
64 *438:86 *720:CLK 0.000326398
65 *438:86 *930:A 0
66 *438:86 *445:50 0
67 *438:197 *710:CLK 0
68 *438:276 *442:148 0
69 *438:282 *703:CLK 6.92705e-05
70 *438:294 *707:CLK 0.000192267
71 *438:306 *748:CLK 0
72 reg_rsp_o[11] *541:S 0.000341252
73 reg_rsp_o[11] *438:310 0.000111722
74 *464:A2 *438:86 3.30662e-05
75 *464:A2 *438:92 0.000118451
76 *465:A2 *438:86 0.000148129
77 *465:B1 *438:86 0
78 *471:A1 *438:276 1.41431e-05
79 *471:A2 *438:274 0.00034033
80 *471:A2 *438:276 5.03545e-06
81 *471:B1 *542:S 9.55756e-05
82 *471:B1 *438:355 6.27782e-05
83 *489:B *438:102 0
84 *495:B *438:102 0.000286885
85 *497:B *538:S 0.000179775
86 *501:A *438:197 4.13313e-05
87 *503:B *438:86 8.96665e-05
88 *506:A *532:A 0
89 *506:A *541:S 0
90 *506:B *541:S 0.000195605
91 *512:B *438:68 6.3657e-05
92 *512:C *438:68 1.7269e-05
93 *516:A2 *438:274 5.79399e-05
94 *530:A1 *529:A 4.76161e-06
95 *530:A1 *438:68 2.84758e-05
96 *530:A1 *438:72 3.58894e-05
97 *530:A1 *438:76 2.58616e-05
98 *530:B1 *438:72 0.000213449
99 *532:B *532:A 5.03545e-06
100 *533:A1 *533:A2 1.41307e-05
101 *533:A1 *438:310 2.41274e-06
102 *536:A1 *535:A 1.02267e-05
103 *536:A1 *438:257 2.58757e-05
104 *536:A1 *438:261 3.58894e-05
105 *536:A1 *438:274 1.83992e-05
106 *536:B1 *438:261 0.000109421
107 *537:A1 *438:102 7.14746e-05
108 *539:A1 *438:282 1.84293e-05
109 *539:A1 *438:294 1.00937e-05
110 *540:A0 *540:S 5.56461e-05
111 *540:A1 *540:S 0.000118495
112 *541:A1 *541:S 0.000118166
113 *542:A0 *542:S 5.28741e-05
114 *545:A1 *438:306 6.50586e-05
115 *548:A1 *438:98 0
116 *548:B1 *438:92 0.000117307
117 *551:B1 *551:A2 0.000210531
118 *553:B *438:276 0.000182985
119 *553:B *438:282 1.03594e-05
120 *554:B1 *438:274 3.25494e-05
121 *554:B1 *438:276 0.000288688
122 *560:B *438:231 0.000340158
123 *564:A *438:68 1.19705e-05
124 *564:B *438:68 6.12386e-06
125 *565:A2 *438:68 2.8212e-05
126 *565:B1 *438:68 0.000140421
127 *643:B1 *438:197 5.96706e-05
128 *644:A1 *669:A2 2.18935e-05
129 *644:A1 *438:197 0.000379553
130 *644:A1 *438:216 0.000108781
131 *644:A1 *438:218 0
132 *644:A2 *438:197 5.66868e-06
133 *668:B *668:A 6.08467e-05
134 *669:B1 *669:A2 0.000266846
135 *669:B1 *438:218 0.000152123
136 *671:A *438:38 5.3103e-05
137 *671:A *438:46 0.000169041
138 *672:B1 *438:38 1.61631e-05
139 *672:B1 *438:46 0.000223175
140 *672:B1 *438:68 1.03594e-05
141 *674:A1 *438:34 6.50727e-05
142 *674:B1 *438:34 9.95519e-05
143 *675:A0 *438:197 0
144 *676:B *438:197 2.16355e-05
145 *676:B *438:201 9.83649e-06
146 *677:B1 *677:A2 0.00016386
147 *677:B1 *438:201 1.50924e-05
148 *680:B2 *438:197 0.000310079
149 *689:D *438:68 6.27782e-05
150 *690:D *438:216 9.29919e-05
151 *691:RESET_B *438:274 0.00017419
152 *696:RESET_B *438:231 0.000409212
153 *696:RESET_B *438:257 0.000411975
154 *697:D *438:92 1.00937e-05
155 *697:D *438:98 3.14978e-05
156 *697:RESET_B *438:92 0.000215358
157 *697:RESET_B *438:98 1.80257e-05
158 *697:RESET_B *438:100 0
159 *699:D *438:306 0.0002817
160 *700:RESET_B *538:S 9.67676e-05
161 *702:RESET_B *438:68 2.48716e-05
162 *703:D *438:282 0.00010152
163 *704:D *541:S 4.30017e-06
164 *705:D *540:S 0.000239433
165 *705:D *438:86 3.00174e-06
166 *706:RESET_B *438:197 0.000247286
167 *707:D *438:294 0
168 *707:RESET_B *438:282 0
169 *709:RESET_B *538:S 0.000247153
170 *709:RESET_B *438:102 0.000422607
171 *710:D *438:197 0.000127179
172 *710:RESET_B *438:197 0
173 *713:D *438:76 5.12229e-05
174 *713:RESET_B *438:76 0.00020121
175 *714:D *677:A2 1.6732e-05
176 *714:RESET_B *438:197 0
177 *748:RESET_B *438:306 7.35915e-05
178 *755:RESET_B *532:A 0
179 *756:RESET_B *438:68 5.04423e-06
180 *757:RESET_B *669:A2 6.7212e-06
181 *757:RESET_B *438:218 1.30094e-05
182 *757:RESET_B *438:231 0.000243795
183 *766:A *438:197 0
184 *768:A *532:A 0
185 *768:A *541:S 0
186 *773:A *542:S 0.000362872
187 *773:A *438:355 1.88563e-05
188 *806:A *540:S 0
189 *809:A *438:216 1.93606e-05
190 *812:A *540:S 0
191 *895:A *438:46 0.000125695
192 *910:A *438:46 0
193 *910:A *438:68 0.000158152
194 *917:A *438:26 2.64757e-05
195 *53:25 *675:S 0.000144853
196 *54:10 *438:197 0.000337034
197 *54:153 *438:102 0
198 *54:164 *438:100 0.000155226
199 *54:164 *438:102 3.1741e-05
200 *54:183 *438:86 9.99386e-06
201 *54:183 *438:98 2.95656e-05
202 *54:183 *438:100 8.22654e-05
203 *56:139 *675:S 0.000321918
204 *68:10 *669:A2 5.34989e-05
205 *68:10 *438:231 0
206 *68:10 *438:274 2.05237e-05
207 *92:10 *438:294 2.75705e-05
208 *96:121 *438:274 2.41274e-06
209 *96:127 *438:274 0
210 *174:14 *438:216 1.35317e-05
211 *179:12 *438:46 3.44412e-06
212 *179:12 *438:68 2.85637e-05
213 *189:14 *438:306 0.000139764
214 *195:14 *438:68 9.35765e-05
215 *201:22 *438:86 0.000167587
216 *213:24 *438:92 2.77625e-06
217 *213:24 *438:98 0
218 *228:21 *438:274 0.000101133
219 *229:8 *438:76 2.32535e-05
220 *231:25 *438:282 0
221 *234:10 *675:S 0
222 *234:10 *438:26 1.74989e-05
223 *243:10 *438:231 4.03889e-05
224 *243:10 *438:257 3.67528e-06
225 *243:30 *438:257 0.000118987
226 *247:8 *438:306 4.61331e-06
227 *289:20 *438:294 8.04185e-05
228 *324:26 *532:A 9.45416e-05
229 *324:26 *541:S 9.22013e-06
230 *324:26 *438:306 3.77659e-05
231 *324:217 *438:216 0.000166759
232 *324:236 *438:100 0
233 *324:236 *438:102 0
234 *329:12 *540:S 0.000148017
235 *329:12 *438:86 0.000362639
236 *330:14 *669:A2 0.000115934
237 *330:14 *438:197 7.50386e-06
*RES
1 *917:X *675:S 34.0725 
2 *917:X *438:26 20.5341 
3 *438:26 *438:30 5.03966 
4 *438:30 *438:34 5.18434 
5 *438:34 *438:38 6.29355 
6 *438:38 *438:46 10.4043 
7 *438:46 *438:68 29.0278 
8 *438:68 *438:72 4.62973 
9 *438:72 *438:76 15.2063 
10 *438:76 *438:86 22.8944 
11 *438:86 *438:92 6.72758 
12 *438:92 *438:98 11.9047 
13 *438:98 *438:100 9.72179 
14 *438:100 *438:102 23.8404 
15 *438:102 *538:S 23.4709 
16 *438:102 *544:S 13.7491 
17 *438:100 *537:S 13.7491 
18 *438:98 *543:S 13.7491 
19 *438:92 *548:A2 9.24915 
20 *438:86 *547:A 9.24915 
21 *438:76 *540:S 26.6886 
22 *438:72 *530:A2 9.24915 
23 *438:68 *529:A 10.2378 
24 *438:46 *672:A2 13.7491 
25 *438:38 *671:B 9.24915 
26 *438:34 *673:B 9.82786 
27 *438:30 *674:A2 9.24915 
28 *438:26 *438:197 30.657 
29 *438:197 *438:201 1.71204 
30 *438:201 *677:A2 12.7697 
31 *438:201 *438:216 20.1988 
32 *438:216 *438:218 3.90826 
33 *438:218 *668:A 14.4725 
34 *438:218 *438:231 14.1919 
35 *438:231 *438:235 5.2328 
36 *438:235 *551:A2 14.8675 
37 *438:235 *550:A 9.24915 
38 *438:231 *438:257 13.0083 
39 *438:257 *438:261 3.52053 
40 *438:261 *535:A 10.2378 
41 *438:261 *438:274 15.4998 
42 *438:274 *438:276 6.81502 
43 *438:276 *438:282 14.817 
44 *438:282 *438:294 24.3648 
45 *438:294 *438:306 38.9239 
46 *438:306 *438:310 6.88721 
47 *438:310 *541:S 26.4183 
48 *438:310 *532:A 17.6574 
49 *438:306 *533:A2 10.5513 
50 *438:294 *545:S 9.82786 
51 *438:282 *539:S 9.24915 
52 *438:276 *438:355 5.2234 
53 *438:355 *553:A 9.24915 
54 *438:355 *542:S 13.8789 
55 *438:274 *554:A2 13.7491 
56 *438:257 *536:A2 9.24915 
57 *438:216 *669:A2 27.2471 
58 *438:197 *676:A 9.24915 
*END

*D_NET *437 0.0177886
*CONN
*I *734:RESET_B I *D sky130_fd_sc_hd__dfrtp_1
*I *684:RESET_B I *D sky130_fd_sc_hd__dfrtp_1
*I *741:RESET_B I *D sky130_fd_sc_hd__dfrtp_1
*I *686:RESET_B I *D sky130_fd_sc_hd__dfrtp_1
*I *685:RESET_B I *D sky130_fd_sc_hd__dfrtp_1
*I *733:RESET_B I *D sky130_fd_sc_hd__dfrtp_1
*I *735:RESET_B I *D sky130_fd_sc_hd__dfrtp_1
*I *739:RESET_B I *D sky130_fd_sc_hd__dfrtp_1
*I *740:RESET_B I *D sky130_fd_sc_hd__dfrtp_1
*I *742:RESET_B I *D sky130_fd_sc_hd__dfrtp_1
*I *746:RESET_B I *D sky130_fd_sc_hd__dfrtp_1
*I *728:RESET_B I *D sky130_fd_sc_hd__dfrtp_1
*I *727:RESET_B I *D sky130_fd_sc_hd__dfrtp_1
*I *744:RESET_B I *D sky130_fd_sc_hd__dfrtp_1
*I *745:RESET_B I *D sky130_fd_sc_hd__dfrtp_1
*I *726:RESET_B I *D sky130_fd_sc_hd__dfrtp_1
*I *736:RESET_B I *D sky130_fd_sc_hd__dfrtp_1
*I *737:RESET_B I *D sky130_fd_sc_hd__dfrtp_1
*I *738:RESET_B I *D sky130_fd_sc_hd__dfrtp_1
*I *743:RESET_B I *D sky130_fd_sc_hd__dfrtp_1
*I *916:X O *D sky130_fd_sc_hd__buf_4
*CAP
1 *734:RESET_B 0.000319382
2 *684:RESET_B 0.000282596
3 *741:RESET_B 0.000378773
4 *686:RESET_B 0.000259963
5 *685:RESET_B 0.000291133
6 *733:RESET_B 6.36113e-05
7 *735:RESET_B 0.000319382
8 *739:RESET_B 0
9 *740:RESET_B 0.000126367
10 *742:RESET_B 0.000177832
11 *746:RESET_B 7.82187e-05
12 *728:RESET_B 0.00045399
13 *727:RESET_B 0.000337037
14 *744:RESET_B 0
15 *745:RESET_B 0.000913119
16 *726:RESET_B 0.000393577
17 *736:RESET_B 0.000255322
18 *737:RESET_B 0
19 *738:RESET_B 0
20 *743:RESET_B 0.000286674
21 *916:X 0.000247934
22 *437:204 0.000753483
23 *437:115 0.000283908
24 *437:113 0.000504324
25 *437:111 0.000372886
26 *437:109 0.000405928
27 *437:107 0.000629075
28 *437:105 0.000647285
29 *437:60 0.00103316
30 *437:38 0.000267364
31 *437:31 0.000378481
32 *437:24 0.000468425
33 *437:8 0.000572322
34 *684:RESET_B *441:70 0
35 *685:RESET_B *726:CLK 8.43687e-05
36 *686:RESET_B *439:192 0
37 *728:RESET_B *728:CLK 0.000148799
38 *734:RESET_B *734:CLK 0.000101875
39 *734:RESET_B *444:70 4.83375e-05
40 *741:RESET_B *441:16 4.33057e-05
41 *741:RESET_B *441:28 4.13771e-05
42 *437:31 *732:CLK 1.18802e-05
43 *437:105 *444:10 9.15567e-05
44 *437:113 *744:CLK 6.28182e-05
45 *437:113 *441:8 0
46 *437:115 *744:CLK 1.44467e-05
47 *437:204 *441:16 9.78647e-05
48 *453:A *684:RESET_B 0.000123582
49 *454:B *684:RESET_B 8.90231e-05
50 *455:A2 *684:RESET_B 6.34773e-05
51 *455:B1 *684:RESET_B 8.36429e-06
52 *513:B2 *745:RESET_B 0.000191609
53 *559:A1 *727:RESET_B 7.06774e-05
54 *559:B1 *726:RESET_B 0.00018922
55 *570:A *437:31 0
56 *573:A *437:31 0.000122098
57 *575:B *437:109 0
58 *577:B *437:109 0
59 *578:B *726:RESET_B 3.15001e-05
60 *579:A *437:109 0
61 *581:A1 *726:RESET_B 0.000146652
62 *581:A1 *437:31 0.000101133
63 *581:A1 *437:38 0.000257026
64 *618:A *743:RESET_B 1.50924e-05
65 *618:A *437:8 6.49694e-05
66 *618:C *743:RESET_B 6.27332e-05
67 *618:C *745:RESET_B 0
68 *621:A *745:RESET_B 0
69 *622:A2 *745:RESET_B 8.76063e-05
70 *623:A *740:RESET_B 0.000171273
71 *623:B *742:RESET_B 1.53125e-05
72 *623:B *437:115 5.53934e-05
73 *624:A *740:RESET_B 1.21461e-06
74 *624:A *437:115 0.000148114
75 *632:B *745:RESET_B 3.1218e-05
76 *634:A1 *745:RESET_B 0.000122068
77 *639:A *686:RESET_B 7.49476e-05
78 *651:B *745:RESET_B 0
79 *654:A *437:107 1.77537e-06
80 *654:A *437:109 6.79889e-05
81 *655:B *437:107 0
82 *655:C *437:107 6.93349e-05
83 *688:D *745:RESET_B 5.302e-05
84 *693:D *726:RESET_B 0
85 *693:D *727:RESET_B 1.59362e-06
86 *733:D *734:RESET_B 0.00011879
87 *738:D *437:111 0
88 *739:D *734:RESET_B 0
89 *739:D *437:109 0
90 *739:D *437:111 0
91 *743:D *437:115 0
92 *745:D *745:RESET_B 0
93 *746:D *746:RESET_B 0
94 *746:D *437:115 0
95 *767:A *685:RESET_B 3.00829e-05
96 *916:A *437:8 2.58616e-05
97 *33:10 *684:RESET_B 6.50088e-05
98 *52:25 *686:RESET_B 1.43848e-05
99 *54:105 *745:RESET_B 5.77079e-05
100 *54:134 *740:RESET_B 0.00031607
101 *54:134 *746:RESET_B 5.53934e-05
102 *54:134 *437:113 4.3116e-06
103 *54:134 *437:115 4.99935e-05
104 *54:183 *685:RESET_B 0.000163192
105 *56:166 *685:RESET_B 9.81288e-06
106 *56:166 *728:RESET_B 0.000415408
107 *56:180 *685:RESET_B 0.000252434
108 *142:18 *743:RESET_B 0.000100995
109 *142:18 *745:RESET_B 0
110 *142:18 *437:60 5.52256e-05
111 *172:12 *686:RESET_B 5.82321e-05
112 *189:14 *745:RESET_B 5.10726e-05
113 *192:20 *685:RESET_B 5.89072e-05
114 *192:20 *437:107 8.62474e-06
115 *197:22 *437:31 5.07209e-06
116 *348:10 *743:RESET_B 0.000261128
117 *348:10 *437:24 8.36586e-06
118 *348:16 *745:RESET_B 0
119 *348:16 *437:60 0
120 *353:10 *740:RESET_B 6.12255e-05
121 *355:10 *684:RESET_B 4.77834e-05
122 *360:21 *726:RESET_B 2.09356e-05
123 *360:21 *437:31 6.17194e-05
124 *360:21 *437:38 0.00011488
125 *360:23 *437:31 4.40222e-05
126 *362:12 *437:31 8.70105e-05
127 *363:10 *437:111 0
128 *365:12 *733:RESET_B 9.53368e-05
129 *365:12 *437:109 0
130 *367:8 *685:RESET_B 2.41164e-05
131 *377:10 *728:RESET_B 6.25524e-05
132 *377:19 *686:RESET_B 2.65732e-05
133 *377:19 *728:RESET_B 0.000118398
134 *379:12 *686:RESET_B 0.000151741
135 *384:78 *437:31 0
*RES
1 *916:X *437:8 14.9881 
2 *437:8 *743:RESET_B 6.78787 
3 *437:8 *437:24 8.31055 
4 *437:24 *738:RESET_B 4.5 
5 *437:24 *437:31 9.30653 
6 *437:31 *737:RESET_B 4.5 
7 *437:31 *437:38 4.32351 
8 *437:38 *736:RESET_B 4.5 
9 *437:38 *726:RESET_B 11.315 
10 *743:RESET_B *437:60 7.38625 
11 *437:60 *745:RESET_B 29.1709 
12 *437:60 *744:RESET_B 4.5 
13 *736:RESET_B *727:RESET_B 15.2139 
14 *726:RESET_B *728:RESET_B 8.31905 
15 *727:RESET_B *437:105 6.80281 
16 *437:105 *437:107 6.39977 
17 *437:107 *437:109 7.23027 
18 *437:109 *437:111 2.24725 
19 *437:111 *437:113 6.81502 
20 *437:113 *437:115 4.73876 
21 *437:115 *746:RESET_B 6.74725 
22 *437:115 *742:RESET_B 6.24821 
23 *437:113 *740:RESET_B 9.57583 
24 *437:111 *739:RESET_B 4.5 
25 *437:109 *735:RESET_B 4.5 
26 *437:107 *733:RESET_B 6.80281 
27 *437:105 *685:RESET_B 23.2632 
28 *728:RESET_B *686:RESET_B 16.8412 
29 *742:RESET_B *437:204 2.88153 
30 *437:204 *741:RESET_B 6.37794 
31 *437:204 *684:RESET_B 17.476 
32 *735:RESET_B *734:RESET_B 16.1851 
*END

*D_NET *448 0.00067704
*CONN
*I *782:A I *D sky130_fd_sc_hd__clkdlybuf4s50_1
*I *933:X O *D sky130_fd_sc_hd__dlygate4sd3_1
*CAP
1 *782:A 0.000201944
2 *933:X 0.000201944
3 *325:10 *782:A 0.000273152
*RES
1 *933:X *782:A 33.1026 
*END

*D_NET *449 0.00140606
*CONN
*I *724:RESET_B I *D sky130_fd_sc_hd__dfrtp_1
*I *722:RESET_B I *D sky130_fd_sc_hd__dfrtp_1
*I *934:X O *D sky130_fd_sc_hd__dlygate4sd3_1
*CAP
1 *724:RESET_B 8.36628e-05
2 *722:RESET_B 0.000291122
3 *934:X 0.000236154
4 *449:8 0.000610939
5 *467:B1 *449:8 4.47179e-05
6 *722:D *722:RESET_B 7.45415e-05
7 *724:D *724:RESET_B 0
8 *724:CLK *722:RESET_B 6.49213e-05
9 *247:25 *722:RESET_B 0
*RES
1 *934:X *449:8 17.2456 
2 *449:8 *722:RESET_B 13.0249 
3 *449:8 *724:RESET_B 6.332 
*END

*D_NET *450 0.00069282
*CONN
*I *814:A I *D sky130_fd_sc_hd__clkdlybuf4s50_1
*I *935:X O *D sky130_fd_sc_hd__dlygate4sd3_1
*CAP
1 *814:A 0.000280398
2 *935:X 0.000280398
3 reg_rsp_o[15] *814:A 0
4 *798:A *814:A 0.000124157
5 *803:A *814:A 7.86825e-06
*RES
1 *935:X *814:A 32.6874 
*END

*D_NET *451 0.00378116
*CONN
*I *815:A I *D sky130_fd_sc_hd__clkdlybuf4s50_1
*I *936:X O *D sky130_fd_sc_hd__dlygate4sd3_1
*CAP
1 *815:A 0.000199191
2 *936:X 0.000825724
3 *451:10 0.00102491
4 *513:A2 *451:10 0.000122068
5 *513:B1 *451:10 0.000378273
6 *515:A *451:10 0.000532836
7 *515:B *451:10 0
8 *515:C *451:10 3.74918e-05
9 *688:RESET_B *451:10 4.12533e-05
10 *776:A *451:10 0.000312496
11 *909:A *451:10 0
12 *189:14 *815:A 2.84892e-05
13 *189:14 *451:10 6.77565e-05
14 *239:10 *451:10 6.93171e-05
15 *350:10 *451:10 0.000141345
*RES
1 *936:X *451:10 47.4878 
2 *451:10 *815:A 13.8548 
*END

*D_NET *452 0.000860405
*CONN
*I *813:A I *D sky130_fd_sc_hd__clkdlybuf4s50_1
*I *937:X O *D sky130_fd_sc_hd__dlygate4sd3_1
*CAP
1 *813:A 0.000379395
2 *937:X 0.000379395
3 reg_rsp_o[16] *813:A 2.86353e-06
4 *802:A *813:A 6.85852e-05
5 *810:A *813:A 0
6 *937:A *813:A 3.01656e-05
7 *56:182 *813:A 0
*RES
1 *937:X *813:A 35.4548 
*END

*D_NET *228 0.00170996
*CONN
*I *516:B1 I *D sky130_fd_sc_hd__a22oi_1
*I *471:A2 I *D sky130_fd_sc_hd__a21oi_1
*I *535:B I *D sky130_fd_sc_hd__nand2_1
*I *711:Q O *D sky130_fd_sc_hd__dfrtp_1
*CAP
1 *516:B1 0
2 *471:A2 0.00021729
3 *535:B 7.57297e-05
4 *711:Q 0
5 *228:21 0.000372512
6 *228:4 0.000230952
7 *471:A2 *718:RESET_B 0
8 *471:A2 *438:274 0.00034033
9 *471:A2 *438:276 5.03545e-06
10 *471:A2 *442:148 3.00174e-06
11 *228:21 *438:274 0.000101133
12 *473:A2 *471:A2 1.08664e-05
13 *518:A *228:21 0.000113968
14 *711:D *535:B 3.2648e-05
15 *718:D *471:A2 0
16 *68:10 *535:B 0.000139428
17 *68:10 *228:21 3.49128e-05
18 *68:20 *471:A2 2.69064e-05
19 *68:20 *228:21 5.2504e-06
*RES
1 *711:Q *228:4 9.24915 
2 *228:4 *535:B 20.9116 
3 *228:4 *228:21 8.1646 
4 *228:21 *471:A2 21.0527 
5 *228:21 *516:B1 13.7491 
*END

*D_NET *229 0.00271149
*CONN
*I *540:A1 I *D sky130_fd_sc_hd__mux2_1
*I *463:B1 I *D sky130_fd_sc_hd__a21oi_1
*I *503:B I *D sky130_fd_sc_hd__nand2_1
*I *705:Q O *D sky130_fd_sc_hd__dfrtp_1
*CAP
1 *540:A1 0.000245778
2 *463:B1 3.9025e-05
3 *503:B 0.000168583
4 *705:Q 0.000184053
5 *229:10 0.00039517
6 *229:8 0.000617393
7 *503:B *720:CLK 6.92705e-05
8 *503:B *329:12 8.62625e-06
9 *503:B *438:86 8.96665e-05
10 *540:A1 reg_rsp_o[12] 0
11 *540:A1 *540:S 0.000118495
12 *540:A1 *767:A 0
13 *540:A1 *329:12 2.32865e-05
14 *229:8 *713:RESET_B 0.000151939
15 *229:8 *438:76 2.32535e-05
16 *229:10 *329:12 0.0001905
17 *720:D *503:B 2.65667e-05
18 *54:183 *503:B 8.62625e-06
19 *192:20 *503:B 5.68831e-05
20 *192:20 *540:A1 0.00010566
21 *192:20 *229:10 0.000188716
*RES
1 *705:Q *229:8 16.691 
2 *229:8 *229:10 7.64553 
3 *229:10 *503:B 19.1136 
4 *229:10 *463:B1 14.4819 
5 *229:8 *540:A1 21.8099 
*END

*D_NET *230 0.0015481
*CONN
*I *501:A I *D sky130_fd_sc_hd__inv_1
*I *643:B1 I *D sky130_fd_sc_hd__a21oi_1
*I *706:Q O *D sky130_fd_sc_hd__dfrtp_1
*CAP
1 *501:A 9.01653e-05
2 *643:B1 0.000168902
3 *706:Q 0.000285663
4 *230:8 0.00054473
5 *501:A *710:RESET_B 3.94515e-05
6 *501:A *438:197 4.13313e-05
7 *643:B1 *643:A2 6.27718e-05
8 *643:B1 *710:RESET_B 1.37421e-05
9 *643:B1 *241:16 1.88563e-05
10 *643:B1 *438:197 5.96706e-05
11 *556:C_N *230:8 5.04829e-06
12 *645:A2 *643:B1 2.59855e-05
13 *53:25 *501:A 3.20544e-05
14 *54:10 *643:B1 0.000148136
15 *56:139 *501:A 1.15863e-05
*RES
1 *706:Q *230:8 17.8002 
2 *230:8 *643:B1 19.7659 
3 *230:8 *501:A 16.3762 
*END

*D_NET *231 0.00245364
*CONN
*I *472:B1 I *D sky130_fd_sc_hd__a211oi_1
*I *539:A1 I *D sky130_fd_sc_hd__mux2_1
*I *499:B I *D sky130_fd_sc_hd__nand2_1
*I *707:Q O *D sky130_fd_sc_hd__dfrtp_1
*CAP
1 *472:B1 0.000136746
2 *539:A1 7.76168e-05
3 *499:B 0.000310942
4 *707:Q 0.000186026
5 *231:25 0.000397544
6 *231:6 0.000680148
7 *472:B1 *703:CLK 0
8 *499:B *539:A0 0.000247216
9 *539:A1 *438:282 1.84293e-05
10 *539:A1 *438:294 1.00937e-05
11 *231:6 *707:RESET_B 3.18172e-05
12 *231:25 *539:A0 0
13 *231:25 *703:CLK 0
14 *231:25 *438:282 0
15 *473:B1 *472:B1 6.84737e-05
16 *500:A *499:B 5.41227e-05
17 *707:D *499:B 3.61346e-05
18 *92:10 *472:B1 0
19 *210:23 *472:B1 0.000198334
*RES
1 *707:Q *231:6 12.191 
2 *231:6 *499:B 25.5145 
3 *231:6 *231:25 8.7258 
4 *231:25 *539:A1 15.0271 
5 *231:25 *472:B1 18.4879 
*END

*D_NET *232 0.00426075
*CONN
*I *497:B I *D sky130_fd_sc_hd__nand2_1
*I *538:A1 I *D sky130_fd_sc_hd__mux2_1
*I *468:B1 I *D sky130_fd_sc_hd__a211oi_1
*I *708:Q O *D sky130_fd_sc_hd__dfrtp_1
*CAP
1 *497:B 0.000170546
2 *538:A1 0
3 *468:B1 0.000961663
4 *708:Q 0.00153381
5 *232:28 0.000742689
6 *468:B1 *724:CLK 9.82296e-05
7 *468:B1 *331:12 0.000207266
8 *497:B *538:S 0.000179775
9 *497:B *700:RESET_B 0
10 *232:28 *700:RESET_B 0
11 *232:28 *708:RESET_B 0.000160561
12 *232:28 *708:CLK 4.26431e-05
13 *498:A *497:B 6.46815e-05
14 *708:D *232:28 2.99929e-05
15 *724:D *468:B1 3.99086e-06
16 *54:111 *468:B1 6.49003e-05
*RES
1 *708:Q *468:B1 42.3943 
2 *708:Q *232:28 23.0991 
3 *232:28 *538:A1 13.7491 
4 *232:28 *497:B 19.3748 
*END

*D_NET *233 0.00532462
*CONN
*I *537:A1 I *D sky130_fd_sc_hd__mux2_1
*I *495:B I *D sky130_fd_sc_hd__nand2_1
*I *464:B1 I *D sky130_fd_sc_hd__a211oi_1
*I *709:Q O *D sky130_fd_sc_hd__dfrtp_1
*CAP
1 *537:A1 8.33894e-05
2 *495:B 0.000201264
3 *464:B1 0.000668238
4 *709:Q 0.00116478
5 *233:28 0.000781192
6 *464:B1 *460:B 0.000197954
7 *464:B1 *464:A1 7.86847e-05
8 *464:B1 *656:A 4.49959e-05
9 *464:B1 *733:D 0.000196638
10 *464:B1 *444:76 2.71542e-05
11 *464:B1 *444:89 2.5386e-05
12 *464:B1 *445:22 6.80196e-05
13 *464:B1 *445:35 1.22397e-05
14 *495:B *709:RESET_B 7.28994e-06
15 *495:B *438:102 0.000286885
16 *537:A1 *438:102 7.14746e-05
17 *537:A1 *444:97 2.16355e-05
18 *233:28 *709:RESET_B 0.00010364
19 *461:A2 *464:B1 0.000218503
20 *461:B1 *464:B1 0.000111703
21 *495:A *495:B 6.27782e-05
22 *496:A *495:B 4.03096e-05
23 *37:10 *464:B1 0.000346563
24 *54:153 *495:B 4.76794e-05
25 *54:164 *495:B 0.000270181
26 *54:164 *537:A1 6.43474e-05
27 *201:22 *464:B1 6.08467e-05
28 *213:24 *464:B1 6.08467e-05
*RES
1 *709:Q *464:B1 49.7449 
2 *709:Q *233:28 21.1278 
3 *233:28 *495:B 21.8691 
4 *233:28 *537:A1 15.8893 
*END

*D_NET *234 0.00315532
*CONN
*I *675:A1 I *D sky130_fd_sc_hd__mux2_1
*I *493:B I *D sky130_fd_sc_hd__nand2_1
*I *644:B1 I *D sky130_fd_sc_hd__a211oi_1
*I *710:Q O *D sky130_fd_sc_hd__dfrtp_1
*CAP
1 *675:A1 0
2 *493:B 0.000405837
3 *644:B1 0.000306765
4 *710:Q 0.000351159
5 *234:14 0.00100126
6 *234:10 0.000639816
7 *493:B intr_gpio_o[3] 1.05313e-05
8 *644:B1 *241:16 2.37478e-05
9 *234:10 *675:A0 0
10 *234:10 *675:S 0
11 *234:10 *438:26 1.74989e-05
12 *556:C_N *234:14 0.000337204
13 *643:A1 *644:B1 4.75721e-06
14 *52:21 *234:14 3.65454e-05
15 *96:14 *493:B 2.02035e-05
*RES
1 *710:Q *234:10 20.184 
2 *234:10 *234:14 12.0524 
3 *234:14 *644:B1 18.0819 
4 *234:14 *493:B 18.3113 
5 *234:10 *675:A1 13.7491 
*END

*D_NET *235 0.0039204
*CONN
*I *458:A1 I *D sky130_fd_sc_hd__o21ai_1
*I *491:B I *D sky130_fd_sc_hd__nand2_1
*I *545:A1 I *D sky130_fd_sc_hd__mux2_1
*I *457:A I *D sky130_fd_sc_hd__nand2_1
*I *699:Q O *D sky130_fd_sc_hd__dfrtp_1
*CAP
1 *458:A1 0
2 *491:B 0.000188579
3 *545:A1 0.000135863
4 *457:A 3.14982e-05
5 *699:Q 0.000396165
6 *235:29 0.000386993
7 *235:27 0.000238887
8 *235:10 0.000604
9 *457:A *343:12 3.00174e-06
10 *457:A *442:22 2.1667e-05
11 *457:A *442:24 3.55179e-05
12 *491:B *683:RESET_B 9.12603e-05
13 *491:B *747:CLK 6.21456e-05
14 *491:B *442:47 4.82966e-05
15 *545:A1 *707:CLK 0
16 *545:A1 *289:20 8.62625e-06
17 *545:A1 *438:306 6.50586e-05
18 *235:10 *324:85 6.88853e-05
19 *235:10 *384:48 7.91801e-06
20 *235:10 *442:22 0.000271269
21 *235:27 *699:RESET_B 0.000107496
22 *235:27 *289:20 5.23435e-05
23 *235:27 *442:41 2.39189e-05
24 *235:29 *289:20 0.000192182
25 *458:A2 *235:27 6.08467e-05
26 *458:B1 *235:27 0.000211546
27 *491:A *491:B 7.82817e-05
28 *492:A *491:B 2.16355e-05
29 *587:B1 *235:10 0.000141811
30 *699:D *545:A1 0.000123582
31 *699:D *235:27 4.53418e-05
32 *699:D *235:29 0.000183556
33 *54:82 *545:A1 0
34 *119:12 *235:10 1.22289e-05
*RES
1 *699:Q *235:10 22.9542 
2 *235:10 *457:A 14.7506 
3 *235:10 *235:27 14.6071 
4 *235:27 *235:29 3.493 
5 *235:29 *545:A1 17.5503 
6 *235:29 *491:B 20.0427 
7 *235:27 *458:A1 13.7491 
*END

*D_NET *236 0.00357584
*CONN
*I *454:A I *D sky130_fd_sc_hd__nand2_1
*I *544:A1 I *D sky130_fd_sc_hd__mux2_1
*I *489:B I *D sky130_fd_sc_hd__nand2_1
*I *455:A1 I *D sky130_fd_sc_hd__o21ai_1
*I *700:Q O *D sky130_fd_sc_hd__dfrtp_1
*CAP
1 *454:A 0.00029215
2 *544:A1 0.000158304
3 *489:B 0.000252197
4 *455:A1 0.000506195
5 *700:Q 9.51043e-05
6 *236:29 0.000523944
7 *236:27 0.000508934
8 *236:8 0.000704639
9 *454:A *453:A 2.85677e-05
10 *454:A *454:B 6.27718e-05
11 *454:A *441:70 4.80635e-06
12 *455:A1 *700:RESET_B 0
13 *489:B *438:102 0
14 *455:A2 *455:A1 3.25584e-05
15 *455:B1 *454:A 2.16355e-05
16 *497:A *455:A1 8.77139e-05
17 *497:A *489:B 0.000187748
18 *497:A *236:27 7.21449e-05
19 *33:10 *454:A 3.64243e-05
*RES
1 *700:Q *236:8 15.5817 
2 *236:8 *455:A1 26.4888 
3 *236:8 *236:27 7.57775 
4 *236:27 *236:29 2.38721 
5 *236:29 *489:B 25.4794 
6 *236:29 *544:A1 12.7697 
7 *236:27 *454:A 16.6519 
*END

*D_NET *237 0.00524506
*CONN
*I *460:A I *D sky130_fd_sc_hd__nand2_1
*I *543:A1 I *D sky130_fd_sc_hd__mux2_1
*I *461:A1 I *D sky130_fd_sc_hd__o21ai_1
*I *487:B I *D sky130_fd_sc_hd__nand2_1
*I *701:Q O *D sky130_fd_sc_hd__dfrtp_1
*CAP
1 *460:A 0.000478935
2 *543:A1 0.000327356
3 *461:A1 0
4 *487:B 0.000445656
5 *701:Q 0.000200923
6 *237:36 0.000953724
7 *237:16 0.000445656
8 *237:14 0.000348357
9 *460:A *464:A2 4.86061e-05
10 *460:A *244:10 0.000132607
11 *460:A *445:73 9.04668e-05
12 *487:B *546:A 0.000200699
13 *543:A1 *685:CLK 4.66118e-05
14 *461:B1 *460:A 0.000237908
15 *488:A *487:B 2.58757e-05
16 *559:A1 *487:B 5.5577e-05
17 *685:D *487:B 0.000114584
18 *685:D *543:A1 8.03393e-06
19 *685:D *237:14 8.62219e-05
20 *685:D *237:36 8.51945e-05
21 *54:183 *543:A1 0.000570328
22 *90:6 *487:B 1.24274e-05
23 *201:22 *460:A 0.000152131
24 *201:22 *487:B 0
25 *201:22 *237:14 9.26984e-06
26 *201:22 *237:36 0.000139223
27 *213:24 *543:A1 2.8688e-05
*RES
1 *701:Q *237:14 18.1782 
2 *237:14 *237:16 4.5 
3 *237:16 *487:B 20.1724 
4 *237:16 *461:A1 9.24915 
5 *237:14 *237:36 4.73876 
6 *237:36 *543:A1 22.7544 
7 *237:36 *460:A 27.0331 
*END

*D_NET *238 0.00157323
*CONN
*I *641:A1 I *D sky130_fd_sc_hd__o21ai_1
*I *640:A I *D sky130_fd_sc_hd__nand2_1
*I *670:A I *D sky130_fd_sc_hd__inv_1
*I *702:Q O *D sky130_fd_sc_hd__dfrtp_1
*CAP
1 *641:A1 6.66142e-06
2 *640:A 0
3 *670:A 4.36481e-05
4 *702:Q 0.000180111
5 *238:25 0.000298611
6 *238:12 0.000515708
7 *670:A *447:94 0.000125836
8 *238:12 *721:CLK 2.86829e-05
9 *238:12 *447:94 0.000209636
10 *238:25 *639:A 0
11 *238:25 *721:CLK 0
12 *641:A2 *238:25 2.99929e-05
13 *641:B1 *641:A1 6.50727e-05
14 *661:A1 *641:A1 6.92705e-05
*RES
1 *702:Q *238:12 23.2989 
2 *238:12 *670:A 10.6779 
3 *238:12 *238:25 15.815 
4 *238:25 *640:A 9.24915 
5 *238:25 *641:A1 9.97254 
*END

*D_NET *239 0.00472963
*CONN
*I *513:B1 I *D sky130_fd_sc_hd__a22oi_1
*I *467:A2 I *D sky130_fd_sc_hd__a21oi_1
*I *532:B I *D sky130_fd_sc_hd__nand2_1
*I *712:Q O *D sky130_fd_sc_hd__dfrtp_1
*CAP
1 *513:B1 0.000319053
2 *467:A2 0
3 *532:B 0.000150668
4 *712:Q 0.00020052
5 *239:18 0.000964808
6 *239:10 0.00133371
7 *513:B1 *513:A2 1.81485e-05
8 *513:B1 *688:RESET_B 4.30017e-06
9 *513:B1 *749:CLK 0
10 *513:B1 *331:14 0
11 *513:B1 *350:10 0.000122083
12 *513:B1 *451:10 0.000378273
13 *532:B *532:A 5.03545e-06
14 *239:10 *699:RESET_B 7.56374e-05
15 *239:10 *451:10 6.93171e-05
16 *239:18 *468:A2 0.000704562
17 *467:A1 *532:B 2.58757e-05
18 *467:A1 *239:18 2.30636e-05
19 *469:A2 *532:B 2.58757e-05
20 *469:A2 *239:18 8.15566e-05
21 *505:A *532:B 9.3134e-05
22 *514:B *513:B1 2.87136e-06
23 *515:C *513:B1 8.36586e-06
24 *515:C *239:10 6.93171e-05
25 *68:20 *513:B1 5.5525e-06
26 *194:10 *513:B1 4.79049e-05
*RES
1 *712:Q *239:10 17.5531 
2 *239:10 *239:18 20.1012 
3 *239:18 *532:B 22.8808 
4 *239:18 *467:A2 9.24915 
5 *239:10 *513:B1 23.8007 
*END

*D_NET *240 0.00273484
*CONN
*I *510:B1 I *D sky130_fd_sc_hd__a22oi_1
*I *463:A2 I *D sky130_fd_sc_hd__a21oi_1
*I *529:B I *D sky130_fd_sc_hd__nand2_1
*I *713:Q O *D sky130_fd_sc_hd__dfrtp_1
*CAP
1 *510:B1 0
2 *463:A2 0.000348899
3 *529:B 0.000164818
4 *713:Q 0.000121447
5 *240:25 0.000576144
6 *240:10 0.000513511
7 *463:A2 *481:B1 0.000366474
8 *240:10 *756:RESET_B 2.40915e-05
9 *240:25 *384:102 0
10 *481:B2 *463:A2 9.55447e-05
11 *510:A1 *240:25 8.62625e-06
12 *689:D *240:25 0.000121494
13 *54:200 *463:A2 0.000164829
14 *69:18 *240:25 0.00011231
15 *75:12 *240:10 0.000116652
*RES
1 *713:Q *240:10 17.3521 
2 *240:10 *529:B 16.9612 
3 *240:10 *240:25 10.6921 
4 *240:25 *463:A2 21.0646 
5 *240:25 *510:B1 9.24915 
*END

*D_NET *241 0.00232738
*CONN
*I *643:A2 I *D sky130_fd_sc_hd__a21oi_1
*I *680:B1 I *D sky130_fd_sc_hd__a22oi_1
*I *676:B I *D sky130_fd_sc_hd__nand2_1
*I *714:Q O *D sky130_fd_sc_hd__dfrtp_1
*CAP
1 *643:A2 0.000143762
2 *680:B1 5.96006e-05
3 *676:B 0.00026909
4 *714:Q 0
5 *241:16 0.000635586
6 *241:4 0.000450658
7 *676:B *438:197 2.16355e-05
8 *676:B *438:201 9.83649e-06
9 *241:16 *644:A2 0.000144531
10 *241:16 *330:14 0.000118485
11 *643:A1 *241:16 2.90622e-05
12 *643:B1 *643:A2 6.27718e-05
13 *643:B1 *241:16 1.88563e-05
14 *644:B1 *241:16 2.37478e-05
15 *645:A2 *241:16 3.69562e-05
16 *677:B1 *676:B 1.83992e-05
17 *680:B2 *676:B 6.08467e-05
18 *680:B2 *241:16 7.77309e-06
19 *52:21 *241:16 0
20 *54:10 *241:16 0.00015609
21 *68:61 *241:16 5.96936e-05
*RES
1 *714:Q *241:4 9.24915 
2 *241:4 *241:16 18.688 
3 *241:16 *676:B 13.7342 
4 *241:16 *680:B1 10.5513 
5 *241:4 *643:A2 12.7938 
*END

*D_NET *242 0.00372104
*CONN
*I *486:A1 I *D sky130_fd_sc_hd__a221o_1
*I *553:B I *D sky130_fd_sc_hd__nand2_1
*I *472:A2 I *D sky130_fd_sc_hd__a211oi_1
*I *695:Q O *D sky130_fd_sc_hd__dfrtp_1
*CAP
1 *486:A1 0.000296755
2 *553:B 8.96877e-05
3 *472:A2 0.00035771
4 *695:Q 0
5 *242:6 0.000760158
6 *242:4 0.000609515
7 *472:A2 *472:A1 4.82162e-05
8 *472:A2 *243:30 6.27718e-05
9 *472:A2 *327:12 1.02769e-05
10 *553:B *703:CLK 4.90905e-05
11 *553:B *438:276 0.000182985
12 *553:B *438:282 1.03594e-05
13 *553:B *442:148 3.44412e-06
14 *486:B1 *486:A1 9.60366e-05
15 *514:A *472:A2 7.35e-05
16 *695:D *472:A2 5.04829e-06
17 *695:D *242:6 5.90501e-05
18 *718:D *472:A2 4.95892e-05
19 *52:76 *472:A2 7.66391e-06
20 *52:76 *486:A1 0.000108794
21 *52:76 *242:6 0.000174891
22 *54:59 *486:A1 2.4562e-05
23 *54:61 *486:A1 0.000528572
24 *210:23 *472:A2 0.000112367
*RES
1 *695:Q *242:4 9.24915 
2 *242:4 *242:6 9.04245 
3 *242:6 *472:A2 18.3639 
4 *242:6 *553:B 21.7421 
5 *242:4 *486:A1 29.8035 
*END

*D_NET *243 0.0120726
*CONN
*I *485:A1 I *D sky130_fd_sc_hd__a221o_1
*I *550:B I *D sky130_fd_sc_hd__nand2_1
*I *468:A2 I *D sky130_fd_sc_hd__a211oi_1
*I *696:Q O *D sky130_fd_sc_hd__dfrtp_1
*CAP
1 *485:A1 0.000624472
2 *550:B 0
3 *468:A2 0.000983232
4 *696:Q 0
5 *243:30 0.00279012
6 *243:10 0.00257143
7 *243:4 0.00138902
8 *468:A2 *588:B 1.88563e-05
9 *468:A2 *324:54 7.28994e-06
10 *485:A1 *913:A 1.00825e-05
11 *485:A1 *384:142 0
12 *243:10 *438:231 4.03889e-05
13 *243:10 *438:257 3.67528e-06
14 *243:10 *439:148 0
15 *243:30 *588:B 2.53191e-05
16 *243:30 *648:A 1.03403e-05
17 *243:30 *696:RESET_B 0
18 *243:30 *711:RESET_B 0.000304998
19 *243:30 *718:RESET_B 0
20 *243:30 *324:95 0.000157378
21 *243:30 *438:257 0.000118987
22 *243:30 *439:148 0
23 *243:30 *442:12 0.00014749
24 *467:A1 *468:A2 0.000160612
25 *472:A2 *243:30 6.27718e-05
26 *514:A *468:A2 0.000174906
27 *514:A *243:30 0.000217139
28 *515:C *468:A2 0.000161956
29 *517:B *485:A1 0.000180481
30 *560:B *243:10 6.31665e-05
31 *566:A *468:A2 4.95705e-05
32 *567:A2 *468:A2 2.95749e-05
33 *567:B1 *468:A2 0.000154145
34 *589:A *243:30 6.27782e-05
35 *649:B1 *243:30 0.000163814
36 *688:D *468:A2 1.1957e-05
37 *696:D *243:10 0.000263114
38 *718:D *243:30 4.61122e-05
39 *54:46 *485:A1 2.41483e-05
40 *96:88 *485:A1 0
41 *96:141 *468:A2 2.8232e-05
42 *186:25 *485:A1 0.000258142
43 *210:23 *243:30 5.23577e-05
44 *239:18 *468:A2 0.000704562
*RES
1 *696:Q *243:4 9.24915 
2 *243:4 *243:10 18.5571 
3 *243:10 *243:30 45.6333 
4 *243:30 *468:A2 46.6351 
5 *243:10 *550:B 13.7491 
6 *243:4 *485:A1 29.8683 
*END

*D_NET *244 0.00587387
*CONN
*I *481:B1 I *D sky130_fd_sc_hd__a22oi_1
*I *547:B I *D sky130_fd_sc_hd__nand2_1
*I *464:A2 I *D sky130_fd_sc_hd__a211oi_1
*I *697:Q O *D sky130_fd_sc_hd__dfrtp_1
*CAP
1 *481:B1 0.00141176
2 *547:B 0
3 *464:A2 0.000166831
4 *697:Q 0.00180666
5 *244:10 0.000561724
6 *464:A2 *697:RESET_B 1.08368e-05
7 *464:A2 *438:86 3.30662e-05
8 *464:A2 *438:92 0.000118451
9 *481:B1 *462:A 1.13587e-05
10 *481:B1 *464:A1 4.92912e-05
11 *481:B1 *445:60 1.41976e-05
12 *244:10 *464:A1 0.000207266
13 *244:10 *697:RESET_B 2.94581e-05
14 *244:10 *697:CLK 4.69808e-06
15 *244:10 *445:60 3.16065e-06
16 *460:A *464:A2 4.86061e-05
17 *460:A *244:10 0.000132607
18 *463:A1 *481:B1 0.000189151
19 *463:A2 *481:B1 0.000366474
20 *465:A2 *481:B1 1.14872e-06
21 *481:A1 *481:B1 3.75603e-05
22 *481:B2 *481:B1 0.000468339
23 *558:B *481:B1 3.63956e-05
24 *54:200 *481:B1 0.000164829
*RES
1 *697:Q *244:10 21.0173 
2 *244:10 *464:A2 17.162 
3 *244:10 *547:B 13.7491 
4 *697:Q *481:B1 42.5392 
*END

*D_NET *245 0.0064393
*CONN
*I *678:B1 I *D sky130_fd_sc_hd__a221o_1
*I *644:A1 I *D sky130_fd_sc_hd__a211oi_1
*I *668:B I *D sky130_fd_sc_hd__nand2_1
*I *698:Q O *D sky130_fd_sc_hd__dfrtp_1
*CAP
1 *678:B1 0.000264215
2 *644:A1 0.000943065
3 *668:B 0.000144905
4 *698:Q 0
5 *245:8 0.00177112
6 *245:4 0.000947364
7 *644:A1 *644:A2 8.01857e-05
8 *644:A1 *669:A2 2.18935e-05
9 *644:A1 *714:RESET_B 0
10 *644:A1 *757:RESET_B 4.92146e-05
11 *644:A1 *324:217 8.82459e-05
12 *644:A1 *330:14 0.000710633
13 *644:A1 *438:197 0.000379553
14 *644:A1 *438:216 0.000108781
15 *644:A1 *438:218 0
16 *668:B *668:A 6.08467e-05
17 *668:B *698:CLK 3.96508e-05
18 *645:A1 *644:A1 0
19 *669:B1 *644:A1 1.25363e-05
20 *698:D *245:8 0.00015901
21 *809:A *644:A1 1.58826e-05
22 *52:25 *644:A1 1.61113e-05
23 *54:46 *678:B1 9.29919e-05
24 *56:28 *678:B1 9.29919e-05
25 *68:10 *644:A1 3.60561e-05
26 *174:14 *644:A1 0.000312046
27 *202:43 *644:A1 9.20016e-05
*RES
1 *698:Q *245:4 9.24915 
2 *245:4 *245:8 10.1758 
3 *245:8 *668:B 12.7697 
4 *245:8 *644:A1 48.3446 
5 *245:4 *678:B1 23.023 
*END

*D_NET *246 0.00369413
*CONN
*I *542:A1 I *D sky130_fd_sc_hd__mux2_1
*I *471:B1 I *D sky130_fd_sc_hd__a21oi_1
*I *507:B I *D sky130_fd_sc_hd__nand2_1
*I *703:Q O *D sky130_fd_sc_hd__dfrtp_1
*CAP
1 *542:A1 0
2 *471:B1 0.000632696
3 *507:B 6.51325e-05
4 *703:Q 0
5 *246:21 0.000986928
6 *246:4 0.000419365
7 *471:B1 *542:A0 6.52897e-05
8 *471:B1 *542:S 9.55756e-05
9 *471:B1 *703:CLK 1.45799e-05
10 *471:B1 *327:12 0.000143027
11 *471:B1 *438:355 6.27782e-05
12 *471:B1 *442:148 6.08467e-05
13 *246:21 *542:A0 0.000461831
14 *473:A1 *471:B1 0.000110458
15 *473:A2 *471:B1 0.0003515
16 *473:B1 *471:B1 2.19092e-05
17 *508:A *507:B 0
18 *703:D *471:B1 6.27782e-05
19 *718:D *471:B1 1.41396e-05
20 *773:A *471:B1 2.59764e-05
21 *54:61 *246:21 1.72278e-05
22 *96:141 *471:B1 8.20888e-05
*RES
1 *703:Q *246:4 9.24915 
2 *246:4 *507:B 10.9612 
3 *246:4 *246:21 15.577 
4 *246:21 *471:B1 35.0765 
5 *246:21 *542:A1 9.24915 
*END

*D_NET *247 0.00315692
*CONN
*I *467:B1 I *D sky130_fd_sc_hd__a21oi_1
*I *505:B I *D sky130_fd_sc_hd__nand2_1
*I *541:A1 I *D sky130_fd_sc_hd__mux2_1
*I *704:Q O *D sky130_fd_sc_hd__dfrtp_1
*CAP
1 *467:B1 0.000200147
2 *505:B 0
3 *541:A1 0.000205004
4 *704:Q 0.000538603
5 *247:25 0.00050905
6 *247:8 0.00105251
7 *467:B1 *755:RESET_B 0.000101638
8 *467:B1 *449:8 4.47179e-05
9 *541:A1 *541:A0 0
10 *541:A1 *541:S 0.000118166
11 *247:8 *704:RESET_B 0.000159977
12 *247:8 *324:26 1.43983e-05
13 *247:8 *438:306 4.61331e-06
14 *247:25 *722:RESET_B 0
15 *469:A2 *467:B1 5.04829e-06
16 *506:A *541:A1 3.58185e-05
17 *506:A *247:25 0.00011935
18 *704:D *541:A1 3.66137e-05
19 *704:D *247:25 1.12605e-05
20 *722:D *247:25 0
*RES
1 *704:Q *247:8 21.6824 
2 *247:8 *541:A1 19.2382 
3 *247:8 *247:25 8.94014 
4 *247:25 *505:B 13.7491 
5 *247:25 *467:B1 19.49 
*END

*D_NET *219 0.00117839
*CONN
*P reg_req_i[0] I
*I *811:A I *D sky130_fd_sc_hd__clkdlybuf4s50_1
*CAP
1 reg_req_i[0] 0.000537424
2 *811:A 0.000537424
3 *811:A *521:A1 9.2602e-05
4 *800:A *811:A 1.09384e-05
*RES
1 reg_req_i[0] *811:A 28.0941 
*END

*D_NET *218 0.00130808
*CONN
*P reg_req_i[10] I
*I *810:A I *D sky130_fd_sc_hd__clkdlybuf4s50_1
*CAP
1 reg_req_i[10] 0.000505993
2 *810:A 0.000505993
3 *810:A intr_gpio_o[2] 0
4 *810:A reg_rsp_o[0] 4.27752e-05
5 *810:A reg_rsp_o[16] 5.73981e-05
6 *810:A *813:A 0
7 *810:A *937:A 0.000175347
8 *802:A *810:A 2.05712e-05
9 *56:182 *810:A 0
10 *56:184 *810:A 0
*RES
1 reg_req_i[10] *810:A 30.82 
*END

*D_NET *217 0.00475381
*CONN
*P reg_req_i[11] I
*I *809:A I *D sky130_fd_sc_hd__clkdlybuf4s50_1
*CAP
1 reg_req_i[11] 0.00120117
2 *809:A 0.00120117
3 *809:A reg_rsp_o[9] 0.000134231
4 *809:A *644:A1 1.58826e-05
5 *809:A *785:A 0.00218199
6 *809:A *438:216 1.93606e-05
*RES
1 reg_req_i[11] *809:A 22.5895 
*END

*D_NET *227 0.00214764
*CONN
*P reg_req_i[12] I
*I *808:A I *D sky130_fd_sc_hd__clkdlybuf4s50_1
*CAP
1 reg_req_i[12] 0.000627212
2 *808:A 0.000627212
3 *808:A cio_gpio_en_o[0] 4.46199e-05
4 *808:A intr_gpio_o[0] 8.03805e-05
5 *808:A reg_rsp_o[27] 0.000126795
6 *808:A reg_rsp_o[32] 0.000115718
7 *808:A *542:A0 0.000351536
8 *808:A *901:A 5.01303e-05
9 *773:A *808:A 0.000124038
*RES
1 reg_req_i[12] *808:A 29.5142 
*END

*D_NET *209 0.000799402
*CONN
*P reg_req_i[13] I
*I *807:A I *D sky130_fd_sc_hd__clkdlybuf4s50_1
*CAP
1 reg_req_i[13] 0.000286803
2 *807:A 0.000286803
3 *807:A reg_rsp_o[11] 0.000122592
4 *807:A *541:A0 0.000103204
*RES
1 reg_req_i[13] *807:A 22.8004 
*END

*D_NET *208 0.000585536
*CONN
*P reg_req_i[14] I
*I *806:A I *D sky130_fd_sc_hd__clkdlybuf4s50_1
*CAP
1 reg_req_i[14] 0.000231579
2 *806:A 0.000231579
3 *806:A reg_rsp_o[12] 0
4 *806:A *540:A0 0.000122378
5 *806:A *540:S 0
*RES
1 reg_req_i[14] *806:A 20.1873 
*END

*D_NET *207 0.00098978
*CONN
*P reg_req_i[15] I
*I *805:A I *D sky130_fd_sc_hd__clkdlybuf4s50_1
*CAP
1 reg_req_i[15] 0.000481991
2 *805:A 0.000481991
3 *805:A reg_rsp_o[13] 0
4 *805:A reg_rsp_o[21] 0
5 *805:A *673:A 2.57986e-05
*RES
1 reg_req_i[15] *805:A 25.5423 
*END

*D_NET *206 0.000421251
*CONN
*P reg_req_i[16] I
*I *804:A I *D sky130_fd_sc_hd__clkdlybuf4s50_1
*CAP
1 reg_req_i[16] 0.000210626
2 *804:A 0.000210626
3 *804:A reg_rsp_o[14] 0
*RES
1 reg_req_i[16] *804:A 18.9182 
*END

*D_NET *205 0.00129499
*CONN
*P reg_req_i[17] I
*I *803:A I *D sky130_fd_sc_hd__clkdlybuf4s50_1
*CAP
1 reg_req_i[17] 0.000507545
2 *803:A 0.000507545
3 *803:A reg_rsp_o[15] 0.000134106
4 *803:A *798:A 6.53306e-05
5 *803:A *814:A 7.86825e-06
6 *803:A *935:A 7.2593e-05
*RES
1 reg_req_i[17] *803:A 28.4 
*END

*D_NET *204 0.000440281
*CONN
*P reg_req_i[18] I
*I *802:A I *D sky130_fd_sc_hd__clkdlybuf4s50_1
*CAP
1 reg_req_i[18] 0.000117082
2 *802:A 0.000117082
3 *802:A reg_rsp_o[16] 5.94185e-05
4 *802:A *810:A 2.05712e-05
5 *802:A *813:A 6.85852e-05
6 *802:A *937:A 5.75426e-05
7 reg_rsp_o[19] *802:A 0
*RES
1 reg_req_i[18] *802:A 18.6962 
*END

*D_NET *203 0.000562455
*CONN
*P reg_req_i[19] I
*I *801:A I *D sky130_fd_sc_hd__clkdlybuf4s50_1
*CAP
1 reg_req_i[19] 0.000281228
2 *801:A 0.000281228
3 *801:A reg_rsp_o[13] 0
*RES
1 reg_req_i[19] *801:A 20.7419 
*END

*D_NET *199 0.0011848
*CONN
*P reg_req_i[1] I
*I *800:A I *D sky130_fd_sc_hd__clkdlybuf4s50_1
*CAP
1 reg_req_i[1] 0.000471244
2 *800:A 0.000471244
3 *800:A reg_rsp_o[1] 0.000101295
4 *800:A *523:B 1.41976e-05
5 *800:A *525:A 0.00011588
6 *800:A *811:A 1.09384e-05
*RES
1 reg_req_i[1] *800:A 25.4546 
*END

*D_NET *383 0.000699495
*CONN
*P reg_req_i[20] I
*I *799:A I *D sky130_fd_sc_hd__clkdlybuf4s50_1
*CAP
1 reg_req_i[20] 0.000275279
2 *799:A 0.000275279
3 *799:A reg_rsp_o[3] 6.66537e-05
4 *799:A *783:A 0
5 reg_rsp_o[18] *799:A 0
6 *492:A *799:A 1.07248e-05
7 *557:A *799:A 7.15593e-05
*RES
1 reg_req_i[20] *799:A 21.9321 
*END

*D_NET *382 0.00114863
*CONN
*P reg_req_i[21] I
*I *798:A I *D sky130_fd_sc_hd__clkdlybuf4s50_1
*CAP
1 reg_req_i[21] 0.000353796
2 *798:A 0.000353796
3 *798:A reg_rsp_o[15] 9.24224e-05
4 *798:A *814:A 0.000124157
5 reg_rsp_o[19] *798:A 8.90253e-05
6 *498:B *798:A 0
7 *803:A *798:A 6.53306e-05
8 *935:A *798:A 7.00991e-05
*RES
1 reg_req_i[21] *798:A 26.5095 
*END

*D_NET *381 0.000277668
*CONN
*P reg_req_i[22] I
*I *797:A I *D sky130_fd_sc_hd__clkdlybuf4s50_1
*CAP
1 reg_req_i[22] 0.000108844
2 *797:A 0.000108844
3 *797:A intr_gpio_o[2] 0
4 *797:A reg_rsp_o[20] 5.99807e-05
5 *56:182 *797:A 0
*RES
1 reg_req_i[22] *797:A 18.5432 
*END

*D_NET *380 0.000758793
*CONN
*P reg_req_i[23] I
*I *796:A I *D sky130_fd_sc_hd__clkdlybuf4s50_1
*CAP
1 reg_req_i[23] 0.000301686
2 *796:A 0.000301686
3 *796:A cio_gpio_o[2] 0
4 *796:A reg_rsp_o[4] 0.000106352
5 *895:A *796:A 0
6 *910:A *796:A 4.90694e-05
*RES
1 reg_req_i[23] *796:A 22.5394 
*END

*D_NET *316 0.00214015
*CONN
*P reg_req_i[2] I
*I *795:A I *D sky130_fd_sc_hd__clkdlybuf4s50_1
*CAP
1 reg_req_i[2] 0.000641995
2 *795:A 0.000641995
3 *795:A reg_rsp_o[1] 0.000146603
4 *525:A *795:A 0.000147191
5 *789:A *795:A 0.000562361
6 *283:10 *795:A 0
*RES
1 reg_req_i[2] *795:A 31.121 
*END

*D_NET *315 0.000986919
*CONN
*P reg_req_i[36] I
*I *794:A I *D sky130_fd_sc_hd__clkdlybuf4s50_1
*CAP
1 reg_req_i[36] 0.000313584
2 *794:A 0.000313584
3 *794:A cio_gpio_en_o[3] 0
4 *794:A cio_gpio_o[3] 0.000105068
5 *477:A *794:A 2.42661e-05
6 *785:A *794:A 9.22232e-05
7 *791:A *794:A 0.000138192
*RES
1 reg_req_i[36] *794:A 18.9694 
*END

*D_NET *314 0.00167381
*CONN
*P reg_req_i[37] I
*I *793:A I *D sky130_fd_sc_hd__clkdlybuf4s50_1
*CAP
1 reg_req_i[37] 0.000441264
2 *793:A 0.000441264
3 *793:A intr_gpio_o[3] 0.000760556
4 *793:A reg_rsp_o[5] 3.07245e-05
5 reg_rsp_o[17] *793:A 0
6 *792:A *793:A 0
*RES
1 reg_req_i[37] *793:A 20.2151 
*END

*D_NET *313 0.00344671
*CONN
*P reg_req_i[38] I
*I *792:A I *D sky130_fd_sc_hd__clkdlybuf4s50_1
*CAP
1 reg_req_i[38] 0.000989127
2 *792:A 0.000989127
3 *792:A cio_gpio_en_o[3] 0.000174808
4 *792:A *793:A 0
5 *477:A *792:A 1.34768e-05
6 *479:C *792:A 0.000117277
7 *761:A *792:A 7.09666e-06
8 *785:A *792:A 0
9 *791:A *792:A 0.000757791
10 *56:124 *792:A 9.12065e-05
11 *279:20 *792:A 0.000306798
*RES
1 reg_req_i[38] *792:A 33.2323 
*END

*D_NET *311 0.00175045
*CONN
*P reg_req_i[39] I
*I *791:A I *D sky130_fd_sc_hd__clkdlybuf4s50_1
*CAP
1 reg_req_i[39] 0.000412805
2 *791:A 0.000412805
3 *791:A *792:A 0.000757791
4 *791:A *794:A 0.000138192
5 *475:A *791:A 1.2977e-05
6 *477:A *791:A 1.58791e-05
*RES
1 reg_req_i[39] *791:A 19.9123 
*END

*D_NET *310 0.00298735
*CONN
*P reg_req_i[40] I
*I *790:A I *D sky130_fd_sc_hd__clkdlybuf4s50_1
*CAP
1 reg_req_i[40] 0.000392408
2 *790:A 0.000392408
3 *790:A intr_gpio_o[3] 0.00127698
4 *789:A *790:A 0.000210506
5 *53:23 *790:A 0.00035986
6 *56:124 *790:A 0.000191215
7 *56:133 *790:A 0.000163969
*RES
1 reg_req_i[40] *790:A 24.9796 
*END

*D_NET *309 0.00165725
*CONN
*P reg_req_i[41] I
*I *789:A I *D sky130_fd_sc_hd__clkdlybuf4s50_1
*CAP
1 reg_req_i[41] 0.000431042
2 *789:A 0.000431042
3 *789:A intr_gpio_o[3] 1.5605e-06
4 *789:A *790:A 0.000210506
5 *789:A *795:A 0.000562361
6 *56:124 *789:A 1.70638e-05
7 *56:133 *789:A 3.67528e-06
*RES
1 reg_req_i[41] *789:A 20.2183 
*END

*D_NET *308 0.0039248
*CONN
*P reg_req_i[4] I
*I *788:A I *D sky130_fd_sc_hd__clkdlybuf4s50_1
*CAP
1 reg_req_i[4] 0.00153509
2 *788:A 0.00153509
3 *788:A cio_gpio_o[0] 0.000276752
4 *788:A reg_rsp_o[2] 0.000128371
5 *788:A *687:CLK 0.000266832
6 *788:A *696:RESET_B 0
7 *68:10 *788:A 0.000182657
*RES
1 reg_req_i[4] *788:A 26.7739 
*END

*D_NET *307 0.00112337
*CONN
*P reg_req_i[5] I
*I *787:A I *D sky130_fd_sc_hd__clkdlybuf4s50_1
*CAP
1 reg_req_i[5] 0.000293856
2 *787:A 0.000293856
3 *787:A cio_gpio_o[1] 0
4 *787:A intr_gpio_o[1] 0
5 *506:B *787:A 0.000217923
6 *531:A *787:A 9.04224e-05
7 *776:A *787:A 0.000101246
8 *936:A *787:A 0.000126065
*RES
1 reg_req_i[5] *787:A 24.3193 
*END

*D_NET *306 0.000462398
*CONN
*P reg_req_i[6] I
*I *786:A I *D sky130_fd_sc_hd__clkdlybuf4s50_1
*CAP
1 reg_req_i[6] 0.000231199
2 *786:A 0.000231199
3 *786:A reg_rsp_o[12] 0
*RES
1 reg_req_i[6] *786:A 19.6327 
*END

*D_NET *305 0.00387536
*CONN
*P reg_req_i[7] I
*I *785:A I *D sky130_fd_sc_hd__clkdlybuf4s50_1
*CAP
1 reg_req_i[7] 0.000696468
2 *785:A 0.000696468
3 *785:A cio_gpio_o[3] 0.000114227
4 *785:A *792:A 0
5 *785:A *794:A 9.22232e-05
6 *785:A *324:217 4.3116e-06
7 *785:A *384:158 2.01503e-05
8 *809:A *785:A 0.00218199
9 *68:10 *785:A 0
10 *96:82 *785:A 6.95223e-05
*RES
1 reg_req_i[7] *785:A 22.8814 
*END

*D_NET *398 0.000891809
*CONN
*P reg_req_i[8] I
*I *784:A I *D sky130_fd_sc_hd__clkdlybuf4s50_1
*CAP
1 reg_req_i[8] 0.000196707
2 *784:A 0.000196707
3 *784:A reg_rsp_o[2] 9.84959e-05
4 *784:A reg_rsp_o[33] 3.60041e-05
5 *288:18 *784:A 0.000363895
6 *304:39 *784:A 0
*RES
1 reg_req_i[8] *784:A 22.2418 
*END

*D_NET *397 0.00318847
*CONN
*P reg_req_i[9] I
*I *783:A I *D sky130_fd_sc_hd__clkdlybuf4s50_1
*CAP
1 reg_req_i[9] 0.00124086
2 *783:A 0.00124086
3 *783:A reg_rsp_o[3] 0.000361497
4 cio_gpio_o[1] *783:A 0
5 *492:A *783:A 8.88083e-05
6 *647:C *783:A 0
7 *749:D *783:A 8.09719e-05
8 *799:A *783:A 0
9 *54:82 *783:A 0
10 *121:17 *783:A 0
11 *341:8 *783:A 8.53451e-05
12 *341:21 *783:A 9.01323e-05
*RES
1 reg_req_i[9] *783:A 46.2365 
*END

*D_NET *290 0.000281553
*CONN
*P reg_rsp_o[0] O
*I *760:HI O *D sky130_fd_sc_hd__conb_1
*CAP
1 reg_rsp_o[0] 0.00010067
2 *760:HI 0.00010067
3 reg_rsp_o[0] reg_rsp_o[16] 4.8584e-06
4 reg_rsp_o[19] reg_rsp_o[0] 3.25789e-05
5 *810:A reg_rsp_o[0] 4.27752e-05
6 *56:184 reg_rsp_o[0] 0
*RES
1 *760:HI reg_rsp_o[0] 18.9585 
*END

*D_NET *404 0.00123418
*CONN
*P reg_rsp_o[10] O
*I *769:X O *D sky130_fd_sc_hd__clkdlybuf4s50_1
*CAP
1 reg_rsp_o[10] 0.000554323
2 *769:X 0.000554323
3 reg_rsp_o[10] reg_rsp_o[24] 9.30082e-05
4 reg_rsp_o[10] reg_rsp_o[26] 0
5 intr_gpio_o[0] reg_rsp_o[10] 3.25302e-05
*RES
1 *769:X reg_rsp_o[10] 28.7826 
*END

*D_NET *403 0.00168271
*CONN
*P reg_rsp_o[11] O
*I *768:X O *D sky130_fd_sc_hd__clkdlybuf4s50_1
*CAP
1 reg_rsp_o[11] 0.000491783
2 *768:X 0.000491783
3 reg_rsp_o[11] *541:S 0.000341252
4 reg_rsp_o[11] *438:310 0.000111722
5 *807:A reg_rsp_o[11] 0.000122592
6 *324:26 reg_rsp_o[11] 0.000123582
*RES
1 *768:X reg_rsp_o[11] 28.6083 
*END

*D_NET *402 0.000699125
*CONN
*P reg_rsp_o[12] O
*I *767:X O *D sky130_fd_sc_hd__clkdlybuf4s50_1
*CAP
1 reg_rsp_o[12] 0.000349563
2 *767:X 0.000349563
3 *540:A1 reg_rsp_o[12] 0
4 *786:A reg_rsp_o[12] 0
5 *806:A reg_rsp_o[12] 0
*RES
1 *767:X reg_rsp_o[12] 22.7931 
*END

*D_NET *401 0.000410194
*CONN
*P reg_rsp_o[13] O
*I *766:X O *D sky130_fd_sc_hd__clkdlybuf4s50_1
*CAP
1 reg_rsp_o[13] 0.000205097
2 *766:X 0.000205097
3 *801:A reg_rsp_o[13] 0
4 *805:A reg_rsp_o[13] 0
*RES
1 *766:X reg_rsp_o[13] 18.3869 
*END

*D_NET *400 0.0010038
*CONN
*P reg_rsp_o[14] O
*I *765:X O *D sky130_fd_sc_hd__clkdlybuf4s50_1
*CAP
1 reg_rsp_o[14] 0.00049119
2 *765:X 0.00049119
3 *539:A0 reg_rsp_o[14] 2.14221e-05
4 *804:A reg_rsp_o[14] 0
*RES
1 *765:X reg_rsp_o[14] 22.5245 
*END

*D_NET *399 0.0016892
*CONN
*P reg_rsp_o[15] O
*I *764:X O *D sky130_fd_sc_hd__clkdlybuf4s50_1
*CAP
1 reg_rsp_o[15] 0.00039205
2 *764:X 0.00039205
3 reg_rsp_o[15] *814:A 0
4 reg_rsp_o[19] reg_rsp_o[15] 6.39057e-05
5 *498:B reg_rsp_o[15] 0.000545003
6 *798:A reg_rsp_o[15] 9.24224e-05
7 *803:A reg_rsp_o[15] 0.000134106
8 *935:A reg_rsp_o[15] 6.96594e-05
*RES
1 *764:X reg_rsp_o[15] 27.3837 
*END

*D_NET *395 0.00129893
*CONN
*P reg_rsp_o[16] O
*I *763:X O *D sky130_fd_sc_hd__clkdlybuf4s50_1
*CAP
1 reg_rsp_o[16] 0.000496771
2 *763:X 0.000496771
3 reg_rsp_o[16] *813:A 2.86353e-06
4 reg_rsp_o[0] reg_rsp_o[16] 4.8584e-06
5 *734:D reg_rsp_o[16] 0.000180849
6 *802:A reg_rsp_o[16] 5.94185e-05
7 *810:A reg_rsp_o[16] 5.73981e-05
*RES
1 *763:X reg_rsp_o[16] 27.8644 
*END

*D_NET *221 0.00135591
*CONN
*P reg_rsp_o[17] O
*I *761:X O *D sky130_fd_sc_hd__clkdlybuf4s50_1
*CAP
1 reg_rsp_o[17] 0.000622029
2 *761:X 0.000622029
3 reg_rsp_o[17] cio_gpio_en_o[3] 0.000101295
4 reg_rsp_o[17] reg_rsp_o[5] 1.05573e-05
5 reg_rsp_o[17] *793:A 0
*RES
1 *761:X reg_rsp_o[17] 25.867 
*END

*D_NET *97 0.000394106
*CONN
*P reg_rsp_o[18] O
*I *557:X O *D sky130_fd_sc_hd__clkdlybuf4s50_1
*CAP
1 reg_rsp_o[18] 0.000197053
2 *557:X 0.000197053
3 reg_rsp_o[18] *799:A 0
*RES
1 *557:X reg_rsp_o[18] 18.0877 
*END

*D_NET *84 0.000799025
*CONN
*P reg_rsp_o[19] O
*I *528:X O *D sky130_fd_sc_hd__clkdlybuf4s50_1
*CAP
1 reg_rsp_o[19] 0.000299162
2 *528:X 0.000299162
3 reg_rsp_o[19] reg_rsp_o[0] 3.25789e-05
4 reg_rsp_o[19] reg_rsp_o[15] 6.39057e-05
5 reg_rsp_o[19] *709:RESET_B 0
6 reg_rsp_o[19] *798:A 8.90253e-05
7 reg_rsp_o[19] *802:A 0
8 *56:184 reg_rsp_o[19] 1.51914e-05
*RES
1 *528:X reg_rsp_o[19] 18.8929 
*END

*D_NET *414 0.000543651
*CONN
*P reg_rsp_o[1] O
*I *893:X O *D sky130_fd_sc_hd__clkdlybuf4s50_1
*CAP
1 reg_rsp_o[1] 0.000147876
2 *893:X 0.000147876
3 *795:A reg_rsp_o[1] 0.000146603
4 *800:A reg_rsp_o[1] 0.000101295
*RES
1 *893:X reg_rsp_o[1] 18.0187 
*END

*D_NET *415 0.00106379
*CONN
*P reg_rsp_o[20] O
*I *894:X O *D sky130_fd_sc_hd__clkdlybuf4s50_1
*CAP
1 reg_rsp_o[20] 0.000379003
2 *894:X 0.000379003
3 *546:A reg_rsp_o[20] 1.91391e-05
4 *701:D reg_rsp_o[20] 0
5 *797:A reg_rsp_o[20] 5.99807e-05
6 *894:A reg_rsp_o[20] 7.08532e-05
7 *56:180 reg_rsp_o[20] 0.000155811
*RES
1 *894:X reg_rsp_o[20] 20.1386 
*END

*D_NET *416 0.000302635
*CONN
*P reg_rsp_o[21] O
*I *895:X O *D sky130_fd_sc_hd__clkdlybuf4s50_1
*CAP
1 reg_rsp_o[21] 0.000151317
2 *895:X 0.000151317
3 *805:A reg_rsp_o[21] 0
*RES
1 *895:X reg_rsp_o[21] 17.6635 
*END

*D_NET *417 0.000324051
*CONN
*P reg_rsp_o[22] O
*I *896:X O *D sky130_fd_sc_hd__clkdlybuf4s50_1
*CAP
1 reg_rsp_o[22] 5.87243e-05
2 *896:X 5.87243e-05
3 reg_rsp_o[22] reg_rsp_o[23] 5.41683e-05
4 reg_rsp_o[22] reg_rsp_o[25] 0.000152434
*RES
1 *896:X reg_rsp_o[22] 17.7127 
*END

*D_NET *418 0.000398955
*CONN
*P reg_rsp_o[23] O
*I *897:X O *D sky130_fd_sc_hd__clkdlybuf4s50_1
*CAP
1 reg_rsp_o[23] 0.000124267
2 *897:X 0.000124267
3 reg_rsp_o[23] reg_rsp_o[25] 1.498e-05
4 reg_rsp_o[23] reg_rsp_o[9] 8.12729e-05
5 reg_rsp_o[22] reg_rsp_o[23] 5.41683e-05
*RES
1 *897:X reg_rsp_o[23] 17.8657 
*END

*D_NET *419 0.000830526
*CONN
*P reg_rsp_o[24] O
*I *898:X O *D sky130_fd_sc_hd__clkdlybuf4s50_1
*CAP
1 reg_rsp_o[24] 0.000318631
2 *898:X 0.000318631
3 reg_rsp_o[24] reg_rsp_o[32] 3.70535e-05
4 intr_gpio_o[0] reg_rsp_o[24] 6.32027e-05
5 reg_rsp_o[10] reg_rsp_o[24] 9.30082e-05
*RES
1 *898:X reg_rsp_o[24] 18.9616 
*END

*D_NET *420 0.0011075
*CONN
*P reg_rsp_o[25] O
*I *899:X O *D sky130_fd_sc_hd__clkdlybuf4s50_1
*CAP
1 reg_rsp_o[25] 0.000426322
2 *899:X 0.000426322
3 reg_rsp_o[25] reg_rsp_o[28] 2.45829e-05
4 reg_rsp_o[25] reg_rsp_o[30] 1.53749e-05
5 reg_rsp_o[25] reg_rsp_o[9] 2.7285e-05
6 reg_rsp_o[22] reg_rsp_o[25] 0.000152434
7 reg_rsp_o[23] reg_rsp_o[25] 1.498e-05
8 *304:130 reg_rsp_o[25] 2.02035e-05
*RES
1 *899:X reg_rsp_o[25] 19.2676 
*END

*D_NET *421 0.000816888
*CONN
*P reg_rsp_o[26] O
*I *900:X O *D sky130_fd_sc_hd__clkdlybuf4s50_1
*CAP
1 reg_rsp_o[26] 0.000376013
2 *900:X 0.000376013
3 reg_rsp_o[26] reg_rsp_o[29] 2.52569e-05
4 reg_rsp_o[26] reg_rsp_o[6] 0
5 intr_gpio_o[0] reg_rsp_o[26] 3.96052e-05
6 reg_rsp_o[10] reg_rsp_o[26] 0
7 *304:43 reg_rsp_o[26] 0
*RES
1 *900:X reg_rsp_o[26] 24.63 
*END

*D_NET *422 0.000560764
*CONN
*P reg_rsp_o[27] O
*I *901:X O *D sky130_fd_sc_hd__clkdlybuf4s50_1
*CAP
1 reg_rsp_o[27] 0.000199271
2 *901:X 0.000199271
3 cio_gpio_en_o[0] reg_rsp_o[27] 2.42776e-05
4 intr_gpio_o[0] reg_rsp_o[27] 1.11499e-05
5 *808:A reg_rsp_o[27] 0.000126795
*RES
1 *901:X reg_rsp_o[27] 18.0187 
*END

*D_NET *423 0.00103779
*CONN
*P reg_rsp_o[28] O
*I *902:X O *D sky130_fd_sc_hd__clkdlybuf4s50_1
*CAP
1 reg_rsp_o[28] 0.000355324
2 *902:X 0.000355324
3 reg_rsp_o[28] reg_rsp_o[30] 5.20947e-05
4 reg_rsp_o[28] reg_rsp_o[31] 0.000134072
5 cio_gpio_en_o[1] reg_rsp_o[28] 0.000116394
6 reg_rsp_o[25] reg_rsp_o[28] 2.45829e-05
*RES
1 *902:X reg_rsp_o[28] 18.6306 
*END

*D_NET *424 0.00058459
*CONN
*P reg_rsp_o[29] O
*I *903:X O *D sky130_fd_sc_hd__clkdlybuf4s50_1
*CAP
1 reg_rsp_o[29] 0.000206193
2 *903:X 0.000206193
3 reg_rsp_o[29] reg_rsp_o[6] 0.000146946
4 reg_rsp_o[26] reg_rsp_o[29] 2.52569e-05
*RES
1 *903:X reg_rsp_o[29] 18.6557 
*END

*D_NET *425 0.00135194
*CONN
*P reg_rsp_o[2] O
*I *904:X O *D sky130_fd_sc_hd__clkdlybuf4s50_1
*CAP
1 reg_rsp_o[2] 0.000530311
2 *904:X 0.000530311
3 reg_rsp_o[2] reg_rsp_o[33] 2.24699e-05
4 reg_rsp_o[2] reg_rsp_o[7] 4.19846e-05
5 *784:A reg_rsp_o[2] 9.84959e-05
6 *788:A reg_rsp_o[2] 0.000128371
*RES
1 *904:X reg_rsp_o[2] 19.497 
*END

*D_NET *426 0.000244288
*CONN
*P reg_rsp_o[30] O
*I *905:X O *D sky130_fd_sc_hd__clkdlybuf4s50_1
*CAP
1 reg_rsp_o[30] 8.84091e-05
2 *905:X 8.84091e-05
3 reg_rsp_o[25] reg_rsp_o[30] 1.53749e-05
4 reg_rsp_o[28] reg_rsp_o[30] 5.20947e-05
*RES
1 *905:X reg_rsp_o[30] 17.7127 
*END

*D_NET *427 0.000732873
*CONN
*P reg_rsp_o[31] O
*I *906:X O *D sky130_fd_sc_hd__clkdlybuf4s50_1
*CAP
1 reg_rsp_o[31] 0.000105584
2 *906:X 0.000105584
3 cio_gpio_en_o[1] reg_rsp_o[31] 0.000380431
4 reg_rsp_o[28] reg_rsp_o[31] 0.000134072
5 *304:35 reg_rsp_o[31] 7.20173e-06
*RES
1 *906:X reg_rsp_o[31] 18.0187 
*END

*D_NET *428 0.000568317
*CONN
*P reg_rsp_o[32] O
*I *907:X O *D sky130_fd_sc_hd__clkdlybuf4s50_1
*CAP
1 reg_rsp_o[32] 0.000201986
2 *907:X 0.000201986
3 intr_gpio_o[0] reg_rsp_o[32] 1.1573e-05
4 reg_rsp_o[24] reg_rsp_o[32] 3.70535e-05
5 *808:A reg_rsp_o[32] 0.000115718
*RES
1 *907:X reg_rsp_o[32] 18.0187 
*END

*D_NET *429 0.000403458
*CONN
*P reg_rsp_o[33] O
*I *908:X O *D sky130_fd_sc_hd__clkdlybuf4s50_1
*CAP
1 reg_rsp_o[33] 0.000130724
2 *908:X 0.000130724
3 reg_rsp_o[33] reg_rsp_o[7] 8.35351e-05
4 reg_rsp_o[2] reg_rsp_o[33] 2.24699e-05
5 *784:A reg_rsp_o[33] 3.60041e-05
6 *304:39 reg_rsp_o[33] 0
*RES
1 *908:X reg_rsp_o[33] 17.8657 
*END

*D_NET *430 0.00131579
*CONN
*P reg_rsp_o[3] O
*I *909:X O *D sky130_fd_sc_hd__clkdlybuf4s50_1
*CAP
1 reg_rsp_o[3] 0.000345512
2 *909:X 0.000345512
3 *557:A reg_rsp_o[3] 0.00015321
4 *783:A reg_rsp_o[3] 0.000361497
5 *799:A reg_rsp_o[3] 6.66537e-05
6 *56:58 reg_rsp_o[3] 2.41274e-06
7 *56:67 reg_rsp_o[3] 4.09938e-05
*RES
1 *909:X reg_rsp_o[3] 24.5319 
*END

*D_NET *431 0.000641905
*CONN
*P reg_rsp_o[4] O
*I *910:X O *D sky130_fd_sc_hd__clkdlybuf4s50_1
*CAP
1 reg_rsp_o[4] 0.000212864
2 *910:X 0.000212864
3 cio_gpio_o[2] reg_rsp_o[4] 0.000109825
4 *796:A reg_rsp_o[4] 0.000106352
*RES
1 *910:X reg_rsp_o[4] 19.4961 
*END

*D_NET *432 0.00172303
*CONN
*P reg_rsp_o[5] O
*I *911:X O *D sky130_fd_sc_hd__clkdlybuf4s50_1
*CAP
1 reg_rsp_o[5] 0.000766695
2 *911:X 0.000766695
3 reg_rsp_o[17] reg_rsp_o[5] 1.05573e-05
4 *475:B reg_rsp_o[5] 4.08658e-05
5 *793:A reg_rsp_o[5] 3.07245e-05
6 *52:6 reg_rsp_o[5] 4.66492e-05
7 *52:10 reg_rsp_o[5] 6.08467e-05
*RES
1 *911:X reg_rsp_o[5] 32.2247 
*END

*D_NET *433 0.00113035
*CONN
*P reg_rsp_o[6] O
*I *912:X O *D sky130_fd_sc_hd__clkdlybuf4s50_1
*CAP
1 reg_rsp_o[6] 0.000358105
2 *912:X 0.000358105
3 cio_gpio_o[0] reg_rsp_o[6] 0.000208233
4 intr_gpio_o[0] reg_rsp_o[6] 0
5 reg_rsp_o[26] reg_rsp_o[6] 0
6 reg_rsp_o[29] reg_rsp_o[6] 0.000146946
7 *304:43 reg_rsp_o[6] 1.66771e-05
8 *304:49 reg_rsp_o[6] 4.22847e-05
*RES
1 *912:X reg_rsp_o[6] 20.8161 
*END

*D_NET *434 0.000889603
*CONN
*P reg_rsp_o[7] O
*I *913:X O *D sky130_fd_sc_hd__clkdlybuf4s50_1
*CAP
1 reg_rsp_o[7] 0.000316189
2 *913:X 0.000316189
3 cio_gpio_en_o[1] reg_rsp_o[7] 0.000127511
4 reg_rsp_o[2] reg_rsp_o[7] 4.19846e-05
5 reg_rsp_o[33] reg_rsp_o[7] 8.35351e-05
6 *304:37 reg_rsp_o[7] 4.19401e-06
*RES
1 *913:X reg_rsp_o[7] 18.4776 
*END

*D_NET *435 0.000565044
*CONN
*P reg_rsp_o[8] O
*I *914:X O *D sky130_fd_sc_hd__clkdlybuf4s50_1
*CAP
1 reg_rsp_o[8] 0.00017402
2 *914:X 0.00017402
3 cio_gpio_en_o[2] reg_rsp_o[8] 0.000106352
4 cio_gpio_o[2] reg_rsp_o[8] 0.000106352
5 *910:A reg_rsp_o[8] 4.30017e-06
*RES
1 *914:X reg_rsp_o[8] 18.9415 
*END

*D_NET *436 0.000854009
*CONN
*P reg_rsp_o[9] O
*I *915:X O *D sky130_fd_sc_hd__clkdlybuf4s50_1
*CAP
1 reg_rsp_o[9] 0.00030561
2 *915:X 0.00030561
3 reg_rsp_o[23] reg_rsp_o[9] 8.12729e-05
4 reg_rsp_o[25] reg_rsp_o[9] 2.7285e-05
5 *809:A reg_rsp_o[9] 0.000134231
6 *188:12 reg_rsp_o[9] 0
*RES
1 *915:X reg_rsp_o[9] 18.4776 
*END

*D_NET *324 0.0386266
*CONN
*I *702:RESET_B I *D sky130_fd_sc_hd__dfrtp_1
*I *720:RESET_B I *D sky130_fd_sc_hd__dfrtp_1
*I *713:RESET_B I *D sky130_fd_sc_hd__dfrtp_1
*I *710:RESET_B I *D sky130_fd_sc_hd__dfrtp_1
*I *705:RESET_B I *D sky130_fd_sc_hd__dfrtp_1
*I *706:RESET_B I *D sky130_fd_sc_hd__dfrtp_1
*I *697:RESET_B I *D sky130_fd_sc_hd__dfrtp_1
*I *701:RESET_B I *D sky130_fd_sc_hd__dfrtp_1
*I *714:RESET_B I *D sky130_fd_sc_hd__dfrtp_1
*I *721:RESET_B I *D sky130_fd_sc_hd__dfrtp_1
*I *698:RESET_B I *D sky130_fd_sc_hd__dfrtp_1
*I *709:RESET_B I *D sky130_fd_sc_hd__dfrtp_1
*I *696:RESET_B I *D sky130_fd_sc_hd__dfrtp_1
*I *718:RESET_B I *D sky130_fd_sc_hd__dfrtp_1
*I *700:RESET_B I *D sky130_fd_sc_hd__dfrtp_1
*I *711:RESET_B I *D sky130_fd_sc_hd__dfrtp_1
*I *695:RESET_B I *D sky130_fd_sc_hd__dfrtp_1
*I *703:RESET_B I *D sky130_fd_sc_hd__dfrtp_1
*I *707:RESET_B I *D sky130_fd_sc_hd__dfrtp_1
*I *719:RESET_B I *D sky130_fd_sc_hd__dfrtp_1
*I *708:RESET_B I *D sky130_fd_sc_hd__dfrtp_1
*I *699:RESET_B I *D sky130_fd_sc_hd__dfrtp_1
*I *712:RESET_B I *D sky130_fd_sc_hd__dfrtp_1
*I *704:RESET_B I *D sky130_fd_sc_hd__dfrtp_1
*I *715:Q O *D sky130_fd_sc_hd__dfrtp_1
*CAP
1 *702:RESET_B 0.00116475
2 *720:RESET_B 0.000568601
3 *713:RESET_B 0.00198959
4 *710:RESET_B 0.000248333
5 *705:RESET_B 0.000547075
6 *706:RESET_B 0.000378466
7 *697:RESET_B 0.00101563
8 *701:RESET_B 0
9 *714:RESET_B 0.000372912
10 *721:RESET_B 0
11 *698:RESET_B 0
12 *709:RESET_B 0.00133729
13 *696:RESET_B 0.000755269
14 *718:RESET_B 0.000114118
15 *700:RESET_B 0.00136542
16 *711:RESET_B 0.000138923
17 *695:RESET_B 0
18 *703:RESET_B 0
19 *707:RESET_B 0.000506048
20 *719:RESET_B 5.66043e-05
21 *708:RESET_B 0.00116312
22 *699:RESET_B 0.00116912
23 *712:RESET_B 1.8176e-05
24 *704:RESET_B 0.000884438
25 *715:Q 0.000562051
26 *324:236 0.00101269
27 *324:217 0.00144465
28 *324:194 0.00138613
29 *324:141 0.000685133
30 *324:97 0.000826174
31 *324:95 0.00116061
32 *324:85 0.00114823
33 *324:54 0.00119801
34 *324:32 0.00155492
35 *324:26 0.00115315
36 *696:RESET_B *438:231 0.000409212
37 *696:RESET_B *438:257 0.000411975
38 *697:RESET_B *438:92 0.000215358
39 *697:RESET_B *438:98 1.80257e-05
40 *697:RESET_B *438:100 0
41 *699:RESET_B *456:A 0.000227493
42 *699:RESET_B *587:A1 4.86213e-05
43 *699:RESET_B *648:A 0.000185159
44 *699:RESET_B *442:41 0.000138371
45 *700:RESET_B *538:S 9.67676e-05
46 *702:RESET_B *756:RESET_B 5.52256e-05
47 *702:RESET_B *932:A 2.02222e-05
48 *702:RESET_B *438:68 2.48716e-05
49 *704:RESET_B *704:CLK 8.4633e-05
50 *704:RESET_B *722:CLK 4.26074e-05
51 *705:RESET_B *460:B 0.000135352
52 *705:RESET_B *464:A1 1.31919e-05
53 *705:RESET_B *445:60 5.37479e-05
54 *706:RESET_B *438:197 0.000247286
55 *707:RESET_B *438:282 0
56 *708:RESET_B *688:RESET_B 0.000269407
57 *708:RESET_B *755:CLK 0.000332496
58 *709:RESET_B *538:S 0.000247153
59 *709:RESET_B *700:CLK 0
60 *709:RESET_B *709:CLK 0
61 *709:RESET_B *438:102 0.000422607
62 *709:RESET_B *441:34 0
63 *710:RESET_B *438:197 0
64 *711:RESET_B *439:148 8.24053e-05
65 *713:RESET_B *756:RESET_B 0.000206699
66 *713:RESET_B *438:76 0.00020121
67 *714:RESET_B *644:A2 0
68 *714:RESET_B *438:197 0
69 *720:RESET_B *728:CLK 0
70 *720:RESET_B *447:41 0
71 *324:26 reg_rsp_o[11] 0.000123582
72 *324:26 *532:A 9.45416e-05
73 *324:26 *541:S 9.22013e-06
74 *324:26 *748:CLK 0
75 *324:26 *438:306 3.77659e-05
76 *324:32 *748:CLK 6.13051e-05
77 *324:32 *440:125 0.000159565
78 *324:54 *468:A1 1.45944e-05
79 *324:85 *691:RESET_B 0.000299298
80 *324:85 *921:A 6.13051e-05
81 *324:85 *384:48 0.000190871
82 *324:95 *439:148 1.47159e-05
83 *324:194 *384:142 0.000143099
84 *324:194 *384:158 0.000266927
85 *324:217 *690:RESET_B 0.000213725
86 *324:217 *690:CLK 7.01935e-06
87 *324:217 *694:CLK 4.00959e-05
88 *324:217 *384:158 0.000368777
89 *324:217 *438:216 0.000166759
90 *324:236 *438:100 0
91 *324:236 *438:102 0
92 reg_rsp_o[19] *709:RESET_B 0
93 *455:A1 *700:RESET_B 0
94 *458:A2 *699:RESET_B 3.03812e-05
95 *464:A2 *697:RESET_B 1.08368e-05
96 *467:A1 *324:54 0.000245028
97 *468:A2 *324:54 7.28994e-06
98 *469:A2 *719:RESET_B 0.000101133
99 *469:A2 *324:54 0.000460665
100 *471:A2 *718:RESET_B 0
101 *483:B *702:RESET_B 0.000304859
102 *495:B *709:RESET_B 7.28994e-06
103 *497:A *700:RESET_B 4.14221e-05
104 *497:B *700:RESET_B 0
105 *498:B *709:RESET_B 0
106 *501:A *710:RESET_B 3.94515e-05
107 *515:A *699:RESET_B 0.000304866
108 *533:B1 *324:26 0
109 *537:A0 *709:RESET_B 0
110 *544:A0 *709:RESET_B 6.18794e-05
111 *548:A1 *697:RESET_B 0.000249794
112 *643:B1 *710:RESET_B 1.37421e-05
113 *644:A1 *714:RESET_B 0
114 *644:A1 *324:217 8.82459e-05
115 *665:A *324:217 0.000152796
116 *672:B1 *702:RESET_B 2.58616e-05
117 *675:A0 *710:RESET_B 0.000112165
118 *677:A1 *324:217 0.000193358
119 *690:D *324:217 0.000187693
120 *695:D *324:95 4.23614e-06
121 *695:D *324:97 1.59362e-06
122 *697:D *697:RESET_B 0
123 *698:D *324:194 3.00174e-06
124 *698:D *324:217 3.26247e-05
125 *703:D *324:97 0
126 *705:D *705:RESET_B 8.50804e-05
127 *708:D *700:RESET_B 0
128 *709:D *709:RESET_B 1.07248e-05
129 *711:D *696:RESET_B 5.45757e-05
130 *713:D *713:RESET_B 0.000152857
131 *714:D *714:RESET_B 0.000105959
132 *714:D *324:217 2.69064e-05
133 *741:D *709:RESET_B 0
134 *755:D *708:RESET_B 5.2472e-05
135 *756:D *705:RESET_B 0.000368654
136 *785:A *324:217 4.3116e-06
137 *788:A *696:RESET_B 0
138 *35:6 *699:RESET_B 7.4808e-05
139 *54:134 *719:RESET_B 0
140 *54:134 *324:54 0
141 *54:164 *709:RESET_B 0.000245619
142 *54:200 *720:RESET_B 0
143 *56:145 *702:RESET_B 0.000173757
144 *56:182 *709:RESET_B 0
145 *56:184 *709:RESET_B 0
146 *68:10 *696:RESET_B 0
147 *68:10 *324:194 0.000123738
148 *68:10 *324:217 3.54379e-05
149 *68:20 *696:RESET_B 0
150 *68:20 *718:RESET_B 0
151 *119:12 *699:RESET_B 4.21937e-05
152 *174:14 *324:217 0.000199667
153 *213:24 *697:RESET_B 0.000124161
154 *229:8 *713:RESET_B 0.000151939
155 *231:6 *707:RESET_B 3.18172e-05
156 *232:28 *700:RESET_B 0
157 *232:28 *708:RESET_B 0.000160561
158 *233:28 *709:RESET_B 0.00010364
159 *235:10 *324:85 6.88853e-05
160 *235:27 *699:RESET_B 0.000107496
161 *239:10 *699:RESET_B 7.56374e-05
162 *243:30 *696:RESET_B 0
163 *243:30 *711:RESET_B 0.000304998
164 *243:30 *718:RESET_B 0
165 *243:30 *324:95 0.000157378
166 *244:10 *697:RESET_B 2.94581e-05
167 *247:8 *704:RESET_B 0.000159977
168 *247:8 *324:26 1.43983e-05
169 *289:20 *699:RESET_B 0.00031042
*RES
1 *715:Q *704:RESET_B 19.5093 
2 *704:RESET_B *324:26 13.3632 
3 *324:26 *324:32 13.4219 
4 *324:32 *712:RESET_B 0.494321 
5 *324:32 *699:RESET_B 37.4218 
6 *324:26 *324:54 10.137 
7 *324:54 *708:RESET_B 19.7516 
8 *324:54 *719:RESET_B 6.332 
9 *699:RESET_B *324:85 11.8425 
10 *324:85 *324:95 11.8283 
11 *324:95 *324:97 6.81502 
12 *324:97 *707:RESET_B 16.533 
13 *324:97 *703:RESET_B 4.5 
14 *324:95 *695:RESET_B 4.5 
15 *324:85 *711:RESET_B 10.0693 
16 *708:RESET_B *700:RESET_B 17.8913 
17 *711:RESET_B *324:141 4.5 
18 *324:141 *718:RESET_B 7.1625 
19 *324:141 *696:RESET_B 22.1116 
20 *700:RESET_B *709:RESET_B 39.4142 
21 *696:RESET_B *324:194 12.6341 
22 *324:194 *698:RESET_B 4.5 
23 *324:194 *324:217 49.178 
24 *324:217 *721:RESET_B 4.5 
25 *324:217 *714:RESET_B 11.315 
26 *709:RESET_B *324:236 11.315 
27 *324:236 *701:RESET_B 4.5 
28 *324:236 *697:RESET_B 30.6265 
29 *714:RESET_B *706:RESET_B 13.3235 
30 *697:RESET_B *705:RESET_B 18.7568 
31 *706:RESET_B *710:RESET_B 15.815 
32 *705:RESET_B *713:RESET_B 18.6259 
33 *713:RESET_B *720:RESET_B 22.0438 
34 *713:RESET_B *702:RESET_B 28.8566 
*END

*D_NET *396 0.000565775
*CONN
*P rst_ni I
*I *933:A I *D sky130_fd_sc_hd__dlygate4sd3_1
*CAP
1 rst_ni 0.000282888
2 *933:A 0.000282888
*RES
1 rst_ni *933:A 20.9312 
*END

*D_NET *326 0.000290746
*CONN
*I *758:D I *D sky130_fd_sc_hd__dfrtp_1
*I *759:Q O *D sky130_fd_sc_hd__dfrtp_1
*CAP
1 *758:D 0.00010432
2 *759:Q 0.00010432
3 *758:RESET_B *758:D 8.21063e-05
*RES
1 *759:Q *758:D 30.4689 
*END

*D_NET *327 0.00101358
*CONN
*I *470:A I *D sky130_fd_sc_hd__inv_1
*I *472:A1 I *D sky130_fd_sc_hd__a211oi_1
*I *754:Q O *D sky130_fd_sc_hd__dfrtp_1
*CAP
1 *470:A 0
2 *472:A1 5.12908e-05
3 *754:Q 8.56802e-05
4 *327:12 0.000136971
5 *471:B1 *327:12 0.000143027
6 *472:A2 *472:A1 4.82162e-05
7 *472:A2 *327:12 1.02769e-05
8 *473:B1 *327:12 3.17869e-05
9 *514:A *472:A1 0.000276994
10 *514:A *327:12 4.39063e-05
11 *718:D *472:A1 6.27718e-05
12 *718:D *327:12 1.02917e-05
13 *210:23 *472:A1 0.000112367
*RES
1 *754:Q *327:12 21.4241 
2 *327:12 *472:A1 12.4019 
3 *327:12 *470:A 9.24915 
*END

*D_NET *328 0.000807237
*CONN
*I *466:A I *D sky130_fd_sc_hd__inv_1
*I *468:A1 I *D sky130_fd_sc_hd__a211oi_1
*I *755:Q O *D sky130_fd_sc_hd__dfrtp_1
*CAP
1 *466:A 4.09985e-05
2 *468:A1 0.000187614
3 *755:Q 0
4 *328:4 0.000228612
5 *466:A *688:RESET_B 8.92639e-05
6 *468:A1 *688:RESET_B 1.92336e-05
7 *467:A1 *466:A 5.42866e-06
8 *467:A1 *468:A1 5.30015e-05
9 *505:A *468:A1 8.94934e-06
10 *54:111 *468:A1 0.000110458
11 *54:134 *468:A1 4.90829e-05
12 *324:54 *468:A1 1.45944e-05
*RES
1 *755:Q *328:4 9.24915 
2 *328:4 *468:A1 23.7435 
3 *328:4 *466:A 10.7622 
*END

*D_NET *329 0.00329053
*CONN
*I *462:A I *D sky130_fd_sc_hd__inv_1
*I *464:A1 I *D sky130_fd_sc_hd__a211oi_1
*I *756:Q O *D sky130_fd_sc_hd__dfrtp_1
*CAP
1 *462:A 8.716e-06
2 *464:A1 0.000291499
3 *756:Q 0.000484507
4 *329:12 0.000784723
5 *464:A1 *460:B 9.18554e-05
6 *464:A1 *445:60 1.98375e-05
7 *329:12 *540:S 0.000148017
8 *329:12 *713:CLK 5.7694e-05
9 *329:12 *756:RESET_B 0.000153395
10 *329:12 *438:86 0.000362639
11 *461:B1 *464:A1 0.000188544
12 *464:B1 *464:A1 7.86847e-05
13 *465:A2 *462:A 5.17299e-06
14 *465:A2 *464:A1 0.000111722
15 *481:B1 *462:A 1.13587e-05
16 *481:B1 *464:A1 4.92912e-05
17 *503:B *329:12 8.62625e-06
18 *540:A1 *329:12 2.32865e-05
19 *705:RESET_B *464:A1 1.31919e-05
20 *229:10 *329:12 0.0001905
21 *244:10 *464:A1 0.000207266
*RES
1 *756:Q *329:12 31.746 
2 *329:12 *464:A1 28.4456 
3 *329:12 *462:A 9.62893 
*END

*D_NET *330 0.00431837
*CONN
*I *644:A2 I *D sky130_fd_sc_hd__a211oi_1
*I *642:A I *D sky130_fd_sc_hd__inv_1
*I *757:Q O *D sky130_fd_sc_hd__dfrtp_1
*CAP
1 *644:A2 0.000327044
2 *642:A 1.04447e-05
3 *757:Q 0.000551815
4 *330:14 0.000889304
5 *642:A *680:A2 1.13587e-05
6 *644:A2 *438:197 5.66868e-06
7 *330:14 *669:A2 0.000115934
8 *330:14 *690:RESET_B 0.000392058
9 *330:14 *438:197 7.50386e-06
10 *644:A1 *644:A2 8.01857e-05
11 *644:A1 *330:14 0.000710633
12 *680:B2 *644:A2 0.000137404
13 *680:B2 *330:14 0.000143032
14 *714:RESET_B *644:A2 0
15 *52:25 *644:A2 0.000162005
16 *54:25 *644:A2 6.08467e-05
17 *68:10 *330:14 0.000149136
18 *68:38 *330:14 7.22695e-05
19 *68:61 *642:A 3.19445e-05
20 *68:61 *330:14 2.53624e-06
21 *202:43 *644:A2 0.000194227
22 *241:16 *644:A2 0.000144531
23 *241:16 *330:14 0.000118485
*RES
1 *757:Q *330:14 34.7883 
2 *330:14 *642:A 14.1289 
3 *330:14 *644:A2 31.9578 
*END

*D_NET *331 0.0136168
*CONN
*I *729:RESET_B I *D sky130_fd_sc_hd__dfrtp_1
*I *731:RESET_B I *D sky130_fd_sc_hd__dfrtp_1
*I *730:RESET_B I *D sky130_fd_sc_hd__dfrtp_1
*I *752:RESET_B I *D sky130_fd_sc_hd__dfrtp_1
*I *683:RESET_B I *D sky130_fd_sc_hd__dfrtp_1
*I *753:RESET_B I *D sky130_fd_sc_hd__dfrtp_1
*I *732:RESET_B I *D sky130_fd_sc_hd__dfrtp_1
*I *916:A I *D sky130_fd_sc_hd__buf_4
*I *751:RESET_B I *D sky130_fd_sc_hd__dfrtp_1
*I *750:RESET_B I *D sky130_fd_sc_hd__dfrtp_1
*I *749:RESET_B I *D sky130_fd_sc_hd__dfrtp_1
*I *747:RESET_B I *D sky130_fd_sc_hd__dfrtp_1
*I *748:RESET_B I *D sky130_fd_sc_hd__dfrtp_1
*I *724:Q O *D sky130_fd_sc_hd__dfrtp_1
*CAP
1 *729:RESET_B 0.000312045
2 *731:RESET_B 0.000116858
3 *730:RESET_B 0
4 *752:RESET_B 0.000168574
5 *683:RESET_B 0.000494478
6 *753:RESET_B 4.1914e-05
7 *732:RESET_B 0.000799221
8 *916:A 2.69388e-05
9 *751:RESET_B 0.000295692
10 *750:RESET_B 0.000511608
11 *749:RESET_B 0.000168574
12 *747:RESET_B 0.000494478
13 *748:RESET_B 0.000335522
14 *724:Q 0.00106407
15 *331:124 0.000353644
16 *331:57 0.000827234
17 *331:40 0.00100017
18 *331:38 0.00051976
19 *331:31 0.000364827
20 *331:14 0.000814206
21 *331:12 0.00166408
22 *683:RESET_B *683:CLK 0
23 *683:RESET_B *747:CLK 0.000289002
24 *683:RESET_B *442:47 0.000118166
25 *731:RESET_B *730:D 0
26 *732:RESET_B *732:D 0
27 *732:RESET_B *384:78 0.000146533
28 *732:RESET_B *439:13 7.86825e-06
29 *748:RESET_B *747:D 3.1218e-05
30 *748:RESET_B *438:306 7.35915e-05
31 *750:RESET_B *750:CLK 2.16355e-05
32 *752:RESET_B *749:D 2.28919e-05
33 *752:RESET_B *749:CLK 3.61993e-05
34 *916:A *437:8 2.58616e-05
35 *331:12 *350:10 0.000113968
36 *331:12 *384:48 0.000167076
37 *331:14 *384:48 6.08697e-06
38 *331:31 *384:48 4.26935e-05
39 *331:38 *384:48 2.29151e-05
40 *331:38 *384:78 7.75929e-05
41 *331:40 *384:78 0.000116428
42 *331:57 *384:78 0.000166749
43 *331:124 *730:D 0
44 *331:124 *439:124 2.36463e-05
45 *468:B1 *331:12 0.000207266
46 *491:B *683:RESET_B 9.12603e-05
47 *513:B1 *331:14 0
48 *600:A *331:124 0
49 *600:B *751:RESET_B 5.54078e-05
50 *600:B *331:124 0
51 *659:B *729:RESET_B 0
52 *909:A *748:RESET_B 0
53 *909:A *331:14 0
54 *54:105 *331:12 2.23125e-05
55 *54:111 *331:12 0.000683876
56 *68:20 *752:RESET_B 0.000614699
57 *129:12 *751:RESET_B 5.54078e-05
58 *131:18 *729:RESET_B 0
59 *131:20 *729:RESET_B 0
60 *172:12 *729:RESET_B 0
61 *194:10 *331:14 0
62 *289:20 *683:RESET_B 2.52414e-06
*RES
1 *724:Q *331:12 33.522 
2 *331:12 *331:14 10.5523 
3 *331:14 *748:RESET_B 12.6508 
4 *331:14 *747:RESET_B 4.5 
5 *331:12 *331:31 3.07775 
6 *331:31 *749:RESET_B 4.5 
7 *331:31 *331:38 6.6074 
8 *331:38 *331:40 7.02265 
9 *331:40 *750:RESET_B 13.4581 
10 *750:RESET_B *751:RESET_B 11.2472 
11 *331:40 *331:57 9.30653 
12 *331:57 *916:A 14.4725 
13 *331:57 *732:RESET_B 16.9331 
14 *331:38 *753:RESET_B 5.61141 
15 *747:RESET_B *683:RESET_B 9.81407 
16 *749:RESET_B *752:RESET_B 6.65524 
17 *751:RESET_B *331:124 9.87776 
18 *331:124 *730:RESET_B 4.5 
19 *331:124 *731:RESET_B 7.48005 
20 *732:RESET_B *729:RESET_B 15.815 
*END

*D_NET *332 0.000394891
*CONN
*I *750:D I *D sky130_fd_sc_hd__dfrtp_1
*I *601:Y O *D sky130_fd_sc_hd__nor2_1
*CAP
1 *750:D 9.48962e-05
2 *601:Y 9.48962e-05
3 *750:D *333:10 5.62448e-05
4 *598:B *750:D 2.58616e-05
5 *647:C *750:D 0.000122992
*RES
1 *601:Y *750:D 30.4689 
*END

*D_NET *333 0.00139904
*CONN
*I *751:D I *D sky130_fd_sc_hd__dfrtp_1
*I *646:B I *D sky130_fd_sc_hd__nand2_1
*I *598:Y O *D sky130_fd_sc_hd__nor2_1
*CAP
1 *751:D 0
2 *646:B 0.000138362
3 *598:Y 0.000130418
4 *333:10 0.00026878
5 *646:B *646:A 0.000117376
6 *646:B *443:54 6.23875e-05
7 *333:10 *646:A 0.000279529
8 *647:C *646:B 0.00030964
9 *647:C *333:10 3.6305e-05
10 *750:D *333:10 5.62448e-05
*RES
1 *598:Y *333:10 23.4032 
2 *333:10 *646:B 14.4335 
3 *333:10 *751:D 9.24915 
*END

*D_NET *334 0.00094608
*CONN
*I *752:D I *D sky130_fd_sc_hd__dfrtp_1
*I *590:Y O *D sky130_fd_sc_hd__nor2_1
*CAP
1 *752:D 0.000271803
2 *590:Y 0.000271803
3 *752:D *384:48 0.000311249
4 *647:A *752:D 3.58321e-05
5 *121:17 *752:D 5.53934e-05
*RES
1 *590:Y *752:D 33.242 
*END

*D_NET *335 0.00307684
*CONN
*I *646:A I *D sky130_fd_sc_hd__nand2_1
*I *753:D I *D sky130_fd_sc_hd__dfrtp_1
*I *602:Y O *D sky130_fd_sc_hd__a21oi_1
*CAP
1 *646:A 0.000489032
2 *753:D 0.000304023
3 *602:Y 0.000187414
4 *335:6 0.00098047
5 *646:A *753:CLK 9.43419e-05
6 *646:A *443:35 0.000220001
7 *646:A *443:41 8.48723e-05
8 *753:D *753:CLK 0.000145195
9 *598:A *646:A 6.51686e-05
10 *598:A *335:6 0.000109421
11 *646:B *646:A 0.000117376
12 *129:12 *646:A 0
13 *333:10 *646:A 0.000279529
*RES
1 *602:Y *335:6 12.191 
2 *335:6 *753:D 17.2306 
3 *335:6 *646:A 33.7679 
*END

*D_NET *336 0.00195533
*CONN
*I *594:B I *D sky130_fd_sc_hd__or2_0
*I *584:B I *D sky130_fd_sc_hd__nand2_1
*I *583:B I *D sky130_fd_sc_hd__nand3_1
*I *599:A I *D sky130_fd_sc_hd__inv_1
*I *750:Q O *D sky130_fd_sc_hd__dfrtp_1
*CAP
1 *594:B 2.26966e-05
2 *584:B 0
3 *583:B 2.3667e-05
4 *599:A 5.91594e-05
5 *750:Q 0.000234692
6 *336:20 0.00030846
7 *336:10 0.00043763
8 *583:B *583:C 4.88955e-05
9 *594:B *337:12 6.46815e-05
10 *599:A *583:C 6.92705e-05
11 *336:10 *583:A 3.44412e-06
12 *336:10 *337:16 7.444e-06
13 *336:20 *587:A1 0.000168492
14 *336:20 *595:A 2.03171e-05
15 *336:20 *339:16 6.08467e-05
16 *586:A *336:20 1.02267e-05
17 *586:B *336:10 3.44412e-06
18 *587:B1 *336:20 2.58616e-05
19 *597:A1 *336:10 0.000111236
20 *597:A1 *336:20 7.92757e-06
21 *597:A2 *336:20 6.55265e-05
22 *600:A *336:20 3.04809e-05
23 *115:12 *583:B 2.41274e-06
24 *115:12 *599:A 1.00846e-05
25 *116:6 *336:20 2.30636e-05
26 *289:20 *599:A 0.000124398
27 *289:20 *336:20 1.09738e-05
*RES
1 *750:Q *336:10 23.8184 
2 *336:10 *336:20 16.0135 
3 *336:20 *599:A 11.2325 
4 *336:20 *583:B 9.97254 
5 *336:10 *584:B 9.24915 
6 *750:Q *594:B 19.2217 
*END

*D_NET *337 0.00213801
*CONN
*I *594:A I *D sky130_fd_sc_hd__or2_0
*I *584:A I *D sky130_fd_sc_hd__nand2_1
*I *583:A I *D sky130_fd_sc_hd__nand3_1
*I *751:Q O *D sky130_fd_sc_hd__dfrtp_1
*CAP
1 *594:A 0
2 *584:A 3.31814e-05
3 *583:A 0.000286384
4 *751:Q 0.000215542
5 *337:16 0.000555046
6 *337:12 0.000451022
7 *583:A *583:C 2.954e-05
8 *583:A *711:CLK 4.99469e-05
9 *583:A *338:14 2.61429e-05
10 *337:12 *443:8 0
11 *337:12 *443:14 0
12 *586:B *583:A 0.000142487
13 *587:B1 *583:A 0
14 *594:B *337:12 6.46815e-05
15 *597:A1 *584:A 7.01935e-06
16 *597:A1 *337:12 1.03403e-05
17 *597:A1 *337:16 0.000255793
18 *600:A *337:12 0
19 *336:10 *583:A 3.44412e-06
20 *336:10 *337:16 7.444e-06
*RES
1 *751:Q *337:12 23.4382 
2 *337:12 *337:16 11.315 
3 *337:16 *583:A 21.312 
4 *337:16 *584:A 14.4725 
5 *337:12 *594:A 9.24915 
*END

*D_NET *338 0.00150802
*CONN
*I *585:A I *D sky130_fd_sc_hd__inv_1
*I *583:C I *D sky130_fd_sc_hd__nand3_1
*I *752:Q O *D sky130_fd_sc_hd__dfrtp_1
*CAP
1 *585:A 0
2 *583:C 0.000125722
3 *752:Q 0.000256839
4 *338:14 0.000382561
5 *338:14 *711:CLK 0.000189496
6 *338:14 *442:20 7.16929e-05
7 *338:14 *442:22 5.92342e-05
8 *583:A *583:C 2.954e-05
9 *583:A *338:14 2.61429e-05
10 *583:B *583:C 4.88955e-05
11 *587:B1 *338:14 0.000247216
12 *599:A *583:C 6.92705e-05
13 *68:20 *338:14 1.4091e-06
*RES
1 *752:Q *338:14 25.834 
2 *338:14 *583:C 12.619 
3 *338:14 *585:A 9.24915 
*END

*D_NET *339 0.003799
*CONN
*I *595:A I *D sky130_fd_sc_hd__inv_1
*I *587:A1 I *D sky130_fd_sc_hd__o21ai_0
*I *753:Q O *D sky130_fd_sc_hd__dfrtp_1
*CAP
1 *595:A 0.000354761
2 *587:A1 0.000324448
3 *753:Q 0.000301363
4 *339:16 0.000980572
5 *587:A1 *648:A 8.36586e-06
6 *595:A *443:14 0.00016195
7 *595:A *443:20 0.000100869
8 *586:B *587:A1 9.90332e-05
9 *586:B *595:A 5.23577e-05
10 *587:A2 *587:A1 0.000490749
11 *587:B1 *587:A1 3.17385e-05
12 *596:A *339:16 9.77961e-05
13 *597:B1 *339:16 1.19705e-05
14 *598:A *339:16 0.000312869
15 *602:A2 *339:16 6.27718e-05
16 *699:RESET_B *587:A1 4.86213e-05
17 *289:20 *587:A1 0.000109107
18 *336:20 *587:A1 0.000168492
19 *336:20 *595:A 2.03171e-05
20 *336:20 *339:16 6.08467e-05
*RES
1 *753:Q *339:16 22.3334 
2 *339:16 *587:A1 26.3777 
3 *339:16 *595:A 23.0219 
*END

*D_NET *340 0.000950344
*CONN
*I *588:B I *D sky130_fd_sc_hd__xnor2_1
*I *749:Q O *D sky130_fd_sc_hd__dfrtp_1
*CAP
1 *588:B 0.000197227
2 *749:Q 0.000197227
3 *588:B *749:D 7.44026e-05
4 *588:B *442:71 3.57378e-06
5 *588:B *442:79 0.000140909
6 *468:A2 *588:B 1.88563e-05
7 *514:A *588:B 6.08467e-05
8 *589:A *588:B 0.000113309
9 *54:105 *588:B 0.000109951
10 *121:17 *588:B 8.72115e-06
11 *243:30 *588:B 2.53191e-05
*RES
1 *749:Q *588:B 34.3697 
*END

*D_NET *341 0.00287292
*CONN
*I *749:D I *D sky130_fd_sc_hd__dfrtp_1
*I *588:A I *D sky130_fd_sc_hd__xnor2_1
*I *456:A I *D sky130_fd_sc_hd__inv_1
*I *747:Q O *D sky130_fd_sc_hd__dfrtp_1
*CAP
1 *749:D 0.000380596
2 *588:A 0
3 *456:A 8.24632e-05
4 *747:Q 0.000112051
5 *341:21 0.000518341
6 *341:8 0.00033226
7 *749:D *749:CLK 0.000408976
8 *749:D *783:A 8.09719e-05
9 *749:D *442:79 9.98029e-06
10 *341:8 *783:A 8.53451e-05
11 *341:21 *783:A 9.01323e-05
12 *588:B *749:D 7.44026e-05
13 *699:RESET_B *456:A 0.000227493
14 *752:RESET_B *749:D 2.28919e-05
15 *54:82 *341:8 1.79196e-05
16 *54:105 *749:D 0.000113295
17 *54:105 *341:8 6.39033e-05
18 *54:105 *341:21 8.66819e-05
19 *68:20 *749:D 0.000165214
*RES
1 *747:Q *341:8 17.2421 
2 *341:8 *456:A 16.3473 
3 *341:8 *341:21 4.64105 
4 *341:21 *588:A 13.7491 
5 *341:21 *749:D 28.0822 
*END

*D_NET *342 0.00054153
*CONN
*I *747:D I *D sky130_fd_sc_hd__dfrtp_1
*I *748:Q O *D sky130_fd_sc_hd__dfrtp_1
*CAP
1 *747:D 0.000175892
2 *748:Q 0.000175892
3 *747:D *747:CLK 0.000108054
4 *748:RESET_B *747:D 3.1218e-05
5 *909:A *747:D 5.04734e-05
*RES
1 *748:Q *747:D 32.6874 
*END

*D_NET *343 0.0016735
*CONN
*I *457:B I *D sky130_fd_sc_hd__nand2_1
*I *648:A I *D sky130_fd_sc_hd__nor2_1
*I *683:Q O *D sky130_fd_sc_hd__dfrtp_1
*CAP
1 *457:B 0
2 *648:A 0.000203531
3 *683:Q 0.00030732
4 *343:12 0.000510851
5 *648:A *442:41 0.000112361
6 *343:12 *707:CLK 1.7841e-05
7 *343:12 *442:24 2.2766e-06
8 *457:A *343:12 3.00174e-06
9 *458:B1 *648:A 0.000112361
10 *514:A *648:A 6.08467e-05
11 *587:A1 *648:A 8.36586e-06
12 *699:RESET_B *648:A 0.000185159
13 *119:12 *648:A 1.53822e-05
14 *243:30 *648:A 1.03403e-05
15 *289:20 *648:A 1.07403e-05
16 *289:20 *343:12 0.000113123
*RES
1 *683:Q *343:12 23.9928 
2 *343:12 *648:A 24.8916 
3 *343:12 *457:B 9.24915 
*END

*D_NET *344 0.000448067
*CONN
*I *743:D I *D sky130_fd_sc_hd__dfrtp_1
*I *633:Y O *D sky130_fd_sc_hd__nor2_1
*CAP
1 *743:D 0.000202353
2 *633:Y 0.000202353
3 *743:D *744:D 0
4 *743:D *744:CLK 4.33609e-05
5 *743:D *437:115 0
6 *624:A *743:D 0
7 *142:18 *743:D 0
*RES
1 *633:Y *743:D 32.6523 
*END

*D_NET *345 0.00133202
*CONN
*I *744:D I *D sky130_fd_sc_hd__dfrtp_1
*I *650:B I *D sky130_fd_sc_hd__nand2_1
*I *630:Y O *D sky130_fd_sc_hd__nor2_1
*CAP
1 *744:D 0.000267724
2 *650:B 2.59331e-05
3 *630:Y 0.000189328
4 *345:10 0.000482985
5 *650:B *746:D 3.1391e-05
6 *744:D *744:CLK 1.61631e-05
7 *744:D *746:D 1.87825e-05
8 *345:10 *746:D 0.00010334
9 *345:10 *351:8 1.69448e-05
10 *624:A *744:D 0
11 *651:B *744:D 4.02608e-05
12 *651:B *345:10 2.99394e-07
13 *651:C *345:10 6.96979e-05
14 *743:D *744:D 0
15 *142:18 *744:D 0
16 *148:10 *650:B 6.08467e-05
17 *148:14 *345:10 8.32204e-06
*RES
1 *630:Y *345:10 17.6214 
2 *345:10 *650:B 14.8512 
3 *345:10 *744:D 20.1786 
*END

*D_NET *346 0.00151722
*CONN
*I *745:D I *D sky130_fd_sc_hd__dfrtp_1
*I *625:Y O *D sky130_fd_sc_hd__nor2_1
*CAP
1 *745:D 0.00045121
2 *625:Y 0.00045121
3 *745:D *745:RESET_B 0
4 *469:B1 *745:D 4.39194e-05
5 *54:111 *745:D 2.16355e-05
6 *212:20 *745:D 0.000549242
*RES
1 *625:Y *745:D 41.2655 
*END

*D_NET *347 0.00167935
*CONN
*I *650:A I *D sky130_fd_sc_hd__nand2_1
*I *746:D I *D sky130_fd_sc_hd__dfrtp_1
*I *634:Y O *D sky130_fd_sc_hd__a21oi_1
*CAP
1 *650:A 3.65606e-05
2 *746:D 0.000585003
3 *634:Y 1.44542e-05
4 *347:6 0.000636018
5 *746:D *746:RESET_B 0
6 *746:D *351:8 1.55025e-05
7 *746:D *437:115 0
8 *746:D *441:70 7.01935e-06
9 *624:A *746:D 0
10 *632:A *650:A 0
11 *633:A *746:D 0.000111802
12 *633:A *347:6 6.50727e-05
13 *650:B *746:D 3.1391e-05
14 *651:C *746:D 3.23315e-05
15 *744:D *746:D 1.87825e-05
16 *148:10 *746:D 1.19856e-05
17 *148:10 *347:6 1.00846e-05
18 *345:10 *746:D 0.00010334
*RES
1 *634:Y *347:6 9.97254 
2 *347:6 *746:D 32.8931 
3 *347:6 *650:A 10.2378 
*END

*D_NET *348 0.00180217
*CONN
*I *618:B I *D sky130_fd_sc_hd__nand3_1
*I *626:B I *D sky130_fd_sc_hd__or2_0
*I *619:B I *D sky130_fd_sc_hd__nand2_1
*I *631:A I *D sky130_fd_sc_hd__inv_1
*I *743:Q O *D sky130_fd_sc_hd__dfrtp_1
*CAP
1 *618:B 0
2 *626:B 0
3 *619:B 0
4 *631:A 4.85234e-05
5 *743:Q 0.000152262
6 *348:20 0.000131117
7 *348:16 0.000303229
8 *348:10 0.000372896
9 *348:10 *743:RESET_B 0.000261128
10 *348:10 *437:24 8.36586e-06
11 *348:16 *618:C 0.000324065
12 *348:16 *619:A 5.31074e-05
13 *348:16 *745:RESET_B 0
14 *348:16 *437:60 0
15 *348:20 *619:A 6.92705e-05
16 *632:A *631:A 6.57665e-05
17 *632:A *348:20 0
18 *634:A1 *631:A 1.24404e-05
*RES
1 *743:Q *348:10 17.6924 
2 *348:10 *348:16 11.6232 
3 *348:16 *348:20 2.41132 
4 *348:20 *631:A 10.7743 
5 *348:20 *619:B 9.24915 
6 *348:16 *626:B 9.24915 
7 *348:10 *618:B 13.7491 
*END

*D_NET *349 0.00127005
*CONN
*I *618:A I *D sky130_fd_sc_hd__nand3_1
*I *626:A I *D sky130_fd_sc_hd__or2_0
*I *619:A I *D sky130_fd_sc_hd__nand2_1
*I *744:Q O *D sky130_fd_sc_hd__dfrtp_1
*CAP
1 *618:A 0.000130248
2 *626:A 0
3 *619:A 7.96215e-05
4 *744:Q 0
5 *349:12 0.000261187
6 *349:6 0.000311813
7 *618:A *618:C 3.18058e-05
8 *618:A *743:RESET_B 1.50924e-05
9 *618:A *384:78 5.35836e-05
10 *618:A *437:8 6.49694e-05
11 *349:12 *618:C 8.0474e-05
12 *349:12 *384:78 0.000118873
13 *348:16 *619:A 5.31074e-05
14 *348:20 *619:A 6.92705e-05
*RES
1 *744:Q *349:6 13.7491 
2 *349:6 *349:12 10.6561 
3 *349:12 *619:A 11.6605 
4 *349:12 *626:A 9.24915 
5 *349:6 *618:A 17.829 
*END

*D_NET *350 0.00323053
*CONN
*I *618:C I *D sky130_fd_sc_hd__nand3_1
*I *620:A I *D sky130_fd_sc_hd__inv_1
*I *745:Q O *D sky130_fd_sc_hd__dfrtp_1
*CAP
1 *618:C 0.000315622
2 *620:A 2.31537e-05
3 *745:Q 0.000585672
4 *350:10 0.000924447
5 *618:C *743:RESET_B 6.27332e-05
6 *618:C *745:RESET_B 0
7 *618:C *384:78 0
8 *350:10 *513:A2 0.000118485
9 *350:10 *384:48 0
10 *350:10 *384:78 0
11 *350:10 *451:10 0.000141345
12 *513:B1 *350:10 0.000122083
13 *618:A *618:C 3.18058e-05
14 *621:A *350:10 5.78887e-05
15 *621:B *620:A 1.42392e-05
16 *629:A1 *618:C 4.27003e-05
17 *629:A1 *620:A 3.31287e-05
18 *54:105 *350:10 1.99054e-05
19 *142:18 *618:C 6.46815e-05
20 *143:8 *618:C 3.07997e-05
21 *143:8 *350:10 3.67528e-06
22 *194:10 *350:10 0.000119659
23 *331:12 *350:10 0.000113968
24 *348:16 *618:C 0.000324065
25 *349:12 *618:C 8.0474e-05
*RES
1 *745:Q *350:10 31.393 
2 *350:10 *620:A 14.6232 
3 *350:10 *618:C 25.0517 
*END

*D_NET *351 0.00102917
*CONN
*I *622:A1 I *D sky130_fd_sc_hd__o21ai_0
*I *627:A I *D sky130_fd_sc_hd__inv_1
*I *746:Q O *D sky130_fd_sc_hd__dfrtp_1
*CAP
1 *622:A1 0.000137703
2 *627:A 3.43692e-05
3 *746:Q 0.000192898
4 *351:8 0.00036497
5 *622:A2 *622:A1 0.000141677
6 *628:B *627:A 2.55006e-06
7 *630:A *622:A1 1.02917e-05
8 *630:A *351:8 8.15554e-05
9 *651:B *622:A1 2.12494e-05
10 *746:D *351:8 1.55025e-05
11 *142:26 *351:8 9.45814e-06
12 *150:8 *627:A 0
13 *345:10 *351:8 1.69448e-05
*RES
1 *746:Q *351:8 13.5353 
2 *351:8 *627:A 10.1896 
3 *351:8 *622:A1 21.6444 
*END

*D_NET *352 0.000471748
*CONN
*I *623:B I *D sky130_fd_sc_hd__xnor2_1
*I *742:Q O *D sky130_fd_sc_hd__dfrtp_1
*CAP
1 *623:B 0.000135133
2 *742:Q 0.000135133
3 *623:B *742:RESET_B 1.53125e-05
4 *623:B *437:115 5.53934e-05
5 *54:134 *623:B 0.000130777
*RES
1 *742:Q *623:B 31.0235 
*END

*D_NET *353 0.0015206
*CONN
*I *623:A I *D sky130_fd_sc_hd__xnor2_1
*I *742:D I *D sky130_fd_sc_hd__dfrtp_1
*I *453:A I *D sky130_fd_sc_hd__inv_1
*I *740:Q O *D sky130_fd_sc_hd__dfrtp_1
*CAP
1 *623:A 6.40335e-05
2 *742:D 0
3 *453:A 0.000102115
4 *740:Q 0
5 *353:10 0.00045584
6 *353:4 0.000417758
7 *453:A *684:RESET_B 0.000123582
8 *453:A *441:70 0
9 *623:A *740:RESET_B 0.000171273
10 *353:10 *740:RESET_B 6.12255e-05
11 *353:10 *441:8 0
12 *353:10 *441:16 0
13 *353:10 *441:70 0
14 *454:A *453:A 2.85677e-05
15 *497:A *453:A 0
16 *497:A *353:10 0
17 *54:134 *353:10 9.62034e-05
*RES
1 *740:Q *353:4 9.24915 
2 *353:4 *353:10 14.1231 
3 *353:10 *453:A 16.7311 
4 *353:10 *742:D 13.7491 
5 *353:4 *623:A 11.6605 
*END

*D_NET *354 0.000450212
*CONN
*I *740:D I *D sky130_fd_sc_hd__dfrtp_1
*I *741:Q O *D sky130_fd_sc_hd__dfrtp_1
*CAP
1 *740:D 0.00016934
2 *741:Q 0.00016934
3 *740:D *441:28 9.74137e-05
4 *497:A *740:D 0
5 *54:134 *740:D 1.41181e-05
*RES
1 *741:Q *740:D 31.1923 
*END

*D_NET *355 0.00145022
*CONN
*I *454:B I *D sky130_fd_sc_hd__nand2_1
*I *652:A I *D sky130_fd_sc_hd__nor2_1
*I *684:Q O *D sky130_fd_sc_hd__dfrtp_1
*CAP
1 *454:B 0.000133978
2 *652:A 0
3 *684:Q 0.000339045
4 *355:10 0.000473023
5 *454:B *684:RESET_B 8.90231e-05
6 *454:B *441:74 1.63952e-05
7 *355:10 *684:RESET_B 4.77834e-05
8 *355:10 *684:CLK 2.20457e-05
9 *454:A *454:B 6.27718e-05
10 *455:B1 *454:B 0.000143161
11 *455:B1 *355:10 0.000122992
*RES
1 *684:Q *355:10 20.0474 
2 *355:10 *652:A 13.7491 
3 *355:10 *454:B 18.3808 
*END

*D_NET *356 0.00149243
*CONN
*I *736:D I *D sky130_fd_sc_hd__dfrtp_1
*I *593:Y O *D sky130_fd_sc_hd__nor2_1
*CAP
1 *736:D 0.000504177
2 *593:Y 0.000504177
3 *736:D *737:D 2.75985e-05
4 *736:D *737:CLK 0.000118166
5 *736:D *360:21 0
6 *736:D *444:29 0.000215536
7 *736:D *444:35 1.09738e-05
8 *582:A *736:D 0.000111802
*RES
1 *593:Y *736:D 38.0546 
*END

*D_NET *357 0.00107332
*CONN
*I *737:D I *D sky130_fd_sc_hd__dfrtp_1
*I *654:B I *D sky130_fd_sc_hd__nand2_1
*I *582:Y O *D sky130_fd_sc_hd__nor2_1
*CAP
1 *737:D 0.000237278
2 *654:B 0.000117768
3 *582:Y 0
4 *357:4 0.000355046
5 *737:D *737:CLK 5.0715e-05
6 *582:A *737:D 2.63315e-05
7 *593:A *737:D 6.3657e-05
8 *593:B *654:B 2.65065e-05
9 *593:B *737:D 0.000168417
10 *736:D *737:D 2.75985e-05
*RES
1 *582:Y *357:4 9.24915 
2 *357:4 *654:B 12.0704 
3 *357:4 *737:D 16.2661 
*END

*D_NET *358 0.000701851
*CONN
*I *738:D I *D sky130_fd_sc_hd__dfrtp_1
*I *577:Y O *D sky130_fd_sc_hd__nor2_1
*CAP
1 *738:D 0.000262878
2 *577:Y 0.000262878
3 *738:D *363:10 5.44149e-05
4 *738:D *437:111 0
5 *738:D *444:35 7.621e-05
6 *738:D *444:46 4.54707e-05
*RES
1 *577:Y *738:D 34.2118 
*END

*D_NET *359 0.00200364
*CONN
*I *654:A I *D sky130_fd_sc_hd__nand2_1
*I *739:D I *D sky130_fd_sc_hd__dfrtp_1
*I *603:Y O *D sky130_fd_sc_hd__a21oi_1
*CAP
1 *654:A 0.000112219
2 *739:D 0.000657747
3 *603:Y 0
4 *359:4 0.000769966
5 *654:A *579:A 2.22342e-05
6 *654:A *437:107 1.77537e-06
7 *654:A *437:109 6.79889e-05
8 *739:D *575:B 2.99929e-05
9 *739:D *734:RESET_B 0
10 *739:D *735:D 0
11 *739:D *365:14 1.43983e-05
12 *739:D *437:109 0
13 *739:D *437:111 0
14 *739:D *444:70 2.29564e-05
15 *576:A *739:D 6.91078e-06
16 *577:B *739:D 0.000118166
17 *110:37 *654:A 0.000179286
18 *123:10 *654:A 0
*RES
1 *603:Y *359:4 9.24915 
2 *359:4 *739:D 29.9485 
3 *359:4 *654:A 22.5727 
*END

*D_NET *360 0.00281929
*CONN
*I *571:B I *D sky130_fd_sc_hd__nand2_1
*I *570:B I *D sky130_fd_sc_hd__nand3_1
*I *591:A I *D sky130_fd_sc_hd__inv_1
*I *578:B I *D sky130_fd_sc_hd__or2_0
*I *736:Q O *D sky130_fd_sc_hd__dfrtp_1
*CAP
1 *571:B 0
2 *570:B 6.14339e-05
3 *591:A 0.000176806
4 *578:B 7.32357e-05
5 *736:Q 0.00029787
6 *360:23 0.000371739
7 *360:21 0.000411995
8 *360:8 0.000649602
9 *570:B *572:A 6.27718e-05
10 *578:B *726:RESET_B 3.15001e-05
11 *360:8 *732:CLK 1.43832e-05
12 *360:21 *726:RESET_B 2.09356e-05
13 *360:21 *437:31 6.17194e-05
14 *360:21 *437:38 0.00011488
15 *360:21 *444:35 0
16 *360:23 *437:31 4.40222e-05
17 *360:23 *444:35 0
18 *573:A *570:B 6.27782e-05
19 *573:A *591:A 0.000127746
20 *573:A *360:23 0.000122098
21 *573:B *591:A 5.94138e-05
22 *592:A *360:23 0
23 *693:D *578:B 3.55179e-05
24 *736:D *360:21 0
25 *104:6 *570:B 1.88422e-05
*RES
1 *736:Q *360:8 17.8002 
2 *360:8 *578:B 15.9964 
3 *360:8 *360:21 8.37832 
4 *360:21 *360:23 3.90826 
5 *360:23 *591:A 17.5961 
6 *360:23 *570:B 15.5817 
7 *360:21 *571:B 13.7491 
*END

*D_NET *361 0.00256516
*CONN
*I *578:A I *D sky130_fd_sc_hd__or2_0
*I *571:A I *D sky130_fd_sc_hd__nand2_1
*I *570:A I *D sky130_fd_sc_hd__nand3_1
*I *737:Q O *D sky130_fd_sc_hd__dfrtp_1
*CAP
1 *578:A 0.000263851
2 *571:A 0.000145847
3 *570:A 0.000216993
4 *737:Q 0
5 *361:8 0.000426545
6 *361:6 0.000327555
7 *570:A *732:CLK 1.44467e-05
8 *570:A *384:78 0.000201734
9 *570:A *437:31 0
10 *578:A *732:CLK 4.83571e-05
11 *578:A *384:78 0.000310668
12 *361:8 *732:CLK 0.000102979
13 *361:8 *384:78 0.000231378
14 *559:A2 *578:A 2.30636e-05
15 *559:B1 *578:A 0.000111352
16 *581:A1 *571:A 6.50727e-05
17 *581:A2 *571:A 1.03434e-05
18 *96:20 *578:A 6.49694e-05
*RES
1 *737:Q *361:6 13.7491 
2 *361:6 *361:8 3.90826 
3 *361:8 *570:A 20.0634 
4 *361:8 *571:A 17.2697 
5 *361:6 *578:A 22.8148 
*END

*D_NET *362 0.00100637
*CONN
*I *570:C I *D sky130_fd_sc_hd__nand3_1
*I *572:A I *D sky130_fd_sc_hd__inv_1
*I *738:Q O *D sky130_fd_sc_hd__dfrtp_1
*CAP
1 *570:C 0
2 *572:A 8.20799e-05
3 *738:Q 0.000289298
4 *362:12 0.000371378
5 *362:12 *437:31 8.70105e-05
6 *570:B *572:A 6.27718e-05
7 *573:A *572:A 6.76755e-05
8 *573:B *572:A 4.61542e-05
*RES
1 *738:Q *362:12 23.023 
2 *362:12 *572:A 11.98 
3 *362:12 *570:C 9.24915 
*END

*D_NET *363 0.00138655
*CONN
*I *574:A1 I *D sky130_fd_sc_hd__o21ai_0
*I *579:A I *D sky130_fd_sc_hd__inv_1
*I *739:Q O *D sky130_fd_sc_hd__dfrtp_1
*CAP
1 *574:A1 0
2 *579:A 0.000268999
3 *739:Q 0.000214006
4 *363:10 0.000483005
5 *579:A *575:B 5.04829e-06
6 *579:A *437:109 0
7 *363:10 *437:111 0
8 *363:10 *444:35 0
9 *577:A *579:A 2.57847e-05
10 *577:B *579:A 0.000205393
11 *577:B *363:10 6.73739e-06
12 *603:A1 *579:A 1.00981e-05
13 *603:A2 *579:A 6.94304e-05
14 *654:A *579:A 2.22342e-05
15 *655:A *363:10 1.70901e-05
16 *738:D *363:10 5.44149e-05
17 *123:10 *579:A 4.3116e-06
*RES
1 *739:Q *363:10 22.5727 
2 *363:10 *579:A 25.9506 
3 *363:10 *574:A1 9.24915 
*END

*D_NET *364 0.00101868
*CONN
*I *575:B I *D sky130_fd_sc_hd__xnor2_1
*I *735:Q O *D sky130_fd_sc_hd__dfrtp_1
*CAP
1 *575:B 0.00049182
2 *735:Q 0.00049182
3 *575:B *735:D 0
4 *575:B *437:109 0
5 *579:A *575:B 5.04829e-06
6 *739:D *575:B 2.99929e-05
*RES
1 *735:Q *575:B 35.4604 
*END

*D_NET *365 0.00157451
*CONN
*I *575:A I *D sky130_fd_sc_hd__xnor2_1
*I *735:D I *D sky130_fd_sc_hd__dfrtp_1
*I *459:A I *D sky130_fd_sc_hd__inv_1
*I *733:Q O *D sky130_fd_sc_hd__dfrtp_1
*CAP
1 *575:A 0
2 *735:D 0.000132865
3 *459:A 6.6275e-05
4 *733:Q 0.000319769
5 *365:14 0.000323387
6 *365:12 0.000444015
7 *735:D *733:D 0.000107033
8 *735:D *444:70 5.25994e-05
9 *365:12 *733:D 0
10 *365:12 *733:RESET_B 9.53368e-05
11 *365:12 *437:109 0
12 *575:B *735:D 0
13 *739:D *735:D 0
14 *739:D *365:14 1.43983e-05
15 *37:10 *459:A 1.88333e-05
*RES
1 *733:Q *365:12 23.9928 
2 *365:12 *365:14 2.94181 
3 *365:14 *459:A 10.6779 
4 *365:14 *735:D 22.5727 
5 *365:12 *575:A 9.24915 
*END

*D_NET *366 0.00141954
*CONN
*I *733:D I *D sky130_fd_sc_hd__dfrtp_1
*I *734:Q O *D sky130_fd_sc_hd__dfrtp_1
*CAP
1 *733:D 0.000469638
2 *734:Q 0.000469638
3 *733:D *734:RESET_B 0.00011879
4 *733:D *734:CLK 1.39723e-05
5 *733:D *444:70 3.99632e-06
6 *733:D *444:76 3.47819e-05
7 *733:D *444:89 5.04829e-06
8 *464:B1 *733:D 0.000196638
9 *735:D *733:D 0.000107033
10 *365:12 *733:D 0
*RES
1 *734:Q *733:D 40.3307 
*END

*D_NET *367 0.00309321
*CONN
*I *460:B I *D sky130_fd_sc_hd__nand2_1
*I *656:A I *D sky130_fd_sc_hd__nor2_1
*I *685:Q O *D sky130_fd_sc_hd__dfrtp_1
*CAP
1 *460:B 0.000477852
2 *656:A 0.000307775
3 *685:Q 0.000159542
4 *367:8 0.000945169
5 *460:B *445:22 1.67286e-05
6 *460:B *445:35 0.000141128
7 *460:B *445:50 1.87125e-05
8 *460:B *445:73 1.21985e-05
9 *656:A *726:CLK 0
10 *656:A *439:71 5.35828e-05
11 *656:A *445:22 0.000111955
12 *367:8 *685:RESET_B 2.41164e-05
13 *461:B1 *460:B 6.98087e-05
14 *464:A1 *460:B 9.18554e-05
15 *464:B1 *460:B 0.000197954
16 *464:B1 *656:A 4.49959e-05
17 *657:B1 *656:A 1.55025e-05
18 *705:RESET_B *460:B 0.000135352
19 *756:D *460:B 0.000118179
20 *54:183 *367:8 2.85483e-06
21 *56:180 *460:B 7.27914e-05
22 *56:180 *656:A 0
23 *56:180 *367:8 1.00901e-05
24 *169:8 *656:A 6.50714e-05
*RES
1 *685:Q *367:8 16.1364 
2 *367:8 *656:A 22.2327 
3 *367:8 *460:B 32.8849 
*END

*D_NET *368 0.000739245
*CONN
*I *729:D I *D sky130_fd_sc_hd__dfrtp_1
*I *638:Y O *D sky130_fd_sc_hd__nor2_1
*CAP
1 *729:D 0.000369015
2 *638:Y 0.000369015
3 *729:D *384:78 0
4 *638:B *729:D 1.21461e-06
*RES
1 *638:Y *729:D 33.242 
*END

*D_NET *369 0.00236731
*CONN
*I *659:C_N I *D sky130_fd_sc_hd__nor3b_1
*I *730:D I *D sky130_fd_sc_hd__dfrtp_1
*I *617:Y O *D sky130_fd_sc_hd__a21oi_1
*CAP
1 *659:C_N 0.000242872
2 *730:D 0.000477324
3 *617:Y 4.51847e-05
4 *369:8 0.00076538
5 *659:C_N *608:A 3.6367e-05
6 *730:D *614:B 0.000195927
7 *730:D *731:CLK 0
8 *600:A *730:D 2.16355e-05
9 *600:B *730:D 6.0685e-05
10 *610:A *730:D 0
11 *616:B *659:C_N 9.57557e-06
12 *617:A1 *659:C_N 8.01987e-05
13 *617:A1 *730:D 7.50722e-05
14 *636:B1 *730:D 1.542e-05
15 *637:B1 *369:8 2.65667e-05
16 *638:A *659:C_N 5.04829e-06
17 *659:A *659:C_N 3.41459e-05
18 *731:RESET_B *730:D 0
19 *131:20 *659:C_N 1.79807e-05
20 *131:26 *659:C_N 2.75292e-05
21 *131:26 *730:D 3.82669e-05
22 *134:14 *659:C_N 3.34802e-05
23 *136:20 *730:D 0.000158651
24 *156:12 *659:C_N 0
25 *331:124 *730:D 0
*RES
1 *617:Y *369:8 14.4725 
2 *369:8 *730:D 27.1011 
3 *369:8 *659:C_N 20.2322 
*END

*D_NET *370 0.000557867
*CONN
*I *731:D I *D sky130_fd_sc_hd__dfrtp_1
*I *636:X O *D sky130_fd_sc_hd__o31a_1
*CAP
1 *731:D 0.00019739
2 *636:X 0.00019739
3 *731:D *731:CLK 5.07202e-05
4 *731:D *375:20 0.000112367
*RES
1 *636:X *731:D 31.854 
*END

*D_NET *371 0.000882712
*CONN
*I *732:D I *D sky130_fd_sc_hd__dfrtp_1
*I *613:Y O *D sky130_fd_sc_hd__nor2_1
*CAP
1 *732:D 0.000441356
2 *613:Y 0.000441356
3 *732:D *375:10 0
4 *659:B *732:D 0
5 *732:RESET_B *732:D 0
*RES
1 *613:Y *732:D 37.1536 
*END

*D_NET *372 0.000337082
*CONN
*I *608:A I *D sky130_fd_sc_hd__inv_1
*I *729:Q O *D sky130_fd_sc_hd__dfrtp_1
*CAP
1 *608:A 9.66496e-05
2 *729:Q 9.66496e-05
3 *615:B *608:A 1.67134e-05
4 *659:C_N *608:A 3.6367e-05
5 *131:18 *608:A 4.18761e-05
6 *131:20 *608:A 2.28508e-05
7 *134:14 *608:A 2.59752e-05
*RES
1 *729:Q *608:A 30.5406 
*END

*D_NET *373 0.00158585
*CONN
*I *607:A I *D sky130_fd_sc_hd__inv_1
*I *730:Q O *D sky130_fd_sc_hd__dfrtp_1
*CAP
1 *607:A 0.000606542
2 *730:Q 0.000606542
3 *607:A *692:CLK 0.000120872
4 *607:A *694:CLK 0.000188221
5 *133:8 *607:A 6.36709e-05
*RES
1 *730:Q *607:A 43.1104 
*END

*D_NET *374 0.000483145
*CONN
*I *606:A I *D sky130_fd_sc_hd__inv_1
*I *731:Q O *D sky130_fd_sc_hd__dfrtp_1
*CAP
1 *606:A 0.000194566
2 *731:Q 0.000194566
3 *606:A *698:CLK 3.20264e-05
4 *132:6 *606:A 6.19864e-05
*RES
1 *731:Q *606:A 32.2406 
*END

*D_NET *375 0.00256805
*CONN
*I *637:A2 I *D sky130_fd_sc_hd__a21oi_1
*I *658:B I *D sky130_fd_sc_hd__nand2_1
*I *612:A I *D sky130_fd_sc_hd__nor2_1
*I *614:B I *D sky130_fd_sc_hd__nand2_1
*I *636:A2 I *D sky130_fd_sc_hd__o31a_1
*I *732:Q O *D sky130_fd_sc_hd__dfrtp_1
*CAP
1 *637:A2 0.000118932
2 *658:B 0
3 *612:A 0
4 *614:B 0.000172516
5 *636:A2 0
6 *732:Q 0.000258192
7 *375:20 0.000287528
8 *375:16 0.00027613
9 *375:10 0.000300379
10 *611:B *614:B 6.08467e-05
11 *612:B *375:16 6.27782e-05
12 *612:B *375:20 3.29737e-05
13 *613:B *375:16 3.30938e-05
14 *614:A *614:B 6.08467e-05
15 *617:B1 *637:A2 7.60278e-05
16 *636:B1 *614:B 0.000155293
17 *637:A1 *637:A2 6.08467e-05
18 *637:A1 *375:10 2.63824e-05
19 *637:A1 *375:16 1.21985e-05
20 *637:B1 *637:A2 5.28114e-05
21 *659:B *375:10 7.50722e-05
22 *730:D *614:B 0.000195927
23 *731:D *375:20 0.000112367
24 *732:D *375:10 0
25 *132:10 *375:20 1.4106e-05
26 *136:12 *614:B 6.08467e-05
27 *136:20 *614:B 2.08133e-05
28 *136:20 *375:20 7.01935e-06
29 *137:6 *375:20 1.77588e-05
30 *137:21 *375:16 1.63652e-05
*RES
1 *732:Q *375:10 17.135 
2 *375:10 *375:16 8.30115 
3 *375:16 *375:20 3.93045 
4 *375:20 *636:A2 9.24915 
5 *375:20 *614:B 24.1588 
6 *375:16 *612:A 9.24915 
7 *375:10 *658:B 13.7491 
8 *732:Q *637:A2 22.0429 
*END

*D_NET *376 0.000394559
*CONN
*I *604:B I *D sky130_fd_sc_hd__xnor2_1
*I *728:Q O *D sky130_fd_sc_hd__dfrtp_1
*CAP
1 *604:B 0.000111605
2 *728:Q 0.000111605
3 *604:B *604:A 0.000118002
4 *604:B *377:19 2.16355e-05
5 *172:12 *604:B 3.17114e-05
*RES
1 *728:Q *604:B 30.4689 
*END

*D_NET *377 0.00269082
*CONN
*I *639:A I *D sky130_fd_sc_hd__inv_1
*I *604:A I *D sky130_fd_sc_hd__xnor2_1
*I *728:D I *D sky130_fd_sc_hd__dfrtp_1
*I *726:Q O *D sky130_fd_sc_hd__dfrtp_1
*CAP
1 *639:A 0.000290241
2 *604:A 0.00010677
3 *728:D 0
4 *726:Q 0.000156419
5 *377:19 0.000734157
6 *377:10 0.000493565
7 *639:A *686:RESET_B 7.49476e-05
8 *639:A *379:12 0.000158944
9 *639:A *439:192 0
10 *377:10 *728:RESET_B 6.25524e-05
11 *377:10 *728:CLK 0.000210531
12 *377:19 *686:RESET_B 2.65732e-05
13 *377:19 *728:RESET_B 0.000118398
14 *604:B *604:A 0.000118002
15 *604:B *377:19 2.16355e-05
16 *615:B *604:A 4.91133e-05
17 *615:B *639:A 9.04726e-06
18 *757:D *639:A 0
19 *52:25 *639:A 5.99182e-05
20 *172:12 *639:A 0
21 *238:25 *639:A 0
*RES
1 *726:Q *377:10 14.0477 
2 *377:10 *728:D 9.24915 
3 *377:10 *377:19 13.5424 
4 *377:19 *604:A 17.2421 
5 *377:19 *639:A 22.4684 
*END

*D_NET *378 0.00031555
*CONN
*I *726:D I *D sky130_fd_sc_hd__dfrtp_1
*I *727:Q O *D sky130_fd_sc_hd__dfrtp_1
*CAP
1 *726:D 0.00015059
2 *727:Q 0.00015059
3 *56:166 *726:D 1.43698e-05
*RES
1 *727:Q *726:D 30.8842 
*END

*D_NET *379 0.000973822
*CONN
*I *640:B I *D sky130_fd_sc_hd__nand2_1
*I *660:A I *D sky130_fd_sc_hd__nor2_1
*I *686:Q O *D sky130_fd_sc_hd__dfrtp_1
*CAP
1 *640:B 3.34916e-05
2 *660:A 0
3 *686:Q 0.000140564
4 *379:12 0.000174056
5 *379:12 *686:RESET_B 0.000151741
6 *639:A *379:12 0.000158944
7 *661:A1 *640:B 0.000222149
8 *52:25 *379:12 1.4091e-06
9 *68:61 *640:B 9.14669e-05
*RES
1 *686:Q *379:12 22.1896 
2 *379:12 *660:A 9.24915 
3 *379:12 *640:B 11.6364 
*END

*D_NET *384 0.0276822
*CONN
*I *757:RESET_B I *D sky130_fd_sc_hd__dfrtp_1
*I *694:RESET_B I *D sky130_fd_sc_hd__dfrtp_1
*I *690:RESET_B I *D sky130_fd_sc_hd__dfrtp_1
*I *692:RESET_B I *D sky130_fd_sc_hd__dfrtp_1
*I *756:RESET_B I *D sky130_fd_sc_hd__dfrtp_1
*I *689:RESET_B I *D sky130_fd_sc_hd__dfrtp_1
*I *687:RESET_B I *D sky130_fd_sc_hd__dfrtp_1
*I *693:RESET_B I *D sky130_fd_sc_hd__dfrtp_1
*I *691:RESET_B I *D sky130_fd_sc_hd__dfrtp_1
*I *754:RESET_B I *D sky130_fd_sc_hd__dfrtp_1
*I *688:RESET_B I *D sky130_fd_sc_hd__dfrtp_1
*I *755:RESET_B I *D sky130_fd_sc_hd__dfrtp_1
*I *722:Q O *D sky130_fd_sc_hd__dfrtp_1
*CAP
1 *757:RESET_B 0.000254125
2 *694:RESET_B 0.000170225
3 *690:RESET_B 0.000207092
4 *692:RESET_B 0.00027863
5 *756:RESET_B 0.0010689
6 *689:RESET_B 3.12065e-05
7 *687:RESET_B 0.000722941
8 *693:RESET_B 0.000203181
9 *691:RESET_B 0.00135101
10 *754:RESET_B 0.000372825
11 *688:RESET_B 0.000679589
12 *755:RESET_B 0.0010186
13 *722:Q 0.000358684
14 *384:158 0.000672151
15 *384:142 0.000731052
16 *384:102 0.00130329
17 *384:78 0.00149983
18 *384:48 0.00264513
19 *384:38 0.00275203
20 *688:RESET_B *451:10 4.12533e-05
21 *689:RESET_B *447:33 1.50838e-05
22 *690:RESET_B *694:CLK 9.14669e-05
23 *691:RESET_B *516:A2 7.72722e-05
24 *691:RESET_B *691:CLK 1.41291e-05
25 *691:RESET_B *438:274 0.00017419
26 *691:RESET_B *442:12 1.43832e-05
27 *691:RESET_B *442:148 7.25565e-05
28 *754:RESET_B *442:22 0
29 *755:RESET_B *532:A 0
30 *756:RESET_B *713:CLK 0.000202984
31 *756:RESET_B *438:68 5.04423e-06
32 *757:RESET_B *669:A2 6.7212e-06
33 *757:RESET_B *438:218 1.30094e-05
34 *757:RESET_B *438:231 0.000243795
35 *384:78 *437:31 0
36 *384:102 *510:A2 0.000113939
37 *466:A *688:RESET_B 8.92639e-05
38 *467:A1 *688:RESET_B 4.46802e-06
39 *467:B1 *755:RESET_B 0.000101638
40 *468:A1 *688:RESET_B 1.92336e-05
41 *485:A1 *384:142 0
42 *505:A *755:RESET_B 0.000405756
43 *506:A *755:RESET_B 7.73661e-05
44 *513:B1 *688:RESET_B 4.30017e-06
45 *513:B2 *688:RESET_B 6.08467e-05
46 *517:B *384:142 0
47 *518:C *687:RESET_B 0.000239354
48 *530:A1 *756:RESET_B 6.27718e-05
49 *554:A1 *691:RESET_B 4.31539e-05
50 *559:B1 *384:102 0.000177772
51 *560:B *692:RESET_B 5.37479e-05
52 *564:B *756:RESET_B 5.23435e-05
53 *565:A2 *756:RESET_B 0.000160047
54 *568:B *687:RESET_B 6.63895e-05
55 *568:B *384:142 0
56 *570:A *384:78 0.000201734
57 *578:A *384:78 0.000310668
58 *590:A *384:48 0.000307951
59 *590:B *384:48 2.20471e-05
60 *618:A *384:78 5.35836e-05
61 *618:C *384:78 0
62 *629:A1 *384:78 2.69064e-05
63 *644:A1 *757:RESET_B 4.92146e-05
64 *669:B1 *757:RESET_B 0.000119321
65 *689:D *756:RESET_B 2.85865e-05
66 *691:D *691:RESET_B 9.46208e-05
67 *694:D *384:158 5.19347e-05
68 *702:RESET_B *756:RESET_B 5.52256e-05
69 *708:RESET_B *688:RESET_B 0.000269407
70 *713:RESET_B *756:RESET_B 0.000206699
71 *724:D *755:RESET_B 0
72 *729:D *384:78 0
73 *732:RESET_B *384:78 0.000146533
74 *752:D *384:48 0.000311249
75 *755:D *755:RESET_B 0
76 *785:A *384:158 2.01503e-05
77 *52:68 *687:RESET_B 0.000619673
78 *52:76 *687:RESET_B 6.14128e-05
79 *54:105 *384:48 0.000101966
80 *54:134 *755:RESET_B 0.000219139
81 *56:166 *384:78 2.69064e-05
82 *68:10 *690:RESET_B 0.00038846
83 *68:10 *384:142 0
84 *68:20 *688:RESET_B 3.75603e-05
85 *69:18 *689:RESET_B 0.000103359
86 *75:12 *756:RESET_B 6.93171e-05
87 *92:10 *754:RESET_B 0.000442911
88 *94:18 *687:RESET_B 0.000129359
89 *96:33 *384:78 0
90 *96:33 *384:102 3.31736e-05
91 *96:44 *756:RESET_B 9.39718e-05
92 *96:44 *384:102 4.67927e-05
93 *96:82 *384:158 0
94 *96:88 *384:142 3.87022e-06
95 *96:88 *384:158 0.000124143
96 *96:112 *384:142 0.000153225
97 *96:127 *691:RESET_B 2.61857e-05
98 *96:141 *691:RESET_B 2.59905e-05
99 *119:12 *384:48 0.000136298
100 *186:25 *384:142 0.000161849
101 *189:14 *688:RESET_B 9.96342e-05
102 *194:10 *384:38 5.69771e-05
103 *194:10 *384:48 7.19845e-05
104 *197:22 *384:78 7.75178e-06
105 *210:15 *754:RESET_B 0.000107486
106 *235:10 *384:48 7.91801e-06
107 *240:10 *756:RESET_B 2.40915e-05
108 *240:25 *384:102 0
109 *288:18 *384:142 2.23069e-05
110 *324:85 *691:RESET_B 0.000299298
111 *324:85 *384:48 0.000190871
112 *324:194 *384:142 0.000143099
113 *324:194 *384:158 0.000266927
114 *324:217 *690:RESET_B 0.000213725
115 *324:217 *384:158 0.000368777
116 *329:12 *756:RESET_B 0.000153395
117 *330:14 *690:RESET_B 0.000392058
118 *331:12 *384:48 0.000167076
119 *331:14 *384:48 6.08697e-06
120 *331:31 *384:48 4.26935e-05
121 *331:38 *384:48 2.29151e-05
122 *331:38 *384:78 7.75929e-05
123 *331:40 *384:78 0.000116428
124 *331:57 *384:78 0.000166749
125 *349:12 *384:78 0.000118873
126 *350:10 *384:48 0
127 *350:10 *384:78 0
128 *361:8 *384:78 0.000231378
*RES
1 *722:Q *755:RESET_B 31.2929 
2 *755:RESET_B *688:RESET_B 24.8056 
3 *688:RESET_B *384:38 5.139 
4 *384:38 *384:48 32.0605 
5 *384:48 *754:RESET_B 19.4024 
6 *384:48 *691:RESET_B 28.969 
7 *384:38 *384:78 46.6792 
8 *384:78 *693:RESET_B 4.5 
9 *691:RESET_B *687:RESET_B 22.4591 
10 *693:RESET_B *384:102 11.315 
11 *384:102 *689:RESET_B 5.6936 
12 *384:102 *756:RESET_B 35.4911 
13 *687:RESET_B *384:142 16.8033 
14 *384:142 *692:RESET_B 5.139 
15 *384:142 *384:158 16.7866 
16 *384:158 *690:RESET_B 19.3114 
17 *384:158 *694:RESET_B 3.41202 
18 *692:RESET_B *757:RESET_B 17.0086 
*END

*D_NET *407 0.000597479
*CONN
*I *516:A2 I *D sky130_fd_sc_hd__a22oi_1
*I *718:Q O *D sky130_fd_sc_hd__dfrtp_1
*CAP
1 *516:A2 0.000149901
2 *718:Q 0.000149901
3 *516:A2 *691:CLK 6.50727e-05
4 *516:A2 *438:274 5.79399e-05
5 *516:B2 *516:A2 8.66189e-06
6 *518:A *516:A2 5.06806e-06
7 *691:RESET_B *516:A2 7.72722e-05
8 *96:127 *516:A2 8.36615e-05
*RES
1 *718:Q *516:A2 32.6464 
*END

*D_NET *408 0.00154265
*CONN
*I *513:A2 I *D sky130_fd_sc_hd__a22oi_1
*I *719:Q O *D sky130_fd_sc_hd__dfrtp_1
*CAP
1 *513:A2 0.000544369
2 *719:Q 0.000544369
3 *513:A2 *688:CLK 1.43983e-05
4 *513:A2 *451:10 0.000122068
5 *513:B1 *513:A2 1.81485e-05
6 *688:D *513:A2 0.000164829
7 *68:20 *513:A2 1.59885e-05
8 *350:10 *513:A2 0.000118485
*RES
1 *719:Q *513:A2 37.4497 
*END

*D_NET *409 0.00119287
*CONN
*I *510:A2 I *D sky130_fd_sc_hd__a22oi_1
*I *720:Q O *D sky130_fd_sc_hd__dfrtp_1
*CAP
1 *510:A2 0.0003852
2 *720:Q 0.0003852
3 *510:A2 *728:CLK 5.34812e-05
4 *510:A2 *447:41 0
5 *481:B2 *510:A2 1.67329e-05
6 *510:A1 *510:A2 0.000153225
7 *559:B1 *510:A2 5.68225e-06
8 *693:D *510:A2 7.18205e-05
9 *54:200 *510:A2 4.30017e-06
10 *68:61 *510:A2 3.28416e-06
11 *384:102 *510:A2 0.000113939
*RES
1 *720:Q *510:A2 36.487 
*END

*D_NET *410 0.00078722
*CONN
*I *680:A2 I *D sky130_fd_sc_hd__a22oi_1
*I *721:Q O *D sky130_fd_sc_hd__dfrtp_1
*CAP
1 *680:A2 0.000274933
2 *721:Q 0.000274933
3 *642:A *680:A2 1.13587e-05
4 *643:A1 *680:A2 1.4091e-06
5 *681:A *680:A2 1.65078e-05
6 *682:A *680:A2 1.77874e-05
7 *682:C *680:A2 3.20069e-06
8 *52:21 *680:A2 1.42919e-05
9 *68:38 *680:A2 3.67708e-05
10 *68:61 *680:A2 0.000136028
*RES
1 *721:Q *680:A2 32.8863 
*END

*D_NET *411 0.00100363
*CONN
*I *715:D I *D sky130_fd_sc_hd__dfrtp_1
*I *716:Q O *D sky130_fd_sc_hd__dfrtp_1
*CAP
1 *715:D 0.000473397
2 *716:Q 0.000473397
3 *715:D *715:CLK 3.90891e-05
4 *716:RESET_B *715:D 1.77433e-05
5 *325:21 *715:D 0
*RES
1 *716:Q *715:D 35.4604 
*END
